%Nproc=28
%chk=holo2.0.chk
%mem=80GB
%NoSave
#MP2(semidirect)/Gen scf=(tight,noincore) Test
#IOP(5/87=12) Density=Current Pop=(MK,readradii) iop(6/33=2) iop(6/42=6)

holo_loop_3_model_2.0 

   0   1
   C     38.83800000    55.36100000    45.97900000
   C     39.68500000    55.48500000    47.23700000
   O     39.42200000    56.26500000    48.15000000
   O     40.71100000    54.58700000    47.27100000
   H     37.94600000    55.97900000    46.08000000
   H     39.41500000    55.69600000    45.11700000
   H     38.54500000    54.32100000    45.83900000
   H     40.70800000    54.27700000    46.36200000
   C     39.81600000    60.35700000    50.02600000
   C     38.87700000    59.16000000    49.97400000
   O     39.23200000    58.11900000    50.56900000
   O     37.82600000    59.21900000    49.30100000
   H     40.73900000    60.11700000    49.49800000
   H     39.33900000    61.21500000    49.55200000
   H     40.04400000    60.59600000    51.06500000
   C     40.87600000    56.00500000    52.44800000
   C     39.44300000    55.53700000    52.23900000
   N     38.59700000    55.73000000    53.25300000
   O     39.07900000    54.92700000    51.23600000
   H     41.50400000    55.62100000    51.64400000
   H     40.90700000    57.09500000    52.44400000
   H     41.24400000    55.63400000    53.40400000
  HD     38.77500000    56.21600000    54.12000000
  HD     37.63400000    55.42800000    53.20400000
   C     37.81200000    51.85300000    49.83800000
   C     36.91200000    52.77600000    49.02900000
   O     37.21300000    53.96200000    48.90600000
   H     38.71600000    52.38900000    50.12700000
   H     37.28400000    51.52300000    50.73300000
   H     38.08200000    50.98700000    49.23400000
   N     35.72200000    52.24800000    48.73300000
   H     35.52400000    51.28600000    48.96700000
   H     35.01900000    52.81100000    48.27500000
   C     31.84000000    54.47200000    51.62200000
   O     32.10900000    55.83500000    51.38200000
   H     31.44200000    54.16100000    50.65600000
   H     32.74300000    53.91400000    51.86800000
   H     31.04000000    54.22000000    52.31900000
   H     32.89000000    55.78900000    50.82500000
   C     33.19400000    57.68100000    48.40800000
   C     34.37900000    56.77500000    48.71100000
   O     34.49300000    56.22600000    49.82800000
   O     35.30700000    56.73800000    47.87400000
   H     32.36400000    57.42600000    49.06700000
   H     33.48000000    58.72000000    48.57000000
   H     32.88800000    57.54500000    47.37100000
  Ca     37.34200000    56.37500000    49.98600000
   O     35.97800000    54.88800000    51.89300000
   H     35.22800000    55.27500000    51.44100000
   H     35.59000000    54.34700000    52.58100000

C O H 0
aug-cc-pVTZ 
****
@/home/pzhang5/ca_ccpvtz_basisset.gbs/N

Ca 1.70




