%Nproc=28
%chk=holo8.1.chk
%mem=80GB
%NoSave
#MP2(semidirect)/Gen scf=(tight,noincore) Test
#IOP(5/87=12) Density=Current Pop=(MK,readradii) iop(6/33=2) iop(6/42=6)

holo_loop_3_model_8.1 

   0   1
   C     32.12500000    24.22600000    43.58700000
   C     32.02700000    25.26900000    44.69100000
   O     30.96800000    25.54900000    45.25000000
   O     33.19500000    25.85600000    45.08000000
   H     33.17400000    24.00600000    43.38800000
   H     31.61700000    23.31500000    43.90100000
   H     31.65700000    24.61000000    42.68100000
   H     33.84100000    25.37800000    44.55400000
   C     28.25000000    28.39300000    47.16700000
   C     28.86700000    27.33000000    48.06400000
   O     28.37400000    27.11100000    49.19100000
   O     29.83800000    26.69700000    47.59500000
   H     27.33500000    28.76800000    47.62500000
   H     28.95400000    29.21500000    47.03900000
   H     28.01800000    27.95900000    46.19500000
   C     32.67300000    27.57600000    49.34200000
   C     32.51200000    26.06500000    49.42100000
   N     32.29100000    25.56000000    50.63700000
   O     32.56000000    25.30200000    48.45800000
   H     33.61000000    27.81500000    48.83900000
   H     31.84100000    28.00200000    48.78100000
   H     32.68500000    27.99400000    50.34900000
  HD     32.28200000    26.01100000    51.54100000
  HD     32.30000000    24.55100000    50.66700000
   C     34.64000000    22.28600000    47.19300000
   C     33.27100000    21.85900000    46.68300000
   O     32.35500000    22.66100000    46.51300000
   H     35.33000000    22.37000000    46.35300000
   H     34.55700000    23.25100000    47.69300000
   H     35.01400000    21.54300000    47.89700000
   N     33.09100000    20.56400000    46.41500000
   H     33.84800000    19.91000000    46.55400000
   H     32.19800000    20.23800000    46.07300000
   C     29.02400000    18.73400000    49.67400000
   O     27.98000000    19.65900000    49.46700000
   H     29.19000000    18.29500000    48.69000000
   H     29.98300000    19.17400000    49.94800000
   H     28.73700000    17.93500000    50.35800000
   H     27.61200000    19.93700000    50.30900000
   C     26.87100000    21.84200000    45.88400000
   C     28.14900000    22.61300000    46.18500000
   O     28.07500000    23.86000000    46.15000000
   O     29.07200000    21.97900000    46.74000000
   H     26.09300000    22.53800000    45.57000000
   H     27.05900000    21.12400000    45.08600000
   H     26.54500000    21.31400000    46.78000000
  Ca     30.46600000    24.12400000    47.47300000
   O     30.27300000    21.74900000    49.01200000
   H     29.46700000    21.53400000    48.54200000
   H     30.03500000    21.68900000    49.93700000

C O H 0
aug-cc-pVTZ 
****
@/home/pzhang5/ca_ccpvtz_basisset.gbs/N

Ca 1.70




