%chk=Ng-293_loop3_13.0.chk
%nprocshared=48
%mem=10GB
%nosave
#b3lyp/svp scf=(tight,noincore) Test 
#IOP(5/87=12) Density=Current Pop=(MK,readradii) iop(6/33=2) iop(6/42=6)

Ng-293_loop3_13.0 

   0   1
   C     54.19000000    55.23000000    43.90000000
   C     53.92000000    55.55000000    45.36000000
   O     52.80000000    55.31000000    45.82000000
   H     55.23400000    54.94000000    43.77900000
   H     53.54600000    54.41000000    43.58200000
   H     53.98600000    56.11000000    43.29100000
   N     54.98000000    56.00000000    46.03000000
   C     55.07000000    56.16000000    47.47000000
   C     54.18000000    57.17000000    48.18000000
   O     54.66000000    58.21000000    48.62000000
   C     55.08000000    54.82000000    48.21000000
   C     56.23000000    53.90000000    47.84000000
   O     56.10000000    52.89000000    47.12000000
   O     57.40000000    54.21000000    48.17000000
   H     55.84000000    56.11000000    45.51000000
   H     56.11000000    56.46000000    47.61000000
   H     54.14000000    54.29000000    48.04000000
   H     55.16000000    54.99000000    49.28000000
   N     52.86000000    56.96000000    48.13000000
   C     51.81000000    57.80000000    48.66000000
   C     52.19000000    58.42000000    50.00000000
   O     52.09000000    59.63000000    50.20000000
   C     50.48000000    57.05000000    48.54000000
   C     50.25000000    56.00000000    49.63000000
   C     51.16000000    54.79000000    49.76000000
   C     50.65000000    53.95000000    50.94000000
   N     51.11000000    54.33000000    52.28000000
   H     52.49000000    56.33000000    47.43000000
   H     51.77000000    58.61000000    47.93000000
   H     50.43000000    56.61000000    47.55000000
   H     49.72000000    57.83000000    48.48000000
   H     49.23000000    55.69000000    49.36000000
   H     50.11000000    56.58000000    50.54000000
   H     52.23000000    54.98000000    49.80000000
   H     51.02000000    54.20000000    48.85000000
   H     50.82000000    52.90000000    50.68000000
   H     49.58000000    54.12000000    50.96000000
   H     50.81000000    53.75000000    53.05000000
   H     52.11000000    54.27000000    52.24000000
   H     50.89000000    55.30000000    52.47000000
   N     52.77000000    57.51000000    50.78000000
   C     53.64000000    57.60000000    51.93000000
   C     54.17000000    56.22000000    52.29000000
   O     53.69000000    55.18000000    51.84000000
   C     53.01000000    58.25000000    53.16000000
   C     51.56000000    57.91000000    53.48000000
   O     51.02000000    58.56000000    54.40000000
   O     50.89000000    56.92000000    53.10000000
   H     52.71000000    56.55000000    50.45000000
   H     54.49000000    58.23000000    51.68000000
   H     53.00000000    59.34000000    53.12000000
   H     53.62000000    58.05000000    54.03000000
   N     55.25000000    56.22000000    53.08000000
   C     56.09000000    55.08000000    53.37000000
   C     55.54000000    54.34000000    54.58000000
   O     54.63000000    54.89000000    55.20000000
   H     55.44000000    57.11000000    53.52000000
   H     57.13000000    55.38000000    53.52000000
   H     56.03000000    54.40000000    52.53000000
   N     55.97000000    53.10000000    54.83000000
   C     55.41000000    52.26000000    55.87000000
   C     56.40000000    51.40000000    56.64000000
   O     55.97000000    50.43000000    57.25000000
   C     54.14000000    51.55000000    55.44000000
   C     52.96000000    52.45000000    55.10000000
   N     52.17000000    53.05000000    55.99000000
   O     52.74000000    52.67000000    53.91000000
   H     56.86000000    52.79000000    54.46000000
   H     55.09000000    52.89000000    56.71000000
   H     53.64000000    50.90000000    56.16000000
   H     54.35000000    51.01000000    54.51000000
   H     52.41000000    53.06000000    56.97000000
   H     51.57000000    53.75000000    55.57000000
   N     57.70000000    51.71000000    56.69000000
   C     58.69000000    51.02000000    57.49000000
   C     58.94000000    49.60000000    56.98000000
   O     59.30000000    49.48000000    55.82000000
   H     58.04000000    52.53000000    56.20000000
   H     58.25000000    50.90000000    58.48000000
   H     59.64000000    51.54000000    57.51000000
   N     58.66000000    48.56000000    57.77000000
   C     58.47000000    47.19000000    57.34000000
   C     57.32000000    46.84000000    56.41000000
   O     57.07000000    45.67000000    56.14000000
   C     59.75000000    46.57000000    56.78000000
   C     60.99000000    46.75000000    57.62000000
   C     61.15000000    46.07000000    58.84000000
   C     61.98000000    47.63000000    57.17000000
   C     62.31000000    46.20000000    59.62000000
   C     63.14000000    47.80000000    57.93000000
   C     63.28000000    47.10000000    59.14000000
   O     64.53000000    47.07000000    59.71000000
   H     58.33000000    48.74000000    58.71000000
   H     58.32000000    46.59000000    58.24000000
   H     59.98000000    46.99000000    55.80000000
   H     59.51000000    45.51000000    56.68000000
   H     60.39000000    45.35000000    59.10000000
   H     61.84000000    48.22000000    56.27000000
   H     62.39000000    45.67000000    60.56000000
   H     63.89000000    48.53000000    57.68000000
   H     65.18000000    47.50000000    59.15000000
   N     56.56000000    47.86000000    55.99000000
   C     55.43000000    47.78000000    55.09000000
   C     54.23000000    47.11000000    55.76000000
   O     53.16000000    47.70000000    55.80000000
   C     55.67000000    47.24000000    53.68000000
   C     57.02000000    47.69000000    53.13000000
   C     54.55000000    47.72000000    52.77000000
   C     57.06000000    49.20000000    52.91000000
   H     56.70000000    48.78000000    56.37000000
   H     55.07000000    48.81000000    55.04000000
   H     55.66000000    46.15000000    53.66000000
   H     57.22000000    47.23000000    52.16000000
   H     57.84000000    47.38000000    53.77000000
   H     54.82000000    47.64000000    51.71000000
   H     53.73000000    47.01000000    52.90000000
   H     54.31000000    48.76000000    52.95000000
   H     57.96000000    49.52000000    52.39000000
   H     56.27000000    49.45000000    52.20000000
   H     56.99000000    49.75000000    53.85000000
   N     54.31000000    45.88000000    56.28000000
   C     53.27000000    45.15000000    56.98000000
   C     52.16000000    44.75000000    56.02000000
   O     51.06000000    44.57000000    56.54000000
   C     53.89000000    43.90000000    57.60000000
   O     54.68000000    43.28000000    56.61000000
   H     55.23000000    45.46000000    56.26000000
   H     52.88000000    45.70000000    57.84000000
   H     53.04000000    43.25000000    57.81000000
   H     54.44000000    44.19000000    58.49000000
   H     54.72000000    42.36000000    56.87000000
   N     52.33000000    44.73000000    54.70000000
   C     51.26000000    44.71000000    53.72000000
   C     50.23000000    45.82000000    53.88000000
   O     49.24000000    45.90000000    53.16000000
   C     50.58000000    43.35000000    53.63000000
   H     53.25000000    44.87000000    54.32000000
   H     51.77000000    44.98000000    52.80000000
   H     51.30000000    42.69000000    53.14000000
   H     50.26000000    42.99000000    54.61000000
   H     49.72000000    43.54000000    52.98000000
   N     50.49000000    46.82000000    54.72000000
   C     49.66000000    48.01000000    54.79000000
   C     49.69000000    48.93000000    53.57000000
   O     50.69000000    49.05000000    52.87000000
   C     50.10000000    48.81000000    56.01000000
   H     51.30000000    46.78000000    55.33000000
   H     48.66000000    47.62000000    54.98000000
   H     51.02000000    49.31000000    55.70000000
   H     49.31000000    49.55000000    56.20000000
   H     50.19000000    48.15000000    56.88000000
   N     48.51000000    49.56000000    53.48000000
   C     48.21000000    50.66000000    52.59000000
   C     48.57000000    50.39000000    51.14000000
   O     48.49000000    51.32000000    50.33000000
   C     48.89000000    51.90000000    53.17000000
   C     48.50000000    52.27000000    54.59000000
   C     48.76000000    53.72000000    54.97000000
   O     47.83000000    54.31000000    55.57000000
   O     49.86000000    54.23000000    54.69000000
   H     47.86000000    49.36000000    54.23000000
   H     47.14000000    50.84000000    52.66000000
   H     48.54000000    52.71000000    52.53000000
   H     49.97000000    51.75000000    53.15000000
   H     48.87000000    51.54000000    55.31000000
   H     47.44000000    52.08000000    54.77000000
   N     48.77000000    49.14000000    50.73000000
   C     49.15000000    48.83000000    49.36000000
   H     50.18200000    48.48000000    49.34000000
   H     48.49500000    48.05100000    48.96800000
   H     49.05900000    49.72600000    48.74500000
   H     48.91000000    48.44000000    51.44000000
  Ca     49.65000000    56.80000000    55.60000000
   O     50.33000000    58.18000000    57.71000000
   H     49.94000000    58.52000000    58.52000000
   H     51.04000000    58.78000000    57.51000000

Ca 1.70



