%chk=Ng-293_loop3_15.0.chk
%nprocshared=48
%mem=10GB
%nosave
#b3lyp/svp scf=(tight,noincore) Test 
#IOP(5/87=12) Density=Current Pop=(MK,readradii) iop(6/33=2) iop(6/42=6)

Ng-293_loop3_15.0 

   0   1
   C     47.19000000    69.22000000    69.81000000
   C     48.38000000    69.25000000    68.87000000
   O     49.45000000    69.65000000    69.33000000
   H     46.32400000    68.81700000    69.28600000
   H     47.42000000    68.58900000    70.66900000
   H     46.96900000    70.23200000    70.15000000
   N     48.16000000    68.91000000    67.59000000
   C     49.19000000    68.54000000    66.64000000
   C     49.14000000    67.14000000    66.06000000
   O     48.05000000    66.56000000    65.96000000
   C     49.22000000    69.52000000    65.46000000
   C     50.39000000    69.34000000    64.51000000
   O     51.52000000    69.04000000    64.94000000
   O     50.20000000    69.61000000    63.30000000
   H     47.19000000    68.79000000    67.35000000
   H     50.10000000    68.64000000    67.22000000
   H     49.34000000    70.52000000    65.89000000
   H     48.28000000    69.52000000    64.91000000
   N     50.27000000    66.57000000    65.64000000
   C     50.50000000    65.42000000    64.79000000
   C     49.84000000    65.55000000    63.42000000
   O     49.42000000    66.64000000    63.06000000
   C     50.10000000    64.17000000    65.57000000
   C     50.81000000    63.87000000    66.89000000
   C     52.30000000    63.59000000    66.82000000
   C     52.53000000    62.36000000    67.70000000
   N     53.57000000    62.58000000    68.71000000
   H     51.13000000    67.08000000    65.80000000
   H     51.57000000    65.28000000    64.67000000
   H     50.26000000    63.34000000    64.88000000
   H     49.02000000    64.08000000    65.70000000
   H     50.22000000    63.03000000    67.28000000
   H     50.63000000    64.71000000    67.55000000
   H     52.75000000    64.43000000    67.35000000
   H     52.73000000    63.42000000    65.83000000
   H     52.82000000    61.55000000    67.03000000
   H     51.56000000    62.06000000    68.10000000
   H     53.75000000    61.78000000    69.30000000
   H     54.51000000    62.78000000    68.40000000
   H     53.28000000    63.33000000    69.33000000
   N     49.73000000    64.46000000    62.65000000
   C     49.03000000    64.51000000    61.38000000
   C     47.55000000    64.18000000    61.59000000
   O     47.09000000    63.78000000    62.65000000
   C     49.66000000    63.61000000    60.33000000
   C     49.89000000    62.18000000    60.79000000
   O     49.59000000    61.78000000    61.94000000
   O     50.45000000    61.34000000    60.05000000
   H     49.90000000    63.54000000    63.02000000
   H     48.93000000    65.53000000    61.00000000
   H     50.64000000    64.05000000    60.14000000
   H     49.05000000    63.58000000    59.44000000
   N     46.80000000    64.33000000    60.49000000
   C     45.40000000    63.97000000    60.44000000
   C     45.27000000    62.49000000    60.11000000
   O     45.89000000    62.00000000    59.17000000
   H     47.32000000    64.72000000    59.71000000
   H     44.91000000    64.52000000    59.63000000
   H     44.95000000    64.18000000    61.41000000
   N     44.50000000    61.74000000    60.91000000
   C     44.45000000    60.29000000    60.86000000
   C     43.06000000    59.73000000    60.62000000
   O     42.74000000    58.61000000    61.02000000
   C     45.14000000    59.68000000    62.08000000
   C     46.64000000    59.96000000    62.15000000
   N     47.07000000    60.66000000    63.20000000
   O     47.47000000    59.50000000    61.37000000
   H     43.81000000    62.14000000    61.53000000
   H     45.00000000    60.01000000    59.97000000
   H     45.11000000    58.60000000    62.20000000
   H     44.65000000    60.11000000    62.95000000
   H     46.43000000    61.18000000    63.78000000
   H     47.97000000    61.11000000    63.09000000
   N     42.18000000    60.48000000    59.95000000
   C     40.92000000    59.92000000    59.51000000
   C     40.02000000    59.23000000    60.52000000
   O     39.78000000    59.85000000    61.55000000
   H     42.39000000    61.41000000    59.61000000
   H     41.15000000    59.14000000    58.78000000
   H     40.40000000    60.73000000    58.99000000
   N     39.54000000    57.99000000    60.31000000
   C     38.93000000    57.21000000    61.37000000
   C     39.68000000    56.87000000    62.65000000
   O     39.15000000    56.27000000    63.58000000
   C     37.54000000    57.73000000    61.73000000
   C     36.64000000    58.20000000    60.61000000
   C     36.08000000    57.24000000    59.76000000
   C     36.14000000    59.50000000    60.56000000
   C     35.16000000    57.70000000    58.82000000
   C     35.21000000    59.99000000    59.63000000
   C     34.63000000    59.00000000    58.81000000
   O     33.55000000    59.24000000    58.00000000
   H     39.89000000    57.50000000    59.50000000
   H     38.75000000    56.23000000    60.92000000
   H     37.59000000    58.51000000    62.49000000
   H     36.99000000    56.92000000    62.21000000
   H     36.44000000    56.22000000    59.78000000
   H     36.43000000    60.07000000    61.42000000
   H     34.79000000    56.97000000    58.11000000
   H     34.96000000    61.04000000    59.56000000
   H     33.37000000    60.16000000    58.16000000
   N     40.97000000    57.17000000    62.79000000
   C     41.86000000    56.77000000    63.87000000
   C     42.17000000    55.28000000    63.85000000
   O     43.35000000    54.95000000    63.81000000
   C     41.60000000    57.39000000    65.24000000
   C     41.16000000    58.85000000    65.12000000
   C     42.72000000    57.16000000    66.25000000
   C     42.03000000    59.83000000    64.35000000
   H     41.44000000    57.57000000    62.00000000
   H     42.80000000    57.22000000    63.55000000
   H     40.70000000    56.90000000    65.61000000
   H     41.07000000    59.22000000    66.14000000
   H     40.20000000    58.89000000    64.60000000
   H     42.41000000    57.47000000    67.24000000
   H     42.99000000    56.10000000    66.25000000
   H     43.66000000    57.69000000    66.12000000
   H     43.06000000    59.91000000    64.70000000
   H     42.02000000    59.54000000    63.30000000
   H     41.68000000    60.86000000    64.40000000
   N     41.14000000    54.45000000    63.98000000
   C     41.28000000    53.02000000    63.73000000
   C     42.05000000    52.26000000    64.81000000
   O     42.67000000    51.30000000    64.37000000
   C     39.89000000    52.44000000    63.52000000
   O     39.07000000    52.70000000    64.64000000
   H     40.23000000    54.81000000    64.20000000
   H     41.83000000    52.84000000    62.81000000
   H     39.94000000    51.35000000    63.53000000
   H     39.37000000    52.83000000    62.65000000
   H     38.17000000    52.68000000    64.32000000
   N     42.10000000    52.76000000    66.04000000
   C     42.83000000    52.18000000    67.15000000
   C     44.34000000    52.26000000    67.02000000
   O     45.05000000    51.83000000    67.92000000
   C     42.29000000    50.80000000    67.49000000
   H     41.62000000    53.65000000    66.15000000
   H     42.54000000    52.80000000    68.01000000
   H     41.20000000    50.88000000    67.54000000
   H     42.61000000    50.03000000    66.79000000
   H     42.59000000    50.54000000    68.51000000
   N     44.91000000    52.96000000    66.03000000
   C     46.32000000    53.28000000    65.92000000
   C     46.70000000    54.63000000    66.51000000
   O     45.80000000    55.45000000    66.70000000
   C     46.68000000    53.19000000    64.44000000
   H     44.40000000    53.30000000    65.23000000
   H     46.90000000    52.48000000    66.37000000
   H     46.18000000    53.93000000    63.81000000
   H     47.75000000    53.36000000    64.37000000
   H     46.53000000    52.15000000    64.15000000
   N     47.97000000    54.90000000    66.79000000
   C     48.59000000    56.12000000    67.26000000
   C     48.10000000    56.74000000    68.56000000
   O     48.60000000    57.81000000    68.91000000
   C     48.67000000    57.14000000    66.12000000
   C     49.23000000    56.57000000    64.82000000
   C     49.23000000    57.59000000    63.70000000
   O     49.22000000    57.22000000    62.50000000
   O     49.50000000    58.79000000    63.91000000
   H     48.63000000    54.18000000    66.52000000
   H     49.62000000    55.83000000    67.46000000
   H     49.26000000    58.00000000    66.43000000
   H     47.70000000    57.56000000    65.84000000
   H     48.48000000    55.83000000    64.53000000
   H     50.22000000    56.14000000    64.97000000
   N     47.14000000    56.10000000    69.23000000
   C     46.49000000    56.68000000    70.39000000
   H     45.48400000    56.27100000    70.48500000
   H     47.06400000    56.44300000    71.28600000
   H     46.43100000    57.76200000    70.27100000
   H     46.80000000    55.20000000    68.91000000
  Ca     50.47000000    59.34000000    61.63000000
   O     49.82000000    58.07000000    59.34000000
   H     50.29000000    57.29000000    59.05000000
   H     48.90000000    57.84000000    59.24000000

Ca 1.70



