%chk=Ng-293_loop3_3.0.chk
%nprocshared=48
%mem=10GB
%nosave
#b3lyp/svp scf=(tight,noincore) Test 
#IOP(5/87=12) Density=Current Pop=(MK,readradii) iop(6/33=2) iop(6/42=6)

Ng-293_loop3_3.0 

   0   1
   C     34.09000000    12.27000000    -0.96000000
   C     33.43000000    12.99000000    -2.13000000
   O     33.82000000    12.71000000    -3.27000000
   H     34.99700000    12.80200000    -0.67100000
   H     33.40200000    12.24100000    -0.11500000
   H     34.34500000    11.25300000    -1.25600000
   N     32.46000000    13.86000000    -1.86000000
   C     31.65000000    14.55000000    -2.84000000
   C     30.16000000    14.32000000    -2.67000000
   O     29.67000000    14.27000000    -1.54000000
   C     31.89000000    16.06000000    -2.80000000
   C     31.13000000    16.80000000    -3.88000000
   O     30.03000000    17.31000000    -3.58000000
   O     31.68000000    16.92000000    -4.99000000
   H     32.05000000    13.86000000    -0.94000000
   H     31.89000000    14.28000000    -3.87000000
   H     32.93000000    16.31000000    -3.01000000
   H     31.49000000    16.36000000    -1.83000000
   N     29.49000000    14.15000000    -3.82000000
   C     28.17000000    13.59000000    -3.99000000
   C     26.96000000    14.29000000    -3.39000000
   O     25.87000000    13.92000000    -3.84000000
   C     28.15000000    12.12000000    -3.58000000
   C     29.18000000    11.23000000    -4.29000000
   C     28.76000000     9.78000000    -4.09000000
   C     29.59000000     8.75000000    -4.86000000
   N     31.04000000     8.99000000    -4.72000000
   H     29.97000000    14.15000000    -4.71000000
   H     28.02000000    13.54000000    -5.07000000
   H     27.19000000    11.72000000    -3.89000000
   H     28.27000000    12.14000000    -2.50000000
   H     30.18000000    11.48000000    -3.92000000
   H     29.14000000    11.43000000    -5.36000000
   H     27.75000000     9.51000000    -4.40000000
   H     28.85000000     9.49000000    -3.04000000
   H     29.29000000     8.87000000    -5.91000000
   H     29.35000000     7.74000000    -4.55000000
   H     31.21000000     9.14000000    -3.74000000
   H     31.53000000     8.16000000    -5.01000000
   H     31.46000000     9.71000000    -5.28000000
   N     27.14000000    15.34000000    -2.60000000
   C     26.11000000    16.22000000    -2.09000000
   C     26.63000000    17.57000000    -1.63000000
   O     27.52000000    17.63000000    -0.79000000
   C     25.39000000    15.50000000    -0.95000000
   C     24.33000000    16.37000000    -0.30000000
   O     24.41000000    16.79000000     0.87000000
   O     23.35000000    16.76000000    -0.99000000
   H     28.09000000    15.62000000    -2.38000000
   H     25.40000000    16.38000000    -2.91000000
   H     26.18000000    15.16000000    -0.28000000
   H     25.00000000    14.52000000    -1.21000000
   N     26.10000000    18.66000000    -2.20000000
   C     26.34000000    19.99000000    -1.68000000
   C     25.64000000    20.30000000    -0.36000000
   O     24.46000000    19.98000000    -0.22000000
   H     25.61000000    18.50000000    -3.07000000
   H     26.04000000    20.79000000    -2.34000000
   H     27.40000000    20.05000000    -1.46000000
   N     26.26000000    21.07000000     0.53000000
   C     25.66000000    21.56000000     1.76000000
   C     26.03000000    23.01000000     2.07000000
   O     25.52000000    23.62000000     3.01000000
   C     25.95000000    20.74000000     3.01000000
   C     25.42000000    19.34000000     2.75000000
   N     26.31000000    18.53000000     2.18000000
   O     24.21000000    19.12000000     2.83000000
   H     27.25000000    21.07000000     0.35000000
   H     24.59000000    21.59000000     1.58000000
   H     25.39000000    21.14000000     3.85000000
   H     26.99000000    20.70000000     3.33000000
   H     27.23000000    18.80000000     1.86000000
   H     25.93000000    17.65000000     1.84000000
   N     26.98000000    23.53000000     1.29000000
   C     27.51000000    24.87000000     1.47000000
   C     28.27000000    24.99000000     2.78000000
   O     29.12000000    24.16000000     3.09000000
   H     27.53000000    22.89000000     0.74000000
   H     26.74000000    25.64000000     1.34000000
   H     28.27000000    25.12000000     0.73000000
   N     27.85000000    25.93000000     3.64000000
   C     28.47000000    26.27000000     4.90000000
   C     28.29000000    25.24000000     6.01000000
   O     28.77000000    25.45000000     7.12000000
   C     29.88000000    26.82000000     4.73000000
   C     30.54000000    27.46000000     5.93000000
   C     29.84000000    28.30000000     6.80000000
   C     31.89000000    27.18000000     6.15000000
   C     30.54000000    28.97000000     7.82000000
   C     32.58000000    27.82000000     7.19000000
   C     31.92000000    28.78000000     7.99000000
   O     32.52000000    29.43000000     9.03000000
   H     27.08000000    26.53000000     3.39000000
   H     27.93000000    27.16000000     5.21000000
   H     29.75000000    27.66000000     4.04000000
   H     30.43000000    25.99000000     4.27000000
   H     28.78000000    28.47000000     6.72000000
   H     32.28000000    26.40000000     5.51000000
   H     30.01000000    29.60000000     8.51000000
   H     33.63000000    27.62000000     7.35000000
   H     33.47000000    29.43000000     9.12000000
   N     27.69000000    24.07000000     5.79000000
   C     27.44000000    23.08000000     6.83000000
   C     26.29000000    23.45000000     7.76000000
   O     25.38000000    22.64000000     7.93000000
   C     28.66000000    22.53000000     7.55000000
   C     29.81000000    22.19000000     6.60000000
   C     28.31000000    21.34000000     8.43000000
   C     31.16000000    21.89000000     7.24000000
   H     27.61000000    23.74000000     4.84000000
   H     27.05000000    22.20000000     6.31000000
   H     29.11000000    23.25000000     8.23000000
   H     30.02000000    22.99000000     5.89000000
   H     29.62000000    21.29000000     6.02000000
   H     29.14000000    20.83000000     8.91000000
   H     27.59000000    21.59000000     9.21000000
   H     27.95000000    20.63000000     7.69000000
   H     31.07000000    21.00000000     7.87000000
   H     31.93000000    21.74000000     6.49000000
   H     31.51000000    22.71000000     7.87000000
   N     26.22000000    24.68000000     8.26000000
   C     25.12000000    25.24000000     9.02000000
   C     24.59000000    24.44000000    10.20000000
   O     23.43000000    24.58000000    10.57000000
   C     25.62000000    26.61000000     9.45000000
   O     25.72000000    27.46000000     8.33000000
   H     27.07000000    25.22000000     8.17000000
   H     24.26000000    25.34000000     8.36000000
   H     26.59000000    26.50000000     9.93000000
   H     24.97000000    27.06000000    10.21000000
   H     25.89000000    28.30000000     8.78000000
   N     25.29000000    23.45000000    10.76000000
   C     24.69000000    22.43000000    11.59000000
   C     23.45000000    21.74000000    11.04000000
   O     22.51000000    21.53000000    11.80000000
   C     24.56000000    22.90000000    13.04000000
   H     26.26000000    23.30000000    10.51000000
   H     25.46000000    21.67000000    11.72000000
   H     25.54000000    23.03000000    13.50000000
   H     23.98000000    23.83000000    13.06000000
   H     23.98000000    22.16000000    13.59000000
   N     23.48000000    21.33000000     9.77000000
   C     22.41000000    20.69000000     9.02000000
   C     22.81000000    19.37000000     8.39000000
   O     24.01000000    19.14000000     8.29000000
   C     21.89000000    21.68000000     7.98000000
   H     24.32000000    21.68000000     9.32000000
   H     21.61000000    20.41000000     9.71000000
   H     21.01000000    21.36000000     7.42000000
   H     21.77000000    22.66000000     8.44000000
   H     22.61000000    21.77000000     7.17000000
   N     21.82000000    18.60000000     7.94000000
   C     22.00000000    17.29000000     7.35000000
   C     23.06000000    16.41000000     7.99000000
   O     23.89000000    15.83000000     7.30000000
   C     22.23000000    17.39000000     5.84000000
   C     20.94000000    17.76000000     5.12000000
   C     21.24000000    17.93000000     3.64000000
   O     21.64000000    16.92000000     3.02000000
   O     21.05000000    19.01000000     3.04000000
   H     20.87000000    18.90000000     8.12000000
   H     21.13000000    16.68000000     7.57000000
   H     22.51000000    16.38000000     5.53000000
   H     23.08000000    18.03000000     5.62000000
   H     20.56000000    18.71000000     5.52000000
   H     20.22000000    16.96000000     5.27000000
   N     23.10000000    16.29000000     9.32000000
   C     24.17000000    15.62000000    10.03000000
   H     25.01300000    16.30200000    10.14300000
   H     23.81700000    15.31300000    11.01400000
   H     24.48700000    14.74200000     9.46700000
   H     22.45000000    16.72000000     9.96000000
  Ca     22.46000000    18.59000000     0.87000000
   O     20.11000000    17.66000000    -0.06400000
   H     19.59000000    17.17000000     0.57600000
   H     19.48000000    17.89000000    -0.75400000

Ca 1.70



