%chk=Ng-293_loop3_28.0.chk
%nprocshared=48
%mem=10GB
%nosave
#b3lyp/svp scf=(tight,noincore) Test 
#IOP(5/87=12) Density=Current Pop=(MK,readradii) iop(6/33=2) iop(6/42=6)

Ng-293_loop3_28.0 

   0   1
   C     42.30000000    84.08000000    66.37000000
   C     42.77000000    83.95000000    64.92000000
   O     43.94000000    84.08000000    64.57000000
   H     41.27100000    83.73000000    66.45100000
   H     42.94000000    83.47800000    67.01500000
   H     42.35300000    85.12400000    66.67800000
   N     41.79000000    83.69000000    64.05000000
   C     41.92000000    83.47000000    62.63000000
   C     41.62000000    82.06000000    62.15000000
   O     41.04000000    81.23000000    62.86000000
   C     41.04000000    84.52000000    61.95000000
   C     41.11000000    84.72000000    60.44000000
   O     41.96000000    84.11000000    59.75000000
   O     40.35000000    85.55000000    59.90000000
   H     40.87000000    83.52000000    64.43000000
   H     42.94000000    83.78000000    62.40000000
   H     41.26000000    85.51000000    62.33000000
   H     40.02000000    84.44000000    62.33000000
   N     42.11000000    81.65000000    60.98000000
   C     41.88000000    80.40000000    60.28000000
   C     40.42000000    80.13000000    59.96000000
   O     39.50000000    80.84000000    60.34000000
   C     42.46000000    79.21000000    61.03000000
   C     43.86000000    79.47000000    61.60000000
   C     44.83000000    79.75000000    60.46000000
   C     46.22000000    79.55000000    61.06000000
   N     46.56000000    80.63000000    61.99000000
   H     42.57000000    82.41000000    60.50000000
   H     42.44000000    80.43000000    59.35000000
   H     42.57000000    78.29000000    60.44000000
   H     41.80000000    78.89000000    61.83000000
   H     44.09000000    78.50000000    62.03000000
   H     43.77000000    80.30000000    62.29000000
   H     44.87000000    80.80000000    60.15000000
   H     44.78000000    79.07000000    59.61000000
   H     46.88000000    79.61000000    60.19000000
   H     46.21000000    78.58000000    61.55000000
   H     46.52000000    81.57000000    61.63000000
   H     45.98000000    80.54000000    62.82000000
   H     47.52000000    80.49000000    62.27000000
   N     40.21000000    78.96000000    59.35000000
   C     38.95000000    78.52000000    58.79000000
   C     37.83000000    78.52000000    59.81000000
   O     36.83000000    79.21000000    59.57000000
   C     39.13000000    77.15000000    58.14000000
   C     39.96000000    77.17000000    56.86000000
   O     40.50000000    78.23000000    56.48000000
   O     40.28000000    76.09000000    56.31000000
   H     41.02000000    78.46000000    59.01000000
   H     38.73000000    79.26000000    58.01000000
   H     38.19000000    76.62000000    57.95000000
   H     39.83000000    76.60000000    58.77000000
   N     37.92000000    77.67000000    60.84000000
   C     37.01000000    77.81000000    61.96000000
   C     35.49000000    77.75000000    61.90000000
   O     34.84000000    78.38000000    62.72000000
   H     38.74000000    77.09000000    60.96000000
   H     37.31000000    78.67000000    62.55000000
   H     37.23000000    76.94000000    62.58000000
   N     34.91000000    77.08000000    60.90000000
   C     33.57000000    77.25000000    60.38000000
   C     32.78000000    75.96000000    60.19000000
   O     33.39000000    75.01000000    59.71000000
   C     33.62000000    78.02000000    59.07000000
   C     32.28000000    78.09000000    58.36000000
   N     31.37000000    78.94000000    58.85000000
   O     31.99000000    77.55000000    57.30000000
   H     35.56000000    76.66000000    60.25000000
   H     33.05000000    77.83000000    61.15000000
   H     34.45000000    77.54000000    58.54000000
   H     33.91000000    79.06000000    59.25000000
   H     31.37000000    79.19000000    59.83000000
   H     30.49000000    79.10000000    58.38000000
   N     31.47000000    76.04000000    60.43000000
   C     30.47000000    75.02000000    60.23000000
   C     30.63000000    73.83000000    61.17000000
   O     30.62000000    74.02000000    62.39000000
   H     31.15000000    76.84000000    60.97000000
   H     30.42000000    74.68000000    59.20000000
   H     29.52000000    75.49000000    60.49000000
   N     30.85000000    72.65000000    60.58000000
   C     31.29000000    71.45000000    61.25000000
   C     32.63000000    71.42000000    61.95000000
   O     32.88000000    70.80000000    62.98000000
   C     30.10000000    70.88000000    62.02000000
   C     28.80000000    70.60000000    61.29000000
   C     27.85000000    71.61000000    61.45000000
   C     28.56000000    69.48000000    60.50000000
   C     26.56000000    71.49000000    60.91000000
   C     27.27000000    69.32000000    59.97000000
   C     26.29000000    70.31000000    60.18000000
   O     25.07000000    70.19000000    59.59000000
   H     30.62000000    72.54000000    59.60000000
   H     31.51000000    70.76000000    60.43000000
   H     29.95000000    71.64000000    62.79000000
   H     30.43000000    69.97000000    62.53000000
   H     28.09000000    72.50000000    62.02000000
   H     29.40000000    68.81000000    60.40000000
   H     25.80000000    72.25000000    61.04000000
   H     26.98000000    68.44000000    59.43000000
   H     25.08000000    69.63000000    58.81000000
   N     33.58000000    72.10000000    61.30000000
   C     35.02000000    71.96000000    61.44000000
   C     35.60000000    70.60000000    61.06000000
   O     36.47000000    70.61000000    60.20000000
   C     35.52000000    72.56000000    62.75000000
   C     35.09000000    74.02000000    62.91000000
   C     37.03000000    72.46000000    62.85000000
   C     35.20000000    74.49000000    64.36000000
   H     33.30000000    72.42000000    60.39000000
   H     35.39000000    72.61000000    60.64000000
   H     35.08000000    72.03000000    63.59000000
   H     34.08000000    74.23000000    62.56000000
   H     35.69000000    74.65000000    62.27000000
   H     37.59000000    72.56000000    61.92000000
   H     37.40000000    73.21000000    63.56000000
   H     37.22000000    71.49000000    63.31000000
   H     34.66000000    75.43000000    64.36000000
   H     34.62000000    73.84000000    65.03000000
   H     36.20000000    74.52000000    64.79000000
   N     35.08000000    69.56000000    61.71000000
   C     35.40000000    68.17000000    61.46000000
   C     36.76000000    67.70000000    61.95000000
   O     37.39000000    66.90000000    61.27000000
   C     34.18000000    67.29000000    61.76000000
   O     33.07000000    67.69000000    60.99000000
   H     34.35000000    69.77000000    62.37000000
   H     35.54000000    68.06000000    60.38000000
   H     33.89000000    67.39000000    62.81000000
   H     34.28000000    66.21000000    61.68000000
   H     32.45000000    66.96000000    61.03000000
   N     37.19000000    68.37000000    63.02000000
   C     38.47000000    68.20000000    63.69000000
   C     39.67000000    68.34000000    62.77000000
   O     40.56000000    67.52000000    62.98000000
   C     38.32000000    67.08000000    64.71000000
   H     36.64000000    69.17000000    63.29000000
   H     38.57000000    69.12000000    64.27000000
   H     38.32000000    66.18000000    64.10000000
   H     39.24000000    67.03000000    65.29000000
   H     37.45000000    67.33000000    65.32000000
   N     39.61000000    69.22000000    61.77000000
   C     40.59000000    69.37000000    60.72000000
   C     41.49000000    70.59000000    60.90000000
   O     41.15000000    71.51000000    61.64000000
   C     39.90000000    69.38000000    59.36000000
   H     38.75000000    69.76000000    61.82000000
   H     41.29000000    68.53000000    60.67000000
   H     39.54000000    68.36000000    59.20000000
   H     39.11000000    70.14000000    59.40000000
   H     40.65000000    69.71000000    58.65000000
   N     42.71000000    70.48000000    60.37000000
   C     43.67000000    71.56000000    60.31000000
   C     44.06000000    72.08000000    61.69000000
   O     44.59000000    73.18000000    61.81000000
   C     43.27000000    72.68000000    59.35000000
   C     42.77000000    72.10000000    58.03000000
   C     42.42000000    73.17000000    57.01000000
   O     41.56000000    73.00000000    56.12000000
   O     43.08000000    74.23000000    56.99000000
   H     42.96000000    69.60000000    59.94000000
   H     44.63000000    71.13000000    59.99000000
   H     44.15000000    73.31000000    59.27000000
   H     42.40000000    73.16000000    59.80000000
   H     41.88000000    71.54000000    58.31000000
   H     43.56000000    71.55000000    57.51000000
   N     43.80000000    71.39000000    62.80000000
   C     43.85000000    72.00000000    64.11000000
   H     43.98400000    73.07700000    64.00400000
   H     42.91900000    71.80100000    64.64000000
   H     44.68600000    71.58400000    64.67300000
   H     43.44000000    70.45000000    62.69000000
  Ca     42.04000000    75.24000000    54.71000000
   O     39.83000000    76.16000000    53.49000000
   H     39.10000000    75.63000000    53.17000000
   H     39.53000000    77.07000000    53.35000000

Ca 1.70



