%chk=Ng-295_loop3_4.0.chk
%nprocshared=48
%mem=10GB
%nosave
#b3lyp/svp scf=(tight,noincore) Test 
#IOP(5/87=12) Density=Current Pop=(MK,readradii) iop(6/33=2) iop(6/42=6)

Ng-295_loop3_4.0 

   0   1
   C      1.60000000    36.37000000    51.22000000
   C      2.64000000    36.47000000    52.32000000
   O      2.22000000    36.34000000    53.47000000
   H      0.74300000    36.99400000    51.47300000
   H      2.03200000    36.71100000    50.27900000
   H      1.27700000    35.33400000    51.11800000
   N      3.92000000    36.73000000    52.05000000
   C      4.89000000    36.96000000    53.11000000
   C      6.02000000    37.82000000    52.56000000
   O      6.29000000    37.68000000    51.37000000
   C      5.48000000    35.63000000    53.54000000
   C      6.53000000    35.78000000    54.63000000
   O      6.22000000    35.48000000    55.81000000
   O      7.69000000    36.14000000    54.36000000
   H      4.16000000    36.90000000    51.09000000
   H      4.38000000    37.39000000    53.97000000
   H      6.00000000    35.25000000    52.66000000
   H      4.69000000    34.92000000    53.81000000
   N      6.61000000    38.67000000    53.41000000
   C      7.63000000    39.65000000    53.08000000
   C      9.02000000    39.17000000    52.70000000
   O      9.75000000    39.93000000    52.08000000
   C      7.74000000    40.65000000    54.23000000
   C      6.61000000    41.65000000    54.02000000
   C      6.82000000    42.81000000    54.98000000
   C      5.47000000    43.50000000    55.18000000
   N      5.67000000    44.70000000    56.01000000
   H      6.17000000    38.82000000    54.30000000
   H      7.37000000    40.17000000    52.16000000
   H      8.72000000    41.13000000    54.28000000
   H      7.74000000    40.13000000    55.19000000
   H      5.64000000    41.20000000    54.24000000
   H      6.55000000    41.97000000    52.98000000
   H      7.55000000    43.47000000    54.50000000
   H      7.23000000    42.49000000    55.94000000
   H      4.87000000    42.73000000    55.66000000
   H      5.05000000    43.69000000    54.19000000
   H      5.95000000    44.51000000    56.96000000
   H      6.36000000    45.26000000    55.53000000
   H      4.85000000    45.26000000    56.18000000
   N      9.47000000    37.96000000    53.06000000
   C     10.70000000    37.29000000    52.68000000
   C     10.38000000    36.06000000    51.84000000
   O     11.29000000    35.41000000    51.33000000
   C     11.69000000    37.11000000    53.83000000
   C     10.97000000    36.76000000    55.12000000
   O     10.67000000    35.60000000    55.49000000
   O     10.57000000    37.72000000    55.81000000
   H      8.91000000    37.49000000    53.76000000
   H     11.12000000    37.98000000    51.95000000
   H     12.16000000    38.08000000    53.99000000
   H     12.41000000    36.34000000    53.54000000
   N      9.09000000    35.73000000    51.76000000
   C      8.51000000    34.57000000    51.12000000
   C      8.64000000    33.28000000    51.93000000
   O      8.36000000    32.17000000    51.48000000
   H      8.45000000    36.22000000    52.38000000
   H      9.02000000    34.52000000    50.16000000
   H      7.46000000    34.58000000    50.83000000
   N      9.03000000    33.45000000    53.19000000
   C      9.08000000    32.35000000    54.14000000
   C      8.24000000    32.58000000    55.38000000
   O      8.47000000    33.52000000    56.14000000
   C     10.57000000    32.23000000    54.45000000
   C     10.95000000    30.90000000    55.07000000
   N     11.33000000    30.93000000    56.35000000
   O     10.89000000    29.86000000    54.41000000
   H      9.34000000    34.34000000    53.58000000
   H      8.88000000    31.41000000    53.63000000
   H     10.81000000    32.99000000    55.19000000
   H     11.20000000    32.34000000    53.56000000
   H     11.38000000    31.88000000    56.68000000
   H     11.61000000    30.12000000    56.89000000
   N      7.23000000    31.73000000    55.62000000
   C      6.01000000    32.07000000    56.32000000
   C      5.89000000    32.36000000    57.81000000
   O      4.79000000    32.52000000    58.33000000
   H      7.04000000    30.95000000    55.01000000
   H      5.18000000    31.39000000    56.16000000
   H      5.46000000    32.94000000    55.95000000
   N      7.03000000    32.36000000    58.51000000
   C      7.04000000    32.86000000    59.87000000
   C      6.85000000    34.36000000    59.99000000
   O      7.29000000    35.12000000    59.12000000
   C      8.23000000    32.40000000    60.70000000
   C      8.39000000    30.90000000    60.82000000
   C      9.24000000    30.23000000    59.94000000
   C      7.59000000    30.25000000    61.77000000
   C      9.21000000    28.83000000    60.05000000
   C      7.58000000    28.85000000    61.86000000
   C      8.34000000    28.14000000    60.91000000
   O      8.18000000    26.79000000    60.81000000
   H      7.92000000    32.22000000    58.05000000
   H      6.16000000    32.46000000    60.37000000
   H      8.21000000    32.90000000    61.67000000
   H      9.17000000    32.79000000    60.29000000
   H      9.76000000    30.77000000    59.17000000
   H      6.97000000    30.84000000    62.42000000
   H      9.83000000    28.17000000    59.47000000
   H      6.95000000    28.29000000    62.54000000
   H      7.65000000    26.45000000    61.53000000
   N      6.25000000    34.79000000    61.10000000
   C      6.12000000    36.15000000    61.58000000
   C      7.40000000    36.94000000    61.81000000
   O      8.48000000    36.35000000    61.79000000
   C      5.08000000    36.99000000    60.85000000
   C      3.72000000    36.30000000    60.73000000
   C      5.39000000    37.49000000    59.45000000
   C      3.09000000    35.93000000    62.07000000
   H      6.02000000    34.04000000    61.73000000
   H      5.69000000    36.13000000    62.58000000
   H      4.87000000    37.87000000    61.47000000
   H      3.76000000    35.43000000    60.08000000
   H      3.09000000    37.02000000    60.22000000
   H      5.11000000    36.75000000    58.70000000
   H      4.71000000    38.32000000    59.25000000
   H      6.39000000    37.93000000    59.38000000
   H      3.17000000    36.84000000    62.65000000
   H      2.02000000    35.69000000    62.06000000
   H      3.64000000    35.18000000    62.63000000
   N      7.38000000    38.19000000    62.26000000
   C      8.51000000    38.93000000    62.80000000
   C      8.70000000    38.74000000    64.30000000
   O      9.75000000    39.10000000    64.82000000
   C      8.26000000    40.40000000    62.48000000
   O      7.18000000    40.96000000    63.20000000
   H      6.46000000    38.58000000    62.40000000
   H      9.38000000    38.58000000    62.24000000
   H      8.09000000    40.46000000    61.41000000
   H      9.17000000    40.96000000    62.69000000
   H      7.13000000    41.84000000    62.83000000
   N      7.75000000    38.22000000    65.08000000
   C      7.84000000    37.82000000    66.47000000
   C      8.42000000    38.79000000    67.49000000
   O      9.34000000    38.42000000    68.22000000
   C      8.47000000    36.43000000    66.55000000
   H      6.86000000    38.04000000    64.64000000
   H      6.82000000    37.71000000    66.83000000
   H      7.69000000    35.69000000    66.38000000
   H      9.28000000    36.26000000    65.85000000
   H      8.93000000    36.13000000    67.49000000
   N      7.95000000    40.02000000    67.73000000
   C      7.18000000    40.83000000    66.80000000
   C      6.05000000    41.58000000    67.48000000
   O      6.22000000    42.13000000    68.57000000
   C      8.12000000    41.84000000    66.15000000
   H      8.29000000    40.50000000    68.54000000
   H      6.83000000    40.14000000    66.03000000
   H      8.72000000    42.38000000    66.89000000
   H      8.84000000    41.29000000    65.54000000
   H      7.54000000    42.55000000    65.57000000
   N      4.84000000    41.79000000    66.95000000
   C      4.21000000    41.27000000    65.76000000
   C      2.99000000    40.42000000    66.10000000
   O      2.68000000    39.52000000    65.31000000
   C      3.95000000    42.52000000    64.93000000
   C      3.28000000    42.23000000    63.59000000
   C      3.15000000    43.58000000    62.89000000
   O      4.05000000    44.02000000    62.15000000
   O      2.22000000    44.35000000    63.21000000
   H      4.28000000    42.48000000    67.45000000
   H      4.89000000    40.65000000    65.18000000
   H      4.94000000    42.95000000    64.78000000
   H      3.36000000    43.25000000    65.49000000
   H      2.26000000    41.86000000    63.67000000
   H      3.97000000    41.58000000    63.06000000
   N      2.28000000    40.76000000    67.18000000
   C      0.98000000    40.24000000    67.55000000
   H      0.24800000    40.52200000    66.79400000
   H      1.02900000    39.15300000    67.62000000
   H      0.68400000    40.65300000    68.51400000
   H      2.54000000    41.64000000    67.60000000
  Ca      8.54000000    36.19000000    57.03000000
   O     10.15000000    35.06000000    58.69000000
   H     10.77000000    34.36000000    58.47000000
   H     10.17000000    35.10000000    59.65000000

Ca 1.70



