%chk=Ng-295_loop3_16.0.chk
%nprocshared=48
%mem=10GB
%nosave
#b3lyp/svp scf=(tight,noincore) Test 
#IOP(5/87=12) Density=Current Pop=(MK,readradii) iop(6/33=2) iop(6/42=6)

Ng-295_loop3_16.0 

   0   1
   C     13.39000000    77.82000000    34.08000000
   C     14.32000000    76.63000000    33.95000000
   O     14.81000000    76.04000000    34.92000000
   H     12.45900000    77.50300000    34.55100000
   H     13.86400000    78.58700000    34.69200000
   H     13.17600000    78.22500000    33.09100000
   N     14.73000000    76.38000000    32.71000000
   C     15.80000000    75.46000000    32.34000000
   C     17.18000000    76.08000000    32.46000000
   O     17.46000000    77.18000000    31.98000000
   C     15.53000000    74.88000000    30.96000000
   C     16.48000000    73.78000000    30.50000000
   O     17.71000000    73.97000000    30.46000000
   O     15.99000000    72.68000000    30.16000000
   H     14.25000000    76.88000000    31.98000000
   H     15.76000000    74.56000000    32.95000000
   H     15.60000000    75.74000000    30.30000000
   H     14.52000000    74.46000000    30.95000000
   N     18.05000000    75.47000000    33.27000000
   C     19.32000000    76.09000000    33.56000000
   C     20.22000000    76.22000000    32.34000000
   O     21.19000000    76.95000000    32.50000000
   C     19.99000000    75.32000000    34.70000000
   C     20.35000000    73.87000000    34.42000000
   C     21.11000000    73.11000000    35.50000000
   C     22.37000000    73.85000000    35.92000000
   N     23.22000000    73.02000000    36.79000000
   H     17.70000000    74.62000000    33.70000000
   H     19.07000000    77.07000000    33.94000000
   H     19.39000000    75.39000000    35.61000000
   H     20.92000000    75.85000000    34.90000000
   H     20.97000000    73.85000000    33.52000000
   H     19.38000000    73.38000000    34.30000000
   H     21.42000000    72.14000000    35.10000000
   H     20.54000000    73.00000000    36.43000000
   H     21.98000000    74.69000000    36.50000000
   H     22.86000000    74.14000000    34.99000000
   H     23.54000000    72.14000000    36.43000000
   H     24.01000000    73.59000000    37.06000000
   H     22.73000000    72.72000000    37.62000000
   N     20.07000000    75.51000000    31.22000000
   C     20.97000000    75.62000000    30.09000000
   C     20.38000000    75.74000000    28.69000000
   O     21.06000000    75.80000000    27.67000000
   C     21.85000000    74.37000000    30.14000000
   C     21.00000000    73.11000000    30.12000000
   O     20.44000000    72.74000000    29.07000000
   O     20.79000000    72.40000000    31.13000000
   H     19.21000000    75.02000000    31.00000000
   H     21.70000000    76.41000000    30.27000000
   H     22.48000000    74.37000000    31.04000000
   H     22.58000000    74.41000000    29.34000000
   N     19.05000000    75.79000000    28.62000000
   C     18.25000000    75.96000000    27.42000000
   C     18.12000000    74.77000000    26.49000000
   O     17.37000000    74.83000000    25.51000000
   H     18.59000000    75.59000000    29.49000000
   H     18.59000000    76.86000000    26.90000000
   H     17.26000000    76.14000000    27.84000000
   N     18.90000000    73.72000000    26.72000000
   C     18.68000000    72.46000000    26.03000000
   C     17.61000000    71.68000000    26.77000000
   O     17.72000000    71.59000000    27.99000000
   C     20.02000000    71.73000000    26.01000000
   C     19.95000000    70.67000000    24.92000000
   N     19.98000000    71.04000000    23.64000000
   O     19.93000000    69.49000000    25.26000000
   H     19.43000000    73.70000000    27.58000000
   H     18.28000000    72.58000000    25.02000000
   H     20.09000000    71.20000000    26.96000000
   H     20.85000000    72.41000000    25.80000000
   H     20.00000000    72.03000000    23.46000000
   H     19.92000000    70.30000000    22.95000000
   N     16.61000000    71.13000000    26.09000000
   C     15.49000000    70.46000000    26.73000000
   C     15.92000000    69.19000000    27.45000000
   O     15.18000000    68.70000000    28.31000000
   H     16.57000000    71.21000000    25.08000000
   H     14.65000000    70.40000000    26.03000000
   H     15.19000000    71.12000000    27.54000000
   N     17.10000000    68.64000000    27.20000000
   C     17.63000000    67.53000000    27.96000000
   C     17.59000000    67.63000000    29.48000000
   O     17.80000000    68.69000000    30.05000000
   C     19.09000000    67.35000000    27.54000000
   C     19.74000000    66.07000000    28.00000000
   C     20.84000000    66.19000000    28.86000000
   C     19.44000000    64.86000000    27.36000000
   C     21.44000000    65.02000000    29.33000000
   C     20.03000000    63.69000000    27.85000000
   C     21.02000000    63.76000000    28.85000000
   O     21.56000000    62.67000000    29.45000000
   H     17.70000000    69.13000000    26.54000000
   H     17.09000000    66.65000000    27.61000000
   H     19.67000000    68.23000000    27.83000000
   H     19.07000000    67.18000000    26.47000000
   H     21.16000000    67.17000000    29.17000000
   H     18.67000000    64.83000000    26.60000000
   H     22.09000000    65.12000000    30.19000000
   H     19.66000000    62.74000000    27.50000000
   H     21.34000000    61.86000000    28.99000000
   N     17.41000000    66.47000000    30.12000000
   C     17.51000000    66.26000000    31.55000000
   C     18.95000000    66.26000000    32.04000000
   O     19.71000000    67.21000000    31.85000000
   C     16.50000000    67.01000000    32.41000000
   C     16.55000000    66.58000000    33.87000000
   C     15.08000000    66.92000000    31.87000000
   C     15.62000000    67.33000000    34.82000000
   H     17.46000000    65.62000000    29.58000000
   H     17.24000000    65.20000000    31.65000000
   H     16.75000000    68.07000000    32.31000000
   H     17.58000000    66.76000000    34.20000000
   H     16.35000000    65.53000000    34.11000000
   H     15.14000000    67.34000000    30.87000000
   H     14.77000000    65.88000000    31.78000000
   H     14.51000000    67.61000000    32.49000000
   H     15.75000000    68.41000000    34.82000000
   H     14.62000000    67.10000000    34.47000000
   H     15.73000000    67.05000000    35.87000000
   N     19.33000000    65.23000000    32.80000000
   C     20.59000000    65.03000000    33.48000000
   C     21.05000000    63.66000000    33.95000000
   O     22.27000000    63.57000000    34.09000000
   C     20.60000000    65.93000000    34.72000000
   O     19.67000000    65.40000000    35.64000000
   H     18.69000000    64.45000000    32.83000000
   H     21.35000000    65.38000000    32.78000000
   H     20.55000000    67.00000000    34.55000000
   H     21.56000000    65.78000000    35.21000000
   H     19.49000000    66.10000000    36.27000000
   N     20.15000000    62.70000000    34.18000000
   C     20.31000000    61.34000000    34.65000000
   C     21.47000000    61.19000000    35.62000000
   O     22.56000000    60.72000000    35.28000000
   C     20.47000000    60.36000000    33.49000000
   H     19.20000000    62.85000000    33.87000000
   H     19.35000000    61.09000000    35.10000000
   H     20.39000000    59.30000000    33.71000000
   H     19.72000000    60.62000000    32.74000000
   H     21.41000000    60.61000000    32.98000000
   N     21.12000000    61.33000000    36.90000000
   C     19.95000000    62.01000000    37.43000000
   C     18.82000000    61.10000000    37.87000000
   O     18.99000000    60.00000000    38.40000000
   C     20.43000000    62.78000000    38.66000000
   H     21.70000000    60.88000000    37.59000000
   H     19.55000000    62.77000000    36.76000000
   H     21.02000000    62.06000000    39.22000000
   H     21.05000000    63.63000000    38.35000000
   H     19.61000000    63.14000000    39.28000000
   N     17.56000000    61.46000000    37.61000000
   C     16.95000000    62.66000000    37.08000000
   C     15.51000000    62.28000000    36.76000000
   O     15.02000000    62.60000000    35.68000000
   C     16.97000000    63.80000000    38.09000000
   C     16.11000000    64.96000000    37.58000000
   C     16.23000000    66.16000000    38.50000000
   O     17.21000000    66.93000000    38.36000000
   O     15.42000000    66.31000000    39.45000000
   H     16.98000000    60.73000000    37.99000000
   H     17.51000000    63.03000000    36.23000000
   H     17.98000000    64.18000000    38.26000000
   H     16.57000000    63.45000000    39.04000000
   H     15.05000000    64.72000000    37.51000000
   H     16.52000000    65.29000000    36.63000000
   N     14.80000000    61.55000000    37.62000000
   C     13.39000000    61.33000000    37.37000000
   H     12.85200000    62.27200000    37.47600000
   H     13.25500000    60.94700000    36.35900000
   H     13.00200000    60.60700000    38.08800000
   H     15.24000000    61.18000000    38.45000000
  Ca     18.58000000    71.37000000    30.42000000
   O     17.06000000    71.58000000    32.66000000
   H     16.23000000    71.13000000    32.50000000
   H     16.86000000    72.20000000    33.36000000

Ca 1.70



