%chk=Ng-293_loop3_33.0.chk
%nprocshared=48
%mem=10GB
%nosave
#b3lyp/svp scf=(tight,noincore) Test 
#IOP(5/87=12) Density=Current Pop=(MK,readradii) iop(6/33=2) iop(6/42=6)

Ng-293_loop3_33.0 

   0   1
   C     41.40000000    76.53000000    80.79900000
   C     41.56000000    76.02000000    79.37900000
   O     42.31000000    76.58000000    78.58900000
   H     40.34400000    76.52400000    81.07000000
   H     41.95300000    75.88500000    81.48200000
   H     41.78600000    77.54700000    80.86600000
   N     40.84000000    74.98000000    78.95900000
   C     40.57000000    74.75000000    77.54900000
   C     40.31000000    73.28000000    77.22900000
   O     39.80000000    72.56000000    78.07900000
   C     39.44000000    75.68000000    77.12900000
   C     39.17000000    75.90000000    75.64900000
   O     39.79000000    75.14000000    74.87900000
   O     38.41000000    76.87000000    75.39900000
   H     40.21000000    74.51000000    79.59900000
   H     41.49000000    75.02000000    77.02900000
   H     39.71000000    76.66000000    77.53900000
   H     38.55000000    75.28000000    77.60900000
   N     40.78000000    72.80000000    76.07900000
   C     40.66000000    71.44000000    75.59900000
   C     39.18000000    71.13000000    75.44900000
   O     38.25000000    71.90000000    75.67900000
   C     41.33000000    70.39000000    76.47900000
   C     42.85000000    70.52000000    76.42900000
   C     43.54000000    70.65000000    75.07900000
   C     45.06000000    70.61000000    75.18900000
   N     45.55000000    71.82000000    75.87900000
   H     40.97000000    73.57000000    75.44900000
   H     41.09000000    71.41000000    74.60900000
   H     41.10000000    69.44000000    76.00900000
   H     40.98000000    70.38000000    77.50900000
   H     43.26000000    69.65000000    76.94900000
   H     43.14000000    71.41000000    76.97900000
   H     43.21000000    71.50000000    74.46900000
   H     43.31000000    69.84000000    74.37900000
   H     45.52000000    70.58000000    74.19900000
   H     45.29000000    69.69000000    75.72900000
   H     46.54000000    71.86000000    76.03900000
   H     45.45000000    72.65000000    75.31900000
   H     45.09000000    72.08000000    76.74900000
   N     38.83000000    69.95000000    74.92900000
   C     37.52000000    69.54000000    74.44900000
   C     36.68000000    68.61000000    75.29900000
   O     35.47000000    68.81000000    75.27900000
   C     37.61000000    69.00000000    73.01900000
   C     38.46000000    67.76000000    72.81900000
   O     38.98000000    67.14000000    73.76900000
   O     38.62000000    67.41000000    71.61900000
   H     39.56000000    69.32000000    74.62900000
   H     36.92000000    70.45000000    74.42900000
   H     37.86000000    69.82000000    72.34900000
   H     36.64000000    68.64000000    72.66900000
   N     37.27000000    67.64000000    76.00900000
   C     36.54000000    67.01000000    77.08900000
   C     35.22000000    66.37000000    76.68900000
   O     34.19000000    66.53000000    77.33900000
   H     38.27000000    67.54000000    76.04900000
   H     36.26000000    67.81000000    77.76900000
   H     37.09000000    66.17000000    77.49900000
   N     35.17000000    65.76000000    75.49900000
   C     34.01000000    64.98000000    75.14900000
   C     33.78000000    63.91000000    76.19900000
   O     34.71000000    63.28000000    76.69900000
   C     33.99000000    64.49000000    73.69900000
   C     34.27000000    65.63000000    72.71900000
   N     33.32000000    66.54000000    72.51900000
   O     35.34000000    65.81000000    72.13900000
   H     35.98000000    65.64000000    74.90900000
   H     33.18000000    65.67000000    75.27900000
   H     33.00000000    64.11000000    73.45900000
   H     34.75000000    63.73000000    73.51900000
   H     32.42000000    66.42000000    72.95900000
   H     33.60000000    67.45000000    72.18900000
   N     32.50000000    63.70000000    76.51900000
   C     31.92000000    62.93000000    77.59900000
   C     32.06000000    63.60000000    78.95900000
   O     32.31000000    64.80000000    79.00900000
   H     31.84000000    64.32000000    76.07900000
   H     32.42000000    61.97000000    77.70900000
   H     30.88000000    62.63000000    77.43900000
   N     31.79000000    62.81000000    79.99900000
   C     31.83000000    63.09000000    81.41900000
   C     33.22000000    63.43000000    81.94900000
   O     33.62000000    63.02000000    83.03900000
   C     30.86000000    64.23000000    81.69900000
   C     30.62000000    64.61000000    83.13900000
   C     31.25000000    65.67000000    83.79900000
   C     29.85000000    63.69000000    83.85900000
   C     31.01000000    65.80000000    85.17900000
   C     29.55000000    63.81000000    85.21900000
   C     30.23000000    64.86000000    85.87900000
   O     30.04000000    65.05000000    87.20900000
   H     31.43000000    61.88000000    79.82900000
   H     31.49000000    62.24000000    82.00900000
   H     29.91000000    63.95000000    81.23900000
   H     31.18000000    65.11000000    81.13900000
   H     31.89000000    66.33000000    83.23900000
   H     29.36000000    62.83000000    83.42900000
   H     31.31000000    66.63000000    85.79900000
   H     28.95000000    63.11000000    85.76900000
   H     29.53000000    64.40000000    87.69900000
   N     34.07000000    64.02000000    81.10900000
   C     35.48000000    64.31000000    81.26900000
   C     36.27000000    63.01000000    81.33900000
   O     37.38000000    62.99000000    80.80900000
   C     35.68000000    65.29000000    82.41900000
   C     34.97000000    66.62000000    82.23900000
   C     37.14000000    65.66000000    82.65900000
   C     35.31000000    67.37000000    80.95900000
   H     33.77000000    64.41000000    80.22900000
   H     35.82000000    64.91000000    80.41900000
   H     35.39000000    64.83000000    83.36900000
   H     35.06000000    67.34000000    83.04900000
   H     33.90000000    66.44000000    82.11900000
   H     37.70000000    64.79000000    83.00900000
   H     37.59000000    65.96000000    81.70900000
   H     37.19000000    66.39000000    83.46900000
   H     34.79000000    68.33000000    80.90900000
   H     36.38000000    67.61000000    80.93900000
   H     34.98000000    66.83000000    80.06900000
   N     35.80000000    61.87000000    81.82900000
   C     36.31000000    60.53000000    81.62900000
   C     37.71000000    60.18000000    82.12900000
   O     38.19000000    59.08000000    81.84900000
   C     35.30000000    59.47000000    82.05900000
   O     34.10000000    59.60000000    81.33900000
   H     34.87000000    61.97000000    82.21900000
   H     36.42000000    60.50000000    80.53900000
   H     35.22000000    59.58000000    83.13900000
   H     35.69000000    58.46000000    81.90900000
   H     34.27000000    60.18000000    80.58900000
   N     38.26000000    61.13000000    82.87900000
   C     39.64000000    61.08000000    83.32900000
   C     40.65000000    61.12000000    82.19900000
   O     41.71000000    60.51000000    82.28900000
   C     39.86000000    60.07000000    84.44900000
   H     37.61000000    61.78000000    83.29900000
   H     39.85000000    62.02000000    83.83900000
   H     38.97000000    59.86000000    85.04900000
   H     40.10000000    59.13000000    83.93900000
   H     40.60000000    60.35000000    85.18900000
   N     40.29000000    61.80000000    81.09900000
   C     40.98000000    61.69000000    79.82900000
   C     41.82000000    62.92000000    79.55900000
   O     41.49000000    63.99000000    80.06900000
   C     39.98000000    61.44000000    78.69900000
   H     39.43000000    62.33000000    81.08900000
   H     41.68000000    60.86000000    79.92900000
   H     39.32000000    62.30000000    78.66900000
   H     40.57000000    61.47000000    77.78900000
   H     39.49000000    60.47000000    78.77900000
   N     42.89000000    62.81000000    78.76900000
   C     43.73000000    63.88000000    78.27900000
   C     44.36000000    64.71000000    79.38900000
   O     44.94000000    65.76000000    79.09900000
   C     42.99000000    64.67000000    77.20900000
   C     42.79000000    63.93000000    75.88900000
   C     41.86000000    64.65000000    74.92900000
   O     40.76000000    64.15000000    74.60900000
   O     42.20000000    65.74000000    74.38900000
   H     43.06000000    61.91000000    78.33900000
   H     44.57000000    63.35000000    77.82900000
   H     43.53000000    65.60000000    77.02900000
   H     42.03000000    65.03000000    77.56900000
   H     42.55000000    62.90000000    76.13900000
   H     43.77000000    63.85000000    75.41900000
   N     44.38000000    64.24000000    80.63900000
   C     44.67000000    64.97000000    81.85900000
   H     45.48300000    65.67200000    81.67700000
   H     43.78200000    65.51700000    82.17500000
   H     44.96400000    64.27000000    82.64100000
   H     43.92000000    63.34000000    80.67900000
  Ca     40.46000000    65.53000000    72.34000000
   O     38.05000000    64.51000000    72.21000000
   H     37.75000000    63.81000000    71.63000000
   H     37.28000000    65.08000000    72.31000000

Ca 1.70



