%chk=Ng-293_loop3_79.0.chk
%nprocshared=48
%mem=10GB
%nosave
#b3lyp/svp scf=(tight,noincore) Test 
#IOP(5/87=12) Density=Current Pop=(MK,readradii) iop(6/33=2) iop(6/42=6)

Ng-293_loop3_79.0 

   0   1
   C     60.25000000    18.29000000     6.04000000
   C     60.65000000    19.35000000     5.02000000
   O     60.56000000    19.14000000     3.81000000
   H     59.23800000    17.94500000     5.82700000
   H     60.94000000    17.44800000     5.98000000
   H     60.28400000    18.71800000     7.04200000
   N     61.04000000    20.49000000     5.59000000
   C     61.27000000    21.71000000     4.85000000
   C     60.02000000    22.46000000     4.43000000
   O     58.94000000    22.44000000     5.02000000
   C     62.09000000    22.71000000     5.67000000
   C     61.90000000    22.89000000     7.17000000
   O     62.61000000    23.79000000     7.66000000
   O     61.17000000    22.15000000     7.86000000
   H     60.90000000    20.59000000     6.59000000
   H     61.76000000    21.53000000     3.89000000
   H     62.07000000    23.71000000     5.23000000
   H     63.15000000    22.53000000     5.53000000
   N     60.11000000    23.26000000     3.36000000
   C     59.06000000    23.92000000     2.61000000
   C     58.23000000    24.95000000     3.37000000
   O     57.31000000    25.57000000     2.84000000
   C     58.23000000    22.96000000     1.77000000
   C     59.13000000    22.16000000     0.83000000
   C     58.50000000    21.19000000    -0.16000000
   C     59.49000000    20.61000000    -1.16000000
   N     58.87000000    19.72000000    -2.14000000
   H     61.05000000    23.53000000     3.11000000
   H     59.49000000    24.51000000     1.80000000
   H     57.61000000    23.50000000     1.05000000
   H     57.63000000    22.26000000     2.36000000
   H     59.83000000    21.61000000     1.46000000
   H     59.69000000    22.92000000     0.28000000
   H     57.69000000    21.69000000    -0.69000000
   H     58.00000000    20.47000000     0.50000000
   H     60.31000000    20.09000000    -0.66000000
   H     59.84000000    21.47000000    -1.73000000
   H     59.48000000    19.49000000    -2.92000000
   H     58.55000000    18.82000000    -1.79000000
   H     58.04000000    20.21000000    -2.45000000
   N     58.53000000    25.21000000     4.64000000
   C     57.84000000    26.17000000     5.47000000
   C     58.69000000    26.76000000     6.59000000
   O     59.39000000    26.09000000     7.34000000
   C     56.56000000    25.53000000     6.01000000
   C     55.47000000    26.56000000     6.26000000
   O     55.47000000    27.68000000     5.70000000
   O     54.49000000    26.15000000     6.91000000
   H     59.25000000    24.62000000     5.04000000
   H     57.59000000    26.98000000     4.79000000
   H     56.75000000    25.05000000     6.97000000
   H     56.23000000    24.79000000     5.29000000
   N     58.61000000    28.09000000     6.74000000
   C     59.12000000    28.88000000     7.84000000
   C     58.52000000    28.44000000     9.17000000
   O     57.36000000    28.04000000     9.23000000
   H     57.99000000    28.63000000     6.15000000
   H     58.64000000    29.83000000     7.59000000
   H     60.21000000    28.86000000     7.86000000
   N     59.31000000    28.57000000    10.23000000
   C     58.95000000    28.41000000    11.63000000
   C     59.38000000    29.60000000    12.48000000
   O     58.73000000    29.91000000    13.47000000
   C     59.51000000    27.10000000    12.17000000
   C     59.03000000    25.86000000    11.44000000
   N     59.58000000    25.69000000    10.24000000
   O     58.15000000    25.07000000    11.79000000
   H     60.30000000    28.66000000    10.08000000
   H     57.86000000    28.44000000    11.72000000
   H     59.27000000    27.09000000    13.23000000
   H     60.59000000    27.16000000    12.01000000
   H     60.13000000    26.43000000     9.83000000
   H     59.31000000    24.98000000     9.58000000
   N     60.39000000    30.39000000    12.12000000
   C     60.79000000    31.52000000    12.94000000
   C     61.05000000    31.22000000    14.40000000
   O     61.86000000    30.36000000    14.73000000
   H     60.68000000    30.40000000    11.15000000
   H     60.05000000    32.33000000    12.93000000
   H     61.75000000    31.93000000    12.62000000
   N     60.43000000    32.03000000    15.27000000
   C     60.48000000    31.82000000    16.70000000
   C     59.97000000    30.46000000    17.16000000
   O     60.28000000    30.07000000    18.28000000
   C     61.85000000    32.12000000    17.29000000
   C     62.52000000    33.41000000    16.87000000
   C     63.55000000    33.41000000    15.92000000
   C     62.15000000    34.66000000    17.39000000
   C     64.09000000    34.59000000    15.40000000
   C     62.79000000    35.85000000    17.05000000
   C     63.74000000    35.81000000    16.01000000
   O     64.32000000    36.97000000    15.58000000
   H     59.83000000    32.76000000    14.90000000
   H     59.80000000    32.55000000    17.14000000
   H     62.52000000    31.37000000    16.86000000
   H     61.91000000    32.02000000    18.37000000
   H     63.76000000    32.48000000    15.41000000
   H     61.38000000    34.65000000    18.15000000
   H     64.84000000    34.64000000    14.62000000
   H     62.39000000    36.77000000    17.46000000
   H     64.02000000    37.74000000    16.07000000
   N     59.25000000    29.68000000    16.36000000
   C     58.54000000    28.46000000    16.71000000
   C     57.30000000    28.81000000    17.52000000
   O     56.22000000    28.32000000    17.17000000
   C     59.39000000    27.30000000    17.21000000
   C     60.66000000    27.03000000    16.40000000
   C     58.60000000    26.00000000    17.27000000
   C     61.84000000    26.55000000    17.24000000
   H     59.10000000    30.02000000    15.42000000
   H     58.21000000    28.14000000    15.72000000
   H     59.82000000    27.51000000    18.19000000
   H     61.05000000    27.79000000    15.74000000
   H     60.47000000    26.38000000    15.55000000
   H     59.34000000    25.20000000    17.30000000
   H     58.28000000    25.88000000    18.31000000
   H     57.84000000    25.87000000    16.50000000
   H     62.68000000    26.44000000    16.55000000
   H     62.08000000    27.35000000    17.94000000
   H     61.76000000    25.53000000    17.60000000
   N     57.33000000    29.67000000    18.54000000
   C     56.20000000    30.56000000    18.76000000
   C     55.01000000    29.98000000    19.51000000
   O     53.96000000    30.61000000    19.62000000
   C     56.66000000    31.90000000    19.34000000
   O     57.77000000    32.33000000    18.58000000
   H     58.20000000    29.83000000    19.02000000
   H     55.85000000    30.83000000    17.77000000
   H     56.98000000    31.68000000    20.36000000
   H     55.89000000    32.66000000    19.27000000
   H     58.12000000    33.04000000    19.11000000
   N     55.13000000    28.77000000    20.06000000
   C     54.07000000    27.94000000    20.61000000
   C     52.94000000    27.66000000    19.64000000
   O     51.80000000    27.54000000    20.09000000
   C     53.64000000    28.30000000    22.03000000
   H     56.04000000    28.36000000    20.10000000
   H     54.54000000    26.98000000    20.81000000
   H     53.00000000    27.50000000    22.38000000
   H     54.45000000    28.24000000    22.75000000
   H     53.29000000    29.33000000    22.09000000
   N     53.18000000    27.75000000    18.33000000
   C     52.18000000    27.66000000    17.29000000
   C     52.16000000    26.37000000    16.49000000
   O     53.13000000    25.62000000    16.46000000
   C     52.50000000    28.73000000    16.25000000
   H     54.14000000    27.93000000    18.06000000
   H     51.21000000    27.83000000    17.75000000
   H     51.74000000    28.69000000    15.47000000
   H     52.57000000    29.76000000    16.59000000
   H     53.49000000    28.46000000    15.88000000
   N     51.05000000    26.10000000    15.80000000
   C     50.75000000    24.89000000    15.06000000
   C     51.01000000    23.54000000    15.71000000
   O     51.67000000    22.67000000    15.14000000
   C     51.19000000    24.98000000    13.60000000
   C     50.93000000    26.34000000    12.96000000
   C     51.57000000    26.37000000    11.58000000
   O     50.90000000    26.00000000    10.59000000
   O     52.77000000    26.71000000    11.48000000
   H     50.31000000    26.78000000    15.83000000
   H     49.66000000    24.83000000    15.04000000
   H     50.81000000    24.15000000    13.00000000
   H     52.28000000    24.93000000    13.52000000
   H     51.45000000    27.14000000    13.48000000
   H     49.87000000    26.56000000    12.82000000
   N     50.59000000    23.47000000    16.97000000
   C     51.01000000    22.40000000    17.85000000
   H     51.90900000    22.70400000    18.38700000
   H     50.21600000    22.18400000    18.56500000
   H     51.22300000    21.50700000    17.26200000
   H     49.94000000    24.21000000    17.19000000
  Ca     53.50000000    25.85000000     9.17000000
   O     55.96000000    25.57000000     9.89000000
   H     56.30000000    26.46000000     9.80000000
   H     56.54000000    25.15000000    10.53000000

Ca 1.70



