%chk=Ng-295_loop3_11.0.chk
%nprocshared=48
%mem=10GB
%nosave
#b3lyp/svp scf=(tight,noincore) Test 
#IOP(5/87=12) Density=Current Pop=(MK,readradii) iop(6/33=2) iop(6/42=6)

Ng-295_loop3_11.0 

   0   1
   C     84.45400000    76.88400000    58.83000000
   C     83.43400000    75.89400000    58.30000000
   O     82.28400000    76.25400000    58.03000000
   H     85.33700000    76.87200000    58.19100000
   H     84.02200000    77.88500000    58.83300000
   H     84.73700000    76.60700000    59.84500000
   N     83.80400000    74.61400000    58.26000000
   C     82.90400000    73.47400000    58.35000000
   C     82.42400000    73.05400000    59.73000000
   O     83.24400000    72.81400000    60.61000000
   C     83.52400000    72.28400000    57.61000000
   C     82.51400000    71.20400000    57.26000000
   O     82.10400000    70.40400000    58.13000000
   O     82.24400000    70.85400000    56.09000000
   H     84.77400000    74.46400000    58.49000000
   H     82.06400000    73.76400000    57.72000000
   H     84.22400000    71.79400000    58.29000000
   H     84.06400000    72.52400000    56.69000000
   N     81.10400000    72.91400000    59.92000000
   C     80.50400000    72.58400000    61.19000000
   C     80.76400000    71.15400000    61.65000000
   O     80.43400000    70.90400000    62.80000000
   C     78.99400000    72.83400000    61.27000000
   C     78.06400000    72.00400000    60.40000000
   C     76.59400000    72.39400000    60.48000000
   C     75.77400000    71.81400000    61.64000000
   N     75.90400000    70.35400000    61.78000000
   H     80.49400000    73.26400000    59.19000000
   H     80.96400000    73.19400000    61.96000000
   H     78.79400000    73.89400000    61.11000000
   H     78.66400000    72.65400000    62.29000000
   H     78.11400000    70.93400000    60.56000000
   H     78.41400000    72.16400000    59.38000000
   H     76.08400000    72.16400000    59.55000000
   H     76.42400000    73.47400000    60.55000000
   H     74.72400000    72.07400000    61.50000000
   H     76.13400000    72.27400000    62.55000000
   H     75.86400000    69.99400000    60.84000000
   H     76.79400000    70.14400000    62.20000000
   H     75.16400000    69.92400000    62.32000000
   N     81.24400000    70.17400000    60.88000000
   C     81.56400000    68.82400000    61.30000000
   C     82.91400000    68.26400000    60.89000000
   O     83.41400000    67.41400000    61.63000000
   C     80.53400000    67.85400000    60.74000000
   C     80.20400000    68.06400000    59.27000000
   O     79.19400000    68.70400000    58.92000000
   O     81.01400000    67.74400000    58.37000000
   H     81.64400000    70.49400000    60.02000000
   H     81.58400000    68.84400000    62.39000000
   H     79.62400000    68.02400000    61.31000000
   H     80.78400000    66.82400000    60.98000000
   N     83.62400000    68.72400000    59.85000000
   C     84.86400000    68.14400000    59.40000000
   C     84.74400000    67.08400000    58.32000000
   O     85.73400000    66.38400000    58.08000000
   H     83.23400000    69.46400000    59.27000000
   H     85.49400000    67.76400000    60.21000000
   H     85.47400000    68.86400000    58.86000000
   N     83.53400000    66.94400000    57.77000000
   C     83.26400000    66.17400000    56.57000000
   C     83.00400000    67.03400000    55.33000000
   O     82.01400000    67.76400000    55.36000000
   C     82.19400000    65.10400000    56.79000000
   C     82.44400000    64.14400000    57.94000000
   N     83.60400000    63.49400000    58.03000000
   O     81.56400000    64.07400000    58.80000000
   H     82.78400000    67.50400000    58.14000000
   H     84.15400000    65.62400000    56.27000000
   H     82.18400000    64.52400000    55.87000000
   H     81.23400000    65.61400000    56.90000000
   H     84.35400000    63.60400000    57.36000000
   H     83.81400000    63.04400000    58.91000000
   N     83.93400000    66.95400000    54.38000000
   C     83.64400000    67.52400000    53.08000000
   C     82.64400000    66.68400000    52.28000000
   O     82.08400000    67.10400000    51.27000000
   H     84.72400000    66.33400000    54.49000000
   H     84.56400000    67.38400000    52.52000000
   H     83.20400000    68.51400000    53.20000000
   N     82.38400000    65.47400000    52.76000000
   C     81.44400000    64.54400000    52.17000000
   C     80.06400000    64.92400000    52.69000000
   O     79.95400000    65.38400000    53.83000000
   C     81.79400000    63.07400000    52.42000000
   C     80.78400000    62.13400000    51.81000000
   C     79.94400000    61.34400000    52.61000000
   C     80.62400000    62.11400000    50.42000000
   C     79.15400000    60.38400000    51.96000000
   C     79.83400000    61.17400000    49.76000000
   C     79.13400000    60.24400000    50.56000000
   O     78.37400000    59.22400000    50.06000000
   H     83.00400000    65.11400000    53.47000000
   H     81.50400000    64.73400000    51.10000000
   H     81.76400000    62.92400000    53.50000000
   H     82.76400000    62.95400000    51.93000000
   H     79.96400000    61.44400000    53.68000000
   H     81.14400000    62.75400000    49.72000000
   H     78.49400000    59.79400000    52.58000000
   H     79.87400000    61.13400000    48.68000000
   H     78.45400000    59.17400000    49.10000000
   N     79.10400000    64.92400000    51.77000000
   C     77.73400000    65.41400000    51.76000000
   C     76.75400000    64.48400000    52.46000000
   O     76.96400000    63.88400000    53.51000000
   C     77.75400000    66.89400000    52.14000000
   C     76.32400000    67.41400000    52.29000000
   C     78.48400000    67.61400000    51.01000000
   C     76.19400000    68.87400000    52.72000000
   H     79.45400000    64.57400000    50.89000000
   H     77.45400000    65.46400000    50.71000000
   H     78.20400000    67.07400000    53.11000000
   H     75.82400000    66.96400000    53.15000000
   H     75.81400000    67.27400000    51.34000000
   H     78.58400000    68.69400000    51.16000000
   H     79.54400000    67.37400000    51.04000000
   H     77.95400000    67.50400000    50.07000000
   H     76.32400000    69.51400000    51.84000000
   H     75.19400000    69.00400000    53.13000000
   H     76.90400000    69.08400000    53.52000000
   N     75.58400000    64.34400000    51.83000000
   C     74.45400000    63.55400000    52.27000000
   C     73.47400000    63.16400000    51.18000000
   O     72.80400000    62.14400000    51.35000000
   C     73.67400000    64.29400000    53.36000000
   O     73.44400000    65.62400000    52.96000000
   H     75.42400000    64.83400000    50.97000000
   H     74.76400000    62.61400000    52.73000000
   H     74.25400000    64.39400000    54.28000000
   H     72.73400000    63.79400000    53.57000000
   H     73.12400000    65.95400000    53.81000000
   N     73.48400000    63.96400000    50.11000000
   C     72.65400000    63.89400000    48.93000000
   C     71.14400000    63.74400000    49.10000000
   O     70.50400000    62.79400000    48.68000000
   C     73.28400000    62.99400000    47.87000000
   H     74.18400000    64.69400000    50.06000000
   H     72.64400000    64.90400000    48.51000000
   H     72.95400000    63.20400000    46.85000000
   H     74.33400000    63.23400000    47.74000000
   H     73.20400000    61.93400000    48.12000000
   N     70.44400000    64.80400000    49.53000000
   C     70.88400000    65.91400000    50.35000000
   C     70.34400000    67.26400000    49.88000000
   O     69.20400000    67.30400000    49.41000000
   C     70.48400000    65.61400000    51.79000000
   H     69.44400000    64.80400000    49.40000000
   H     71.96400000    65.93400000    50.24000000
   H     69.39400000    65.53400000    51.83000000
   H     70.95400000    64.70400000    52.15000000
   H     70.82400000    66.36400000    52.50000000
   N     71.03400000    68.40400000    49.90000000
   C     72.43400000    68.62400000    50.24000000
   C     73.24400000    68.84400000    48.97000000
   O     74.46400000    68.76400000    49.00000000
   C     72.42400000    69.83400000    51.17000000
   C     72.03400000    69.58400000    52.62000000
   C     72.55400000    70.65400000    53.57000000
   O     72.14400000    71.84400000    53.54000000
   O     73.31400000    70.34400000    54.50000000
   H     70.56400000    69.23400000    49.57000000
   H     72.89400000    67.75400000    50.70000000
   H     71.87400000    70.61400000    50.64000000
   H     73.40400000    70.31400000    51.21000000
   H     72.36400000    68.56400000    52.86000000
   H     70.95400000    69.47400000    52.71000000
   N     72.62400000    69.25400000    47.86000000
   C     73.14400000    69.53400000    46.53000000
   H     74.16700000    69.16400000    46.45500000
   H     72.52300000    69.03700000    45.78400000
   H     73.13300000    70.61000000    46.35400000
   H     71.63400000    69.33400000    48.02000000
  Ca     80.15000000    69.45000000    56.58000000
   O     79.20000000    67.18000000    55.64000000
   H     79.62000000    66.53000000    55.09000000
   H     78.35000000    66.79000000    55.88000000

Ca 1.70



