%chk=Ng-293_loop3_7.0.chk
%nprocshared=48
%mem=10GB
%nosave
#b3lyp/svp scf=(tight,noincore) Test 
#IOP(5/87=12) Density=Current Pop=(MK,readradii) iop(6/33=2) iop(6/42=6)

Ng-293_loop3_7.0 

   0   1
   C     41.12000000    78.49000000    70.24000000
   C     41.61000000    78.52000000    68.80000000
   O     42.66000000    79.10000000    68.55000000
   H     40.09300000    78.12700000    70.26600000
   H     41.75500000    77.82600000    70.82700000
   H     41.16000000    79.49500000    70.65900000
   N     40.99000000    77.72000000    67.93000000
   C     41.28000000    77.49000000    66.52000000
   C     40.99000000    76.03000000    66.21000000
   O     40.41000000    75.30000000    67.01000000
   C     40.52000000    78.45000000    65.62000000
   C     40.88000000    78.34000000    64.14000000
   O     42.04000000    77.93000000    63.92000000
   O     40.01000000    78.60000000    63.28000000
   H     40.41000000    77.02000000    68.36000000
   H     42.32000000    77.80000000    66.50000000
   H     40.88000000    79.44000000    65.89000000
   H     39.44000000    78.40000000    65.80000000
   N     41.40000000    75.47000000    65.07000000
   C     40.94000000    74.25000000    64.43000000
   C     39.47000000    74.25000000    64.05000000
   O     38.67000000    75.08000000    64.47000000
   C     41.37000000    72.96000000    65.12000000
   C     42.78000000    72.98000000    65.71000000
   C     43.86000000    73.17000000    64.65000000
   C     45.22000000    72.98000000    65.31000000
   N     45.77000000    74.29000000    65.69000000
   H     41.95000000    76.04000000    64.44000000
   H     41.59000000    74.24000000    63.56000000
   H     41.29000000    72.18000000    64.37000000
   H     40.76000000    72.60000000    65.95000000
   H     42.99000000    72.09000000    66.31000000
   H     42.82000000    73.82000000    66.40000000
   H     43.84000000    74.15000000    64.17000000
   H     43.80000000    72.36000000    63.92000000
   H     45.88000000    72.52000000    64.58000000
   H     45.22000000    72.34000000    66.19000000
   H     45.72000000    74.95000000    64.92000000
   H     45.26000000    74.61000000    66.50000000
   H     46.70000000    74.20000000    66.06000000
   N     39.09000000    73.22000000    63.28000000
   C     37.75000000    73.03000000    62.76000000
   C     36.81000000    72.19000000    63.61000000
   O     36.02000000    71.36000000    63.17000000
   C     37.65000000    72.76000000    61.27000000
   C     38.53000000    71.58000000    60.86000000
   O     39.09000000    70.87000000    61.72000000
   O     38.79000000    71.41000000    59.65000000
   H     39.80000000    72.54000000    63.04000000
   H     37.28000000    74.02000000    62.77000000
   H     37.95000000    73.63000000    60.69000000
   H     36.61000000    72.58000000    61.00000000
   N     36.73000000    72.57000000    64.89000000
   C     35.78000000    72.03000000    65.85000000
   C     34.37000000    72.59000000    65.78000000
   O     33.99000000    73.45000000    66.57000000
   H     37.34000000    73.31000000    65.21000000
   H     36.23000000    72.24000000    66.82000000
   H     35.79000000    70.94000000    65.84000000
   N     33.57000000    72.02000000    64.88000000
   C     32.15000000    72.28000000    64.72000000
   C     31.47000000    71.00000000    64.26000000
   O     32.09000000    70.25000000    63.51000000
   C     31.92000000    73.43000000    63.75000000
   C     32.22000000    74.81000000    64.33000000
   N     31.56000000    75.16000000    65.44000000
   O     33.04000000    75.55000000    63.79000000
   H     33.96000000    71.37000000    64.22000000
   H     31.70000000    72.53000000    65.69000000
   H     30.88000000    73.42000000    63.44000000
   H     32.54000000    73.24000000    62.87000000
   H     30.74000000    74.67000000    65.78000000
   H     31.87000000    76.04000000    65.83000000
   N     30.16000000    70.93000000    64.52000000
   C     29.41000000    69.70000000    64.41000000
   C     29.60000000    68.73000000    65.57000000
   O     29.99000000    69.19000000    66.64000000
   H     29.88000000    71.70000000    65.11000000
   H     29.55000000    69.29000000    63.41000000
   H     28.38000000    70.02000000    64.46000000
   N     29.40000000    67.43000000    65.35000000
   C     29.45000000    66.45000000    66.40000000
   C     30.82000000    66.25000000    67.03000000
   O     30.93000000    65.77000000    68.16000000
   C     28.33000000    66.83000000    67.37000000
   C     27.73000000    65.69000000    68.16000000
   C     27.41000000    65.90000000    69.50000000
   C     27.28000000    64.50000000    67.59000000
   C     26.74000000    64.96000000    70.30000000
   C     26.52000000    63.56000000    68.30000000
   C     26.30000000    63.78000000    69.67000000
   O     25.54000000    62.80000000    70.25000000
   H     29.15000000    67.09000000    64.43000000
   H     29.04000000    65.54000000    65.95000000
   H     27.45000000    67.18000000    66.83000000
   H     28.60000000    67.66000000    68.02000000
   H     27.58000000    66.88000000    69.93000000
   H     27.40000000    64.36000000    66.53000000
   H     26.36000000    65.17000000    71.29000000
   H     26.04000000    62.72000000    67.82000000
   H     25.08000000    62.26000000    69.61000000
   N     31.92000000    66.82000000    66.54000000
   C     33.30000000    66.82000000    66.97000000
   C     34.02000000    65.49000000    66.78000000
   O     35.17000000    65.55000000    66.35000000
   C     33.48000000    67.35000000    68.39000000
   C     32.87000000    68.75000000    68.46000000
   C     34.93000000    67.42000000    68.85000000
   C     33.24000000    69.74000000    67.37000000
   H     31.83000000    67.23000000    65.62000000
   H     33.87000000    67.50000000    66.33000000
   H     32.99000000    66.64000000    69.06000000
   H     33.07000000    69.22000000    69.43000000
   H     31.78000000    68.64000000    68.48000000
   H     35.20000000    66.43000000    69.21000000
   H     35.60000000    67.75000000    68.06000000
   H     34.98000000    68.02000000    69.76000000
   H     32.73000000    69.60000000    66.42000000
   H     33.01000000    70.72000000    67.79000000
   H     34.32000000    69.86000000    67.23000000
   N     33.38000000    64.35000000    67.06000000
   C     33.79000000    63.01000000    66.66000000
   C     35.17000000    62.57000000    67.13000000
   O     35.91000000    61.94000000    66.39000000
   C     32.75000000    62.02000000    67.18000000
   O     32.69000000    62.07000000    68.59000000
   H     32.45000000    64.46000000    67.43000000
   H     33.75000000    62.95000000    65.57000000
   H     33.07000000    61.03000000    66.85000000
   H     31.79000000    62.26000000    66.74000000
   H     31.89000000    61.67000000    68.93000000
   N     35.55000000    62.96000000    68.36000000
   C     36.85000000    62.79000000    68.97000000
   C     38.10000000    63.19000000    68.20000000
   O     39.19000000    62.67000000    68.45000000
   C     37.10000000    61.36000000    69.43000000
   H     34.78000000    63.30000000    68.90000000
   H     36.86000000    63.34000000    69.91000000
   H     37.92000000    61.26000000    70.13000000
   H     36.22000000    60.92000000    69.90000000
   H     37.43000000    60.76000000    68.58000000
   N     38.02000000    64.08000000    67.20000000
   C     39.06000000    64.37000000    66.24000000
   C     40.09000000    65.38000000    66.73000000
   O     39.77000000    66.36000000    67.39000000
   C     38.43000000    64.79000000    64.91000000
   H     37.11000000    64.47000000    67.00000000
   H     39.61000000    63.44000000    66.10000000
   H     37.79000000    65.64000000    65.12000000
   H     39.07000000    65.02000000    64.07000000
   H     37.85000000    64.00000000    64.42000000
   N     41.34000000    65.26000000    66.26000000
   C     42.54000000    66.08000000    66.32000000
   C     42.88000000    66.57000000    67.72000000
   O     43.58000000    67.56000000    67.96000000
   C     42.25000000    67.27000000    65.42000000
   C     42.04000000    66.82000000    63.98000000
   C     42.57000000    67.87000000    63.01000000
   O     43.77000000    67.93000000    62.67000000
   O     41.71000000    68.66000000    62.57000000
   H     41.54000000    64.39000000    65.79000000
   H     43.45000000    65.64000000    65.92000000
   H     43.05000000    68.00000000    65.52000000
   H     41.39000000    67.81000000    65.84000000
   H     41.01000000    66.60000000    63.71000000
   H     42.44000000    65.81000000    63.88000000
   N     42.33000000    65.93000000    68.75000000
   C     42.29000000    66.45000000    70.10000000
   H     41.38900000    67.04900000    70.23100000
   H     42.28200000    65.62200000    70.80900000
   H     43.16800000    67.07200000    70.27700000
   H     41.73000000    65.16000000    68.49000000
  Ca     40.86000000    69.65000000    60.14000000
   O     39.96000000    69.48000000    57.60000000
   H     39.93000000    68.79000000    56.94000000
   H     39.52000000    70.23000000    57.19000000

Ca 1.70



