%chk=Ng-293_loop3_49.0.chk
%nprocshared=48
%mem=10GB
%nosave
#b3lyp/svp scf=(tight,noincore) Test 
#IOP(5/87=12) Density=Current Pop=(MK,readradii) iop(6/33=2) iop(6/42=6)

Ng-293_loop3_49.0 

   0   1
   C     39.64000000    81.66000000    66.73000000
   C     39.58000000    81.64000000    65.21000000
   O     40.01000000    82.60000000    64.57000000
   H     39.80200000    82.68200000    67.07300000
   H     38.70000000    81.28600000    67.13600000
   H     40.46100000    81.02900000    67.07000000
   N     38.87000000    80.65000000    64.66000000
   C     38.64000000    80.63000000    63.23000000
   C     38.47000000    79.19000000    62.76000000
   O     38.10000000    78.36000000    63.59000000
   C     37.36000000    81.44000000    63.05000000
   C     36.95000000    81.69000000    61.60000000
   O     37.85000000    81.61000000    60.74000000
   O     35.77000000    81.98000000    61.30000000
   H     38.53000000    79.92000000    65.28000000
   H     39.49000000    81.04000000    62.69000000
   H     37.54000000    82.40000000    63.53000000
   H     36.47000000    80.95000000    63.44000000
   N     38.70000000    78.87000000    61.48000000
   C     38.68000000    77.57000000    60.83000000
   C     37.28000000    76.98000000    60.78000000
   O     36.34000000    77.58000000    61.28000000
   C     39.86000000    76.70000000    61.25000000
   C     41.29000000    77.23000000    61.21000000
   C     41.84000000    77.48000000    59.80000000
   C     43.31000000    77.87000000    59.72000000
   N     43.75000000    78.77000000    60.80000000
   H     38.75000000    79.67000000    60.87000000
   H     39.05000000    77.78000000    59.83000000
   H     39.93000000    75.82000000    60.62000000
   H     39.62000000    76.47000000    62.29000000
   H     41.98000000    76.53000000    61.67000000
   H     41.30000000    78.11000000    61.85000000
   H     41.24000000    78.28000000    59.37000000
   H     41.68000000    76.57000000    59.22000000
   H     43.49000000    78.47000000    58.83000000
   H     43.96000000    76.99000000    59.68000000
   H     43.76000000    78.33000000    61.71000000
   H     44.71000000    79.04000000    60.62000000
   H     43.13000000    79.54000000    60.96000000
   N     37.11000000    75.90000000    60.02000000
   C     35.89000000    75.24000000    59.57000000
   C     34.77000000    75.20000000    60.60000000
   O     33.70000000    75.74000000    60.33000000
   C     36.31000000    73.94000000    58.90000000
   C     37.53000000    73.78000000    58.01000000
   O     37.42000000    72.94000000    57.09000000
   O     38.62000000    74.37000000    58.21000000
   H     37.95000000    75.65000000    59.51000000
   H     35.54000000    75.92000000    58.79000000
   H     35.49000000    73.53000000    58.31000000
   H     36.47000000    73.20000000    59.69000000
   N     34.97000000    74.40000000    61.65000000
   C     34.10000000    74.43000000    62.82000000
   C     32.64000000    74.07000000    62.63000000
   O     31.80000000    74.37000000    63.47000000
   H     35.91000000    74.11000000    61.84000000
   H     34.15000000    75.40000000    63.31000000
   H     34.53000000    73.72000000    63.53000000
   N     32.33000000    73.38000000    61.53000000
   C     31.13000000    72.62000000    61.23000000
   C     31.53000000    71.29000000    60.62000000
   O     32.50000000    71.17000000    59.87000000
   C     30.26000000    73.40000000    60.25000000
   C     28.95000000    72.68000000    59.97000000
   N     28.64000000    72.45000000    58.69000000
   O     28.17000000    72.28000000    60.83000000
   H     33.14000000    73.14000000    60.99000000
   H     30.57000000    72.44000000    62.14000000
   H     30.86000000    73.40000000    59.34000000
   H     30.02000000    74.37000000    60.69000000
   H     29.25000000    72.76000000    57.94000000
   H     27.87000000    71.83000000    58.50000000
   N     30.80000000    70.19000000    60.83000000
   C     31.16000000    68.84000000    60.43000000
   C     32.09000000    68.12000000    61.39000000
   O     32.81000000    68.75000000    62.17000000
   H     29.94000000    70.30000000    61.34000000
   H     31.49000000    68.78000000    59.39000000
   H     30.22000000    68.29000000    60.37000000
   N     32.09000000    66.79000000    61.34000000
   C     32.55000000    65.87000000    62.36000000
   C     34.03000000    65.95000000    62.69000000
   O     34.57000000    65.19000000    63.49000000
   C     31.71000000    65.89000000    63.64000000
   C     30.23000000    65.75000000    63.41000000
   C     29.31000000    66.75000000    63.77000000
   C     29.79000000    64.52000000    62.92000000
   C     27.95000000    66.57000000    63.51000000
   C     28.42000000    64.32000000    62.71000000
   C     27.49000000    65.35000000    62.96000000
   O     26.18000000    65.17000000    62.63000000
   H     31.67000000    66.36000000    60.53000000
   H     32.52000000    64.84000000    62.00000000
   H     31.82000000    66.90000000    64.04000000
   H     32.07000000    65.25000000    64.45000000
   H     29.74000000    67.70000000    64.06000000
   H     30.53000000    63.75000000    62.73000000
   H     27.26000000    67.40000000    63.50000000
   H     28.08000000    63.32000000    62.46000000
   H     25.87000000    64.30000000    62.35000000
   N     34.78000000    66.91000000    62.15000000
   C     36.20000000    67.15000000    62.31000000
   C     37.09000000    66.07000000    61.71000000
   O     38.02000000    66.43000000    60.99000000
   C     36.50000000    67.67000000    63.72000000
   C     35.83000000    69.02000000    63.98000000
   C     37.97000000    68.02000000    63.92000000
   C     35.54000000    69.31000000    65.45000000
   H     34.29000000    67.51000000    61.50000000
   H     36.28000000    68.00000000    61.63000000
   H     36.27000000    66.93000000    64.49000000
   H     34.86000000    69.02000000    63.50000000
   H     36.43000000    69.82000000    63.56000000
   H     38.20000000    68.55000000    64.84000000
   H     38.44000000    67.04000000    63.88000000
   H     38.38000000    68.62000000    63.10000000
   H     36.40000000    69.22000000    66.11000000
   H     35.25000000    70.35000000    65.37000000
   H     34.70000000    68.74000000    65.86000000
   N     36.93000000    64.78000000    62.01000000
   C     37.65000000    63.63000000    61.50000000
   C     39.09000000    63.58000000    61.98000000
   O     39.95000000    62.92000000    61.41000000
   C     36.88000000    62.39000000    61.94000000
   O     36.55000000    62.54000000    63.30000000
   H     36.19000000    64.58000000    62.67000000
   H     37.70000000    63.67000000    60.41000000
   H     37.46000000    61.49000000    61.73000000
   H     35.92000000    62.36000000    61.42000000
   H     36.76000000    61.68000000    63.68000000
   N     39.37000000    64.27000000    63.09000000
   C     40.64000000    64.47000000    63.76000000
   C     41.72000000    65.09000000    62.90000000
   O     42.90000000    64.80000000    63.11000000
   C     40.97000000    63.17000000    64.49000000
   H     38.56000000    64.69000000    63.52000000
   H     40.55000000    65.27000000    64.50000000
   H     41.89000000    63.40000000    65.03000000
   H     40.12000000    62.94000000    65.13000000
   H     41.17000000    62.38000000    63.77000000
   N     41.39000000    65.95000000    61.93000000
   C     42.26000000    66.46000000    60.89000000
   C     42.40000000    67.97000000    60.88000000
   O     41.60000000    68.69000000    61.49000000
   C     41.84000000    65.85000000    59.55000000
   H     40.42000000    66.17000000    61.79000000
   H     43.22000000    66.02000000    61.19000000
   H     41.73000000    64.76000000    59.60000000
   H     40.93000000    66.33000000    59.19000000
   H     42.60000000    66.10000000    58.81000000
   N     43.50000000    68.46000000    60.31000000
   C     43.82000000    69.87000000    60.18000000
   C     44.19000000    70.55000000    61.49000000
   O     44.39000000    71.76000000    61.53000000
   C     42.74000000    70.63000000    59.43000000
   C     42.29000000    69.99000000    58.11000000
   C     41.29000000    70.91000000    57.42000000
   O     41.54000000    71.24000000    56.24000000
   O     40.24000000    71.26000000    57.99000000
   H     44.22000000    67.78000000    60.09000000
   H     44.70000000    69.94000000    59.53000000
   H     43.18000000    71.61000000    59.29000000
   H     41.81000000    70.80000000    59.98000000
   H     41.84000000    69.01000000    58.29000000
   H     43.18000000    69.84000000    57.51000000
   N     44.57000000    69.75000000    62.48000000
   C     44.49000000    70.23000000    63.85000000
   H     43.46300000    70.51900000    64.07400000
   H     44.80000000    69.43800000    64.53200000
   H     45.14500000    71.09300000    63.97200000
   H     44.59000000    68.74000000    62.39000000
  Ca     39.08000000    71.60000000    55.65000000
   O     39.78000000    69.75000000    53.96000000
   H     39.58000000    70.10000000    53.10000000
   H     39.76000000    68.80000000    53.84000000

Ca 1.70



