%chk=Ng-31_loop3_26.0.chk
%nprocshared=48
%mem=10GB
%nosave
#b3lyp/svp scf=(tight,noincore) Test 
#IOP(5/87=12) Density=Current Pop=(MK,readradii) iop(6/33=2) iop(6/42=6)

Ng-31_loop3_26.0 

   0   1
   C      6.05000000    42.99000000    14.66000000
   C      7.45000000    42.66000000    14.16000000
   O      7.79000000    41.61000000    13.61000000
   H      5.34400000    42.25500000    14.27300000
   H      6.03800000    42.96600000    15.75000000
   H      5.76500000    43.98400000    14.31500000
   N      8.36000000    43.61000000    14.38000000
   C      9.79000000    43.56000000    14.17000000
   C     10.55000000    43.20000000    15.44000000
   O      9.94000000    43.11000000    16.51000000
   C     10.27000000    44.85000000    13.51000000
   C      9.85000000    46.18000000    14.13000000
   O      8.81000000    46.20000000    14.83000000
   O     10.51000000    47.18000000    13.80000000
   H      8.05000000    44.42000000    14.90000000
   H      9.92000000    42.86000000    13.35000000
   H      9.94000000    44.88000000    12.47000000
   H     11.36000000    44.85000000    13.50000000
   N     11.85000000    42.95000000    15.25000000
   C     12.71000000    42.46000000    16.30000000
   C     13.45000000    41.22000000    15.81000000
   O     14.58000000    40.92000000    16.19000000
   C     13.48000000    43.65000000    16.87000000
   C     13.88000000    43.32000000    18.31000000
   C     14.55000000    44.48000000    19.04000000
   C     14.88000000    44.27000000    20.52000000
   N     15.90000000    43.21000000    20.57000000
   H     12.19000000    43.01000000    14.30000000
   H     12.17000000    42.10000000    17.18000000
   H     12.87000000    44.54000000    16.77000000
   H     14.33000000    43.82000000    16.21000000
   H     14.59000000    42.51000000    18.16000000
   H     13.02000000    43.11000000    18.94000000
   H     14.03000000    45.44000000    18.96000000
   H     15.47000000    44.71000000    18.51000000
   H     13.93000000    43.99000000    20.96000000
   H     15.10000000    45.25000000    20.94000000
   H     15.51000000    42.39000000    20.11000000
   H     16.83000000    43.46000000    20.29000000
   H     16.00000000    42.90000000    21.52000000
   N     12.88000000    40.55000000    14.81000000
   C     13.21000000    39.25000000    14.26000000
   C     13.11000000    39.06000000    12.75000000
   O     13.77000000    38.22000000    12.14000000
   C     12.36000000    38.20000000    14.97000000
   C     10.86000000    38.47000000    14.99000000
   O     10.43000000    39.36000000    14.23000000
   O     10.10000000    37.68000000    15.60000000
   H     11.91000000    40.74000000    14.60000000
   H     14.25000000    39.01000000    14.46000000
   H     12.57000000    38.15000000    16.04000000
   H     12.57000000    37.26000000    14.46000000
   N     12.34000000    39.95000000    12.12000000
   C     11.86000000    39.75000000    10.77000000
   C     10.41000000    40.17000000    10.61000000
   O      9.74000000    40.42000000    11.62000000
   H     11.73000000    40.45000000    12.76000000
   H     12.06000000    38.79000000    10.31000000
   H     12.42000000    40.47000000    10.17000000
   N      9.83000000    40.26000000     9.41000000
   C     10.39000000    39.81000000     8.16000000
   C      9.26000000    39.53000000     7.18000000
   O      8.47000000    40.46000000     7.03000000
   C     11.35000000    40.88000000     7.64000000
   C     11.84000000    40.58000000     6.23000000
   N     11.43000000    41.24000000     5.14000000
   O     12.56000000    39.60000000     6.05000000
   H      8.90000000    40.67000000     9.39000000
   H     10.91000000    38.87000000     8.28000000
   H     12.22000000    41.00000000     8.28000000
   H     10.75000000    41.79000000     7.54000000
   H     10.87000000    42.08000000     5.06000000
   H     11.92000000    40.93000000     4.32000000
   N      9.13000000    38.37000000     6.55000000
   C      9.99000000    37.20000000     6.63000000
   C      9.61000000    36.28000000     7.78000000
   O      9.26000000    36.61000000     8.91000000
   H      8.36000000    38.40000000     5.89000000
   H     11.06000000    37.38000000     6.62000000
   H      9.86000000    36.61000000     5.72000000
   N      9.64000000    34.99000000     7.44000000
   C      9.12000000    33.96000000     8.31000000
   C     10.16000000    32.88000000     8.58000000
   O     10.54000000    32.12000000     7.69000000
   C      7.81000000    33.42000000     7.75000000
   C      6.68000000    34.41000000     7.55000000
   C      6.17000000    34.96000000     8.73000000
   C      6.20000000    34.77000000     6.28000000
   C      5.10000000    35.86000000     8.64000000
   C      5.20000000    35.74000000     6.19000000
   C      4.58000000    36.19000000     7.37000000
   O      3.61000000    37.15000000     7.29000000
   H      9.90000000    34.78000000     6.49000000
   H      8.98000000    34.37000000     9.31000000
   H      7.42000000    32.59000000     8.35000000
   H      7.97000000    33.01000000     6.75000000
   H      6.62000000    34.76000000     9.69000000
   H      6.81000000    34.47000000     5.45000000
   H      4.71000000    36.32000000     9.54000000
   H      4.86000000    36.07000000     5.21000000
   H      3.30000000    37.17000000     6.38000000
   N     10.49000000    32.55000000     9.83000000
   C     11.22000000    31.33000000    10.12000000
   C     10.44000000    30.05000000     9.88000000
   O     11.05000000    28.99000000     9.82000000
   C     11.84000000    31.39000000    11.52000000
   C     10.84000000    31.16000000    12.65000000
   C     13.05000000    30.49000000    11.75000000
   C     11.32000000    31.08000000    14.09000000
   H     10.21000000    33.14000000    10.60000000
   H     12.08000000    31.35000000     9.46000000
   H     12.20000000    32.41000000    11.62000000
   H     10.48000000    30.17000000    12.36000000
   H     10.01000000    31.86000000    12.70000000
   H     13.78000000    30.78000000    11.00000000
   H     13.48000000    30.71000000    12.73000000
   H     12.71000000    29.45000000    11.73000000
   H     11.81000000    30.10000000    14.15000000
   H     12.04000000    31.89000000    14.19000000
   H     10.52000000    31.30000000    14.78000000
   N      9.12000000    30.08000000     9.66000000
   C      8.10000000    29.07000000     9.46000000
   C      7.65000000    28.42000000    10.76000000
   O      6.87000000    27.47000000    10.77000000
   C      6.90000000    29.70000000     8.77000000
   O      6.39000000    30.76000000     9.55000000
   H      8.76000000    31.02000000     9.62000000
   H      8.46000000    28.29000000     8.78000000
   H      6.13000000    28.95000000     8.59000000
   H      7.14000000    29.95000000     7.73000000
   H      5.62000000    31.04000000     9.05000000
   N      8.00000000    28.97000000    11.92000000
   C      7.71000000    28.47000000    13.25000000
   C      7.18000000    29.55000000    14.18000000
   O      7.92000000    30.42000000    14.65000000
   C      8.98000000    27.73000000    13.67000000
   H      8.68000000    29.71000000    11.98000000
   H      6.89000000    27.76000000    13.21000000
   H      9.22000000    26.96000000    12.94000000
   H      9.78000000    28.45000000    13.82000000
   H      8.79000000    27.27000000    14.64000000
   N      5.89000000    29.46000000    14.50000000
   C      5.09000000    30.27000000    15.41000000
   C      5.10000000    31.75000000    15.03000000
   O      5.12000000    32.65000000    15.87000000
   C      5.35000000    30.00000000    16.89000000
   H      5.39000000    28.64000000    14.20000000
   H      4.08000000    29.94000000    15.16000000
   H      5.37000000    28.91000000    16.97000000
   H      6.32000000    30.47000000    17.06000000
   H      4.61000000    30.51000000    17.51000000
   N      5.24000000    32.08000000    13.75000000
   C      5.35000000    33.44000000    13.26000000
   C      3.95000000    34.03000000    13.13000000
   O      3.91000000    35.23000000    12.87000000
   C      6.01000000    33.51000000    11.88000000
   C      7.45000000    33.02000000    11.84000000
   C      8.36000000    34.02000000    12.54000000
   O      8.38000000    34.17000000    13.79000000
   O      9.21000000    34.66000000    11.90000000
   H      5.37000000    31.34000000    13.07000000
   H      5.94000000    34.04000000    13.94000000
   H      6.06000000    34.57000000    11.61000000
   H      5.38000000    32.99000000    11.16000000
   H      7.77000000    32.94000000    10.80000000
   H      7.49000000    32.03000000    12.30000000
   N      2.86000000    33.26000000    13.13000000
   C      1.46000000    33.66000000    13.10000000
   H      0.86800000    32.95400000    13.68300000
   H      1.35700000    34.65800000    13.52600000
   H      1.10500000    33.66600000    12.06900000
   H      3.01000000    32.26000000    13.21000000
  Ca      7.99000000    39.04000000    13.17000000
   O      7.84000000    36.86000000    14.63000000
   H      8.47000000    37.00000000    15.34000000
   H      7.68000000    35.92000000    14.64000000

Ca 1.70



