%chk=Ng-31_loop3_0.0.chk
%nprocshared=48
%mem=10GB
%nosave
#b3lyp/svp scf=(tight,noincore) Test 
#IOP(5/87=12) Density=Current Pop=(MK,readradii) iop(6/33=2) iop(6/42=6)

Ng-31_loop3_0.0 

   0   1
   C    103.23000000    52.17000000    19.96000000
   C    103.90000000    53.25000000    19.12000000
   O    103.35000000    54.10000000    18.43000000
   H    102.23900000    51.96100000    19.55800000
   H    103.83200000    51.26200000    19.93200000
   H    103.13800000    52.51500000    20.99000000
   N    105.23000000    53.34000000    19.20000000
   C    106.05000000    54.15000000    18.32000000
   C    106.35000000    53.48000000    16.99000000
   O    106.59000000    52.27000000    16.98000000
   C    107.28000000    54.61000000    19.10000000
   C    108.14000000    53.47000000    19.62000000
   O    107.62000000    52.40000000    20.01000000
   O    109.38000000    53.63000000    19.59000000
   H    105.76000000    52.79000000    19.86000000
   H    105.47000000    55.05000000    18.12000000
   H    107.02000000    55.26000000    19.94000000
   H    107.96000000    55.23000000    18.52000000
   N    106.30000000    54.19000000    15.86000000
   C    106.35000000    53.59000000    14.54000000
   C    105.03000000    53.02000000    14.03000000
   O    105.05000000    52.25000000    13.08000000
   C    106.94000000    54.62000000    13.58000000
   C    107.08000000    54.16000000    12.13000000
   C    107.82000000    55.24000000    11.34000000
   C    108.60000000    54.66000000    10.16000000
   N    109.60000000    55.72000000     9.95000000
   H    106.10000000    55.17000000    15.98000000
   H    107.02000000    52.74000000    14.57000000
   H    107.96000000    54.75000000    13.94000000
   H    106.31000000    55.51000000    13.63000000
   H    106.05000000    54.09000000    11.79000000
   H    107.71000000    53.27000000    12.08000000
   H    108.55000000    55.65000000    12.04000000
   H    107.24000000    56.10000000    11.00000000
   H    107.91000000    54.43000000     9.35000000
   H    109.07000000    53.76000000    10.56000000
   H    110.04000000    56.11000000    10.77000000
   H    110.35000000    55.34000000     9.39000000
   H    109.26000000    56.58000000     9.55000000
   N    103.86000000    53.39000000    14.56000000
   C    102.61000000    52.98000000    13.95000000
   C    102.31000000    53.79000000    12.70000000
   O    101.49000000    53.45000000    11.85000000
   C    101.42000000    52.86000000    14.90000000
   C    100.97000000    54.11000000    15.65000000
   O    100.21000000    53.97000000    16.63000000
   O    101.39000000    55.25000000    15.36000000
   H    103.75000000    54.08000000    15.29000000
   H    102.76000000    51.99000000    13.52000000
   H    101.63000000    52.06000000    15.60000000
   H    100.61000000    52.57000000    14.24000000
   N    103.04000000    54.90000000    12.55000000
   C    102.89000000    55.75000000    11.39000000
   C    103.60000000    57.10000000    11.51000000
   O    103.83000000    57.60000000    12.61000000
   H    103.63000000    55.18000000    13.32000000
   H    101.82000000    55.89000000    11.20000000
   H    103.21000000    55.22000000    10.50000000
   N    103.86000000    57.73000000    10.37000000
   C    103.58000000    57.58000000     8.96000000
   C    102.68000000    58.73000000     8.53000000
   O    102.78000000    59.87000000     9.01000000
   C    104.84000000    57.63000000     8.10000000
   C    105.75000000    56.41000000     8.17000000
   N    106.75000000    56.28000000     7.29000000
   O    105.53000000    55.54000000     9.01000000
   H    104.07000000    58.69000000    10.58000000
   H    103.02000000    56.66000000     8.81000000
   H    105.36000000    58.53000000     8.42000000
   H    104.62000000    57.92000000     7.07000000
   H    106.84000000    57.06000000     6.66000000
   H    107.31000000    55.44000000     7.31000000
   N    101.83000000    58.60000000     7.51000000
   C    101.43000000    57.39000000     6.83000000
   C    100.71000000    56.33000000     7.65000000
   O    100.43000000    56.44000000     8.84000000
   H    101.44000000    59.49000000     7.24000000
   H    102.26000000    56.94000000     6.28000000
   H    100.82000000    57.67000000     5.98000000
   N    100.46000000    55.23000000     6.92000000
   C     99.93000000    53.97000000     7.40000000
   C    100.44000000    52.85000000     6.50000000
   O     99.77000000    52.08000000     5.82000000
   C     98.41000000    53.96000000     7.42000000
   C     97.75000000    54.91000000     8.39000000
   C     97.57000000    54.70000000     9.76000000
   C     97.22000000    56.07000000     7.81000000
   C     97.05000000    55.73000000    10.56000000
   C     96.64000000    57.09000000     8.57000000
   C     96.53000000    56.89000000     9.96000000
   O     95.82000000    57.76000000    10.73000000
   H    100.44000000    55.29000000     5.92000000
   H    100.38000000    53.71000000     8.36000000
   H     98.08000000    52.96000000     7.72000000
   H     97.99000000    54.10000000     6.42000000
   H     97.96000000    53.79000000    10.19000000
   H     97.37000000    56.28000000     6.76000000
   H     96.89000000    55.56000000    11.62000000
   H     96.24000000    58.01000000     8.17000000
   H     95.47000000    58.53000000    10.29000000
   N    101.77000000    52.72000000     6.42000000
   C    102.45000000    52.27000000     5.22000000
   C    102.79000000    50.78000000     5.12000000
   O    103.14000000    50.25000000     4.08000000
   C    103.71000000    53.06000000     4.90000000
   C    103.27000000    54.45000000     4.44000000
   C    104.75000000    53.17000000     6.01000000
   C    104.38000000    55.37000000     3.94000000
   H    102.29000000    53.32000000     7.04000000
   H    101.73000000    52.38000000     4.41000000
   H    104.21000000    52.68000000     4.01000000
   H    102.64000000    54.84000000     5.24000000
   H    102.66000000    54.32000000     3.54000000
   H    105.38000000    52.28000000     6.05000000
   H    105.49000000    53.94000000     5.82000000
   H    104.32000000    53.30000000     7.01000000
   H    104.80000000    54.80000000     3.11000000
   H    104.03000000    56.35000000     3.63000000
   H    105.14000000    55.48000000     4.72000000
   N    102.80000000    50.06000000     6.25000000
   C    103.28000000    48.70000000     6.37000000
   C    104.15000000    48.53000000     7.60000000
   O    105.29000000    48.07000000     7.58000000
   C    102.16000000    47.67000000     6.26000000
   O    101.40000000    47.44000000     7.43000000
   H    102.29000000    50.46000000     7.02000000
   H    103.90000000    48.57000000     5.48000000
   H    102.63000000    46.70000000     6.08000000
   H    101.49000000    47.94000000     5.45000000
   H    101.01000000    48.23000000     7.81000000
   N    103.59000000    48.91000000     8.75000000
   C    104.08000000    48.42000000    10.02000000
   C    103.26000000    47.36000000    10.75000000
   O    103.42000000    47.19000000    11.95000000
   C    104.30000000    49.66000000    10.88000000
   H    102.75000000    49.47000000     8.80000000
   H    105.07000000    47.97000000     9.94000000
   H    103.41000000    50.29000000    10.90000000
   H    104.50000000    49.47000000    11.94000000
   H    105.02000000    50.32000000    10.40000000
   N    102.29000000    46.76000000    10.05000000
   C    101.11000000    46.17000000    10.65000000
   C    100.38000000    47.15000000    11.55000000
   O    100.11000000    46.84000000    12.71000000
   C    101.45000000    44.82000000    11.27000000
   H    102.25000000    46.89000000     9.05000000
   H    100.37000000    45.92000000     9.90000000
   H    100.64000000    44.29000000    11.79000000
   H    101.76000000    44.16000000    10.47000000
   H    102.25000000    45.03000000    11.98000000
   N    100.16000000    48.39000000    11.11000000
   C     99.42000000    49.43000000    11.80000000
   C     97.91000000    49.21000000    11.76000000
   O     97.18000000    49.65000000    12.64000000
   C     99.83000000    50.81000000    11.30000000
   C     99.49000000    51.35000000     9.92000000
   C    100.29000000    50.50000000     8.94000000
   O     99.70000000    49.64000000     8.25000000
   O    101.52000000    50.69000000     8.86000000
   H    100.55000000    48.57000000    10.20000000
   H     99.69000000    49.36000000    12.86000000
   H    100.92000000    50.91000000    11.40000000
   H     99.40000000    51.53000000    11.99000000
   H     99.91000000    52.36000000     9.90000000
   H     98.41000000    51.32000000     9.74000000
   N     97.40000000    48.50000000    10.75000000
   C     95.98000000    48.23000000    10.66000000
   H     95.45600000    49.13800000    10.36100000
   H     95.80400000    47.44900000     9.92000000
   H     95.61000000    47.90100000    11.63100000
   H     97.99000000    48.10000000    10.03000000
  Ca     99.60000000    56.63000000    17.23000000
   O    101.90800000    56.43000000    18.27000000
   H    102.42800000    55.65000000    18.09000000
   H    102.53800000    57.07000000    18.61000000

Ca 1.70



