%chk=Ng-31_loop3_30.0.chk
%nprocshared=48
%mem=10GB
%nosave
#b3lyp/svp scf=(tight,noincore) Test 
#IOP(5/87=12) Density=Current Pop=(MK,readradii) iop(6/33=2) iop(6/42=6)

Ng-31_loop3_30.0 

   0   1
   C     94.89000000    74.06000000    16.93000000
   C     95.83000000    73.28000000    17.84000000
   O     95.39000000    72.37000000    18.54000000
   H     94.00100000    74.34900000    17.49000000
   H     95.39600000    74.95400000    16.56500000
   H     94.60000000    73.43500000    16.08500000
   N     97.09000000    73.71000000    17.91000000
   C     98.08000000    73.12000000    18.79000000
   C     98.45000000    73.94000000    20.01000000
   O     98.76000000    73.40000000    21.07000000
   C     99.24000000    72.57000000    17.97000000
   C     99.71000000    73.50000000    16.86000000
   O     99.48000000    74.73000000    16.87000000
   O    100.35000000    73.00000000    15.91000000
   H     97.29000000    74.58000000    17.42000000
   H     97.60000000    72.22000000    19.19000000
   H     99.00000000    71.55000000    17.66000000
   H    100.12000000    72.44000000    18.60000000
   N     98.75000000    75.23000000    19.83000000
   C     99.29000000    76.04000000    20.91000000
   C    100.59000000    75.46000000    21.44000000
   O    101.62000000    75.51000000    20.76000000
   C     99.48000000    77.52000000    20.59000000
   C     98.18000000    78.21000000    20.17000000
   C     98.41000000    79.70000000    19.92000000
   C     97.03000000    80.28000000    19.60000000
   N     97.07000000    81.74000000    19.48000000
   H     98.73000000    75.54000000    18.87000000
   H     98.50000000    75.99000000    21.66000000
   H    100.16000000    77.65000000    19.75000000
   H     99.98000000    78.08000000    21.38000000
   H     97.28000000    78.02000000    20.75000000
   H     97.92000000    77.87000000    19.17000000
   H     99.04000000    79.76000000    19.03000000
   H     98.86000000    80.23000000    20.76000000
   H     96.27000000    79.97000000    20.31000000
   H     96.72000000    79.84000000    18.65000000
   H     97.22000000    82.18000000    20.38000000
   H     97.85000000    82.00000000    18.89000000
   H     96.23000000    82.03000000    19.00000000
   N    100.51000000    74.99000000    22.68000000
   C    101.65000000    74.42000000    23.38000000
   C    101.80000000    72.92000000    23.15000000
   O    102.85000000    72.41000000    23.54000000
   C    101.52000000    74.69000000    24.87000000
   C    100.26000000    74.15000000    25.53000000
   O    100.23000000    72.96000000    25.92000000
   O     99.19000000    74.80000000    25.49000000
   H     99.83000000    75.42000000    23.29000000
   H    102.55000000    74.93000000    23.04000000
   H    101.64000000    75.76000000    25.08000000
   H    102.40000000    74.22000000    25.30000000
   N    100.84000000    72.28000000    22.48000000
   C    100.75000000    70.86000000    22.18000000
   C    101.59000000    70.51000000    20.96000000
   O    102.70000000    71.00000000    20.78000000
   H    100.06000000    72.81000000    22.13000000
   H     99.73000000    70.57000000    21.94000000
   H    101.01000000    70.24000000    23.03000000
   N    101.14000000    69.63000000    20.05000000
   C    100.03000000    68.71000000    20.18000000
   C     99.37000000    68.76000000    18.81000000
   O    100.07000000    68.63000000    17.80000000
   C    100.62000000    67.33000000    20.40000000
   C    101.45000000    67.14000000    21.66000000
   N    102.05000000    65.95000000    21.76000000
   O    101.51000000    67.94000000    22.59000000
   H    101.78000000    69.48000000    19.28000000
   H     99.24000000    68.88000000    20.92000000
   H    101.26000000    66.96000000    19.60000000
   H     99.78000000    66.64000000    20.50000000
   H    101.80000000    65.28000000    21.05000000
   H    102.30000000    65.59000000    22.67000000
   N     98.05000000    68.90000000    18.74000000
   C     97.06000000    69.24000000    19.74000000
   C     96.72000000    68.17000000    20.76000000
   O     96.53000000    68.57000000    21.90000000
   H     97.71000000    68.75000000    17.80000000
   H     96.14000000    69.36000000    19.15000000
   H     97.29000000    70.19000000    20.22000000
   N     96.69000000    66.89000000    20.37000000
   C     96.06000000    65.83000000    21.13000000
   C     96.91000000    65.43000000    22.33000000
   O     98.11000000    65.21000000    22.13000000
   C     95.76000000    64.67000000    20.19000000
   C     94.86000000    64.97000000    19.02000000
   C     93.81000000    65.90000000    19.07000000
   C     95.11000000    64.30000000    17.81000000
   C     92.93000000    66.03000000    17.99000000
   C     94.42000000    64.67000000    16.65000000
   C     93.25000000    65.44000000    16.76000000
   O     92.45000000    65.68000000    15.68000000
   H     96.85000000    66.70000000    19.39000000
   H     95.10000000    66.24000000    21.44000000
   H     95.28000000    63.81000000    20.64000000
   H     96.64000000    64.23000000    19.71000000
   H     93.66000000    66.53000000    19.93000000
   H     95.87000000    63.55000000    17.65000000
   H     92.09000000    66.71000000    18.02000000
   H     94.68000000    64.23000000    15.69000000
   H     92.71000000    65.26000000    14.85000000
   N     96.31000000    65.44000000    23.53000000
   C     97.00000000    65.21000000    24.78000000
   C     96.09000000    64.53000000    25.80000000
   O     96.64000000    64.07000000    26.80000000
   C     97.61000000    66.48000000    25.38000000
   C     98.75000000    67.07000000    24.55000000
   C     96.55000000    67.54000000    25.66000000
   C     99.53000000    68.15000000    25.29000000
   H     95.32000000    65.63000000    23.56000000
   H     97.82000000    64.51000000    24.62000000
   H     98.04000000    66.22000000    26.35000000
   H     98.40000000    67.47000000    23.60000000
   H     99.51000000    66.29000000    24.44000000
   H     95.73000000    67.19000000    26.28000000
   H     97.04000000    68.32000000    26.24000000
   H     96.22000000    67.97000000    24.71000000
   H    100.33000000    68.62000000    24.71000000
   H     98.83000000    68.94000000    25.55000000
   H     99.89000000    67.73000000    26.22000000
   N     94.76000000    64.51000000    25.69000000
   C     93.93000000    63.94000000    26.73000000
   C     92.68000000    64.78000000    26.96000000
   O     92.17000000    65.35000000    26.00000000
   C     93.59000000    62.46000000    26.59000000
   O     94.72000000    61.64000000    26.74000000
   H     94.33000000    64.73000000    24.81000000
   H     94.49000000    64.10000000    27.65000000
   H     93.02000000    62.23000000    25.69000000
   H     92.97000000    62.19000000    27.44000000
   H     95.27000000    61.74000000    25.95000000
   N     92.00000000    64.67000000    28.11000000
   C     90.84000000    65.42000000    28.52000000
   C     91.01000000    66.93000000    28.69000000
   O     92.14000000    67.39000000    28.81000000
   C     90.23000000    64.84000000    29.80000000
   H     92.46000000    64.07000000    28.79000000
   H     90.10000000    65.28000000    27.73000000
   H     89.36000000    65.39000000    30.14000000
   H     89.84000000    63.84000000    29.57000000
   H     90.99000000    64.98000000    30.56000000
   N     89.91000000    67.67000000    28.85000000
   C     89.91000000    69.07000000    29.21000000
   C     90.68000000    70.04000000    28.32000000
   O     91.19000000    71.09000000    28.70000000
   C     90.01000000    69.27000000    30.72000000
   H     89.06000000    67.24000000    28.52000000
   H     88.91000000    69.47000000    29.03000000
   H     91.00000000    68.95000000    31.03000000
   H     89.89000000    70.34000000    30.85000000
   H     89.35000000    68.66000000    31.34000000
   N     90.88000000    69.66000000    27.05000000
   C     91.47000000    70.48000000    26.02000000
   C     90.55000000    70.92000000    24.89000000
   O     90.57000000    72.04000000    24.39000000
   C     92.81000000    69.90000000    25.57000000
   C     94.01000000    69.93000000    26.51000000
   C     94.58000000    71.33000000    26.65000000
   O     95.23000000    71.86000000    25.72000000
   O     94.39000000    71.96000000    27.71000000
   H     90.67000000    68.73000000    26.71000000
   H     91.67000000    71.42000000    26.53000000
   H     93.12000000    70.26000000    24.59000000
   H     92.62000000    68.86000000    25.30000000
   H     94.69000000    69.22000000    26.03000000
   H     93.75000000    69.51000000    27.48000000
   N     89.72000000    69.98000000    24.42000000
   C     88.78000000    69.99000000    23.32000000
   H     87.91000000    70.58800000    23.59200000
   H     89.25600000    70.42100000    22.43900000
   H     88.46500000    68.97000000    23.10100000
   H     89.81000000    69.15000000    24.99000000
  Ca     97.71000000    72.70000000    25.91000000
   O     97.34000000    73.86000000    23.58000000
   H     97.52000000    73.31000000    22.81000000
   H     97.03000000    74.69000000    23.22000000

Ca 1.70



