%chk=Ng-31_loop3_25.0.chk
%nprocshared=48
%mem=10GB
%nosave
#b3lyp/svp scf=(tight,noincore) Test 
#IOP(5/87=12) Density=Current Pop=(MK,readradii) iop(6/33=2) iop(6/42=6)

Ng-31_loop3_25.0 

   0   1
   C     84.05000000    70.39000000    30.91000000
   C     83.51000000    69.43000000    31.96000000
   O     82.34000000    69.43000000    32.34000000
   H     85.06100000    70.09200000    30.63200000
   H     83.40900000    70.36400000    30.02900000
   H     84.06900000    71.40100000    31.31700000
   N     84.35000000    68.53000000    32.46000000
   C     83.96000000    67.40000000    33.28000000
   C     84.29000000    67.56000000    34.76000000
   O     83.85000000    66.73000000    35.55000000
   C     84.40000000    66.05000000    32.72000000
   C     85.91000000    66.05000000    32.51000000
   O     86.42000000    66.74000000    31.61000000
   O     86.62000000    65.23000000    33.13000000
   H     85.31000000    68.48000000    32.16000000
   H     82.87000000    67.34000000    33.33000000
   H     83.92000000    66.01000000    31.74000000
   H     84.08000000    65.20000000    33.31000000
   N     84.98000000    68.64000000    35.14000000
   C     85.24000000    69.09000000    36.49000000
   C     86.05000000    68.06000000    37.25000000
   O     86.94000000    67.44000000    36.67000000
   C     86.07000000    70.37000000    36.41000000
   C     85.19000000    71.59000000    36.11000000
   C     85.95000000    72.86000000    35.71000000
   C     84.95000000    73.93000000    35.29000000
   N     84.38000000    74.54000000    36.50000000
   H     85.25000000    69.21000000    34.35000000
   H     84.31000000    69.33000000    37.00000000
   H     86.88000000    70.34000000    35.68000000
   H     86.57000000    70.56000000    37.37000000
   H     84.45000000    71.81000000    36.87000000
   H     84.77000000    71.25000000    35.16000000
   H     86.68000000    72.73000000    34.92000000
   H     86.55000000    73.15000000    36.57000000
   H     84.23000000    73.47000000    34.61000000
   H     85.41000000    74.70000000    34.68000000
   H     84.03000000    73.81000000    37.10000000
   H     85.10000000    74.95000000    37.09000000
   H     83.86000000    75.39000000    36.33000000
   N     85.82000000    67.83000000    38.54000000
   C     86.17000000    66.64000000    39.29000000
   C     85.00000000    65.66000000    39.26000000
   O     84.76000000    64.90000000    40.19000000
   C     86.64000000    67.02000000    40.69000000
   C     85.75000000    67.94000000    41.51000000
   O     84.73000000    68.53000000    41.10000000
   O     86.13000000    68.25000000    42.66000000
   H     85.08000000    68.35000000    38.99000000
   H     87.00000000    66.13000000    38.80000000
   H     87.56000000    67.59000000    40.56000000
   H     86.84000000    66.10000000    41.24000000
   N     84.33000000    65.60000000    38.11000000
   C     83.22000000    64.70000000    37.90000000
   C     83.77000000    63.33000000    37.53000000
   O     84.93000000    63.18000000    37.16000000
   H     84.53000000    66.31000000    37.42000000
   H     82.45000000    65.02000000    37.19000000
   H     82.73000000    64.57000000    38.87000000
   N     82.95000000    62.29000000    37.43000000
   C     81.51000000    62.24000000    37.59000000
   C     80.95000000    61.26000000    36.57000000
   O     80.76000000    60.08000000    36.85000000
   C     81.15000000    61.81000000    39.01000000
   C     81.55000000    62.74000000    40.15000000
   N     82.64000000    62.47000000    40.87000000
   O     80.87000000    63.69000000    40.51000000
   H     83.42000000    61.44000000    37.14000000
   H     81.09000000    63.22000000    37.36000000
   H     81.64000000    60.84000000    39.14000000
   H     80.07000000    61.71000000    39.03000000
   H     83.19000000    61.64000000    40.69000000
   H     82.78000000    62.96000000    41.74000000
   N     80.63000000    61.60000000    35.31000000
   C     80.92000000    62.83000000    34.62000000
   C     80.10000000    64.02000000    35.10000000
   O     80.60000000    65.14000000    35.08000000
   H     80.09000000    60.93000000    34.78000000
   H     80.51000000    62.59000000    33.64000000
   H     81.99000000    63.06000000    34.53000000
   N     78.85000000    63.86000000    35.53000000
   C     78.08000000    64.87000000    36.23000000
   C     78.28000000    64.87000000    37.74000000
   O     78.51000000    63.79000000    38.29000000
   C     76.63000000    64.91000000    35.75000000
   C     76.44000000    65.29000000    34.30000000
   C     76.88000000    66.53000000    33.81000000
   C     75.69000000    64.44000000    33.48000000
   C     76.57000000    67.01000000    32.53000000
   C     75.28000000    64.90000000    32.23000000
   C     75.72000000    66.17000000    31.80000000
   O     75.43000000    66.60000000    30.54000000
   H     78.50000000    62.91000000    35.58000000
   H     78.52000000    65.82000000    35.91000000
   H     76.14000000    65.70000000    36.31000000
   H     76.10000000    63.98000000    35.95000000
   H     77.50000000    67.15000000    34.44000000
   H     75.36000000    63.45000000    33.76000000
   H     76.98000000    67.97000000    32.27000000
   H     74.65000000    64.21000000    31.69000000
   H     74.83000000    66.01000000    30.08000000
   N     78.14000000    66.03000000    38.37000000
   C     78.66000000    66.33000000    39.68000000
   C     77.70000000    66.17000000    40.85000000
   O     78.20000000    65.90000000    41.95000000
   C     79.11000000    67.79000000    39.70000000
   C     80.49000000    67.87000000    40.35000000
   C     78.88000000    68.60000000    38.43000000
   C     81.70000000    67.27000000    39.63000000
   H     77.78000000    66.84000000    37.87000000
   H     79.54000000    65.70000000    39.80000000
   H     78.41000000    68.34000000    40.32000000
   H     80.57000000    67.50000000    41.37000000
   H     80.70000000    68.94000000    40.36000000
   H     79.55000000    68.27000000    37.65000000
   H     77.81000000    68.58000000    38.21000000
   H     79.18000000    69.64000000    38.60000000
   H     81.65000000    67.41000000    38.55000000
   H     82.62000000    67.72000000    40.00000000
   H     81.80000000    66.20000000    39.83000000
   N     76.39000000    66.35000000    40.67000000
   C     75.39000000    66.16000000    41.70000000
   C     74.94000000    67.49000000    42.31000000
   O     74.49000000    68.36000000    41.57000000
   C     74.13000000    65.45000000    41.22000000
   O     74.47000000    64.22000000    40.64000000
   H     76.07000000    66.65000000    39.76000000
   H     75.83000000    65.61000000    42.54000000
   H     73.46000000    66.01000000    40.57000000
   H     73.54000000    65.27000000    42.11000000
   H     73.79000000    64.09000000    39.97000000
   N     74.94000000    67.44000000    43.64000000
   C     74.61000000    68.57000000    44.48000000
   C     75.83000000    69.24000000    45.08000000
   O     76.92000000    68.71000000    45.24000000
   C     73.76000000    68.06000000    45.64000000
   H     75.06000000    66.52000000    44.06000000
   H     74.12000000    69.31000000    43.84000000
   H     73.36000000    68.95000000    46.13000000
   H     73.03000000    67.34000000    45.29000000
   H     74.48000000    67.53000000    46.27000000
   N     75.65000000    70.46000000    45.61000000
   C     76.65000000    71.38000000    46.11000000
   C     77.85000000    71.72000000    45.22000000
   O     78.97000000    71.92000000    45.67000000
   C     76.88000000    71.11000000    47.59000000
   H     74.72000000    70.85000000    45.60000000
   H     76.17000000    72.36000000    46.18000000
   H     77.32000000    70.13000000    47.80000000
   H     77.43000000    71.91000000    48.07000000
   H     75.91000000    71.10000000    48.09000000
   N     77.61000000    71.61000000    43.92000000
   C     78.62000000    71.72000000    42.88000000
   C     78.40000000    72.80000000    41.84000000
   O     79.35000000    73.47000000    41.43000000
   C     78.82000000    70.34000000    42.27000000
   C     79.36000000    69.37000000    43.33000000
   C     80.81000000    69.70000000    43.68000000
   O     81.53000000    70.35000000    42.90000000
   O     81.33000000    69.06000000    44.62000000
   H     76.71000000    71.29000000    43.58000000
   H     79.58000000    72.01000000    43.31000000
   H     79.49000000    70.30000000    41.41000000
   H     77.83000000    70.03000000    41.95000000
   H     79.31000000    68.34000000    42.99000000
   H     78.87000000    69.46000000    44.30000000
   N     77.14000000    72.93000000    41.40000000
   C     76.57000000    73.82000000    40.41000000
   H     75.66300000    74.27400000    40.81000000
   H     77.29000000    74.60100000    40.16600000
   H     76.32700000    73.25500000    39.51000000
   H     76.42000000    72.42000000    41.90000000
  Ca     84.00000000    69.44000000    43.52000000
   O     83.14000000    67.01000000    42.98000000
   H     82.32000000    66.51000000    42.91000000
   H     83.82000000    66.34000000    43.09000000

Ca 1.70



