%chk=Ng-31_loop3_50.0.chk
%nprocshared=48
%mem=10GB
%nosave
#b3lyp/svp scf=(tight,noincore) Test 
#IOP(5/87=12) Density=Current Pop=(MK,readradii) iop(6/33=2) iop(6/42=6)

Ng-31_loop3_50.0 

   0   1
   C     57.08000000    62.95000000    36.84000000
   C     57.98000000    61.80000000    37.28000000
   O     57.50000000    60.69000000    37.49000000
   H     56.16400000    62.94000000    37.43100000
   H     57.59900000    63.89700000    36.99100000
   H     56.83200000    62.83500000    35.78500000
   N     59.26000000    62.06000000    37.56000000
   C     60.15000000    61.18000000    38.30000000
   C     59.76000000    61.19000000    39.77000000
   O     59.86000000    60.18000000    40.46000000
   C     61.63000000    61.53000000    38.14000000
   C     62.05000000    62.97000000    38.39000000
   O     63.24000000    63.21000000    38.70000000
   O     61.13000000    63.81000000    38.30000000
   H     59.63000000    62.99000000    37.47000000
   H     60.01000000    60.14000000    38.00000000
   H     61.91000000    61.39000000    37.10000000
   H     62.34000000    60.89000000    38.67000000
   N     59.50000000    62.40000000    40.29000000
   C     59.20000000    62.72000000    41.67000000
   C     60.42000000    62.39000000    42.51000000
   O     61.56000000    62.78000000    42.26000000
   C     58.62000000    64.12000000    41.87000000
   C     58.23000000    64.58000000    43.27000000
   C     57.33000000    65.81000000    43.30000000
   C     57.33000000    66.27000000    44.75000000
   N     56.24000000    67.23000000    44.98000000
   H     59.68000000    63.19000000    39.69000000
   H     58.39000000    62.08000000    42.01000000
   H     57.71000000    64.12000000    41.26000000
   H     59.33000000    64.91000000    41.64000000
   H     59.19000000    64.77000000    43.75000000
   H     57.83000000    63.73000000    43.83000000
   H     56.36000000    65.45000000    42.97000000
   H     57.69000000    66.51000000    42.55000000
   H     58.31000000    66.63000000    45.06000000
   H     57.05000000    65.43000000    45.40000000
   H     55.40000000    66.66000000    44.96000000
   H     56.30000000    67.76000000    45.84000000
   H     56.10000000    67.92000000    44.26000000
   N     60.17000000    61.56000000    43.53000000
   C     61.20000000    61.10000000    44.45000000
   C     61.82000000    59.79000000    43.99000000
   O     62.68000000    59.33000000    44.74000000
   C     60.55000000    60.98000000    45.82000000
   C     59.34000000    60.05000000    45.83000000
   O     58.26000000    60.49000000    45.39000000
   O     59.49000000    58.88000000    46.25000000
   H     59.21000000    61.42000000    43.81000000
   H     62.02000000    61.81000000    44.50000000
   H     60.03000000    61.92000000    46.02000000
   H     61.27000000    60.80000000    46.62000000
   N     61.55000000    59.23000000    42.80000000
   C     62.35000000    58.17000000    42.23000000
   C     63.80000000    58.51000000    41.89000000
   O     64.16000000    59.66000000    41.69000000
   H     60.81000000    59.61000000    42.23000000
   H     61.85000000    57.82000000    41.32000000
   H     62.33000000    57.26000000    42.83000000
   N     64.67000000    57.52000000    41.69000000
   C     64.43000000    56.09000000    41.62000000
   C     65.36000000    55.45000000    40.61000000
   O     66.33000000    54.79000000    40.99000000
   C     64.70000000    55.55000000    43.02000000
   C     64.21000000    54.12000000    43.14000000
   N     64.39000000    53.50000000    44.31000000
   O     63.73000000    53.49000000    42.21000000
   H     65.65000000    57.73000000    41.60000000
   H     63.38000000    55.88000000    41.41000000
   H     64.17000000    56.14000000    43.78000000
   H     65.75000000    55.58000000    43.29000000
   H     64.88000000    54.05000000    45.00000000
   H     63.85000000    52.68000000    44.57000000
   N     65.15000000    55.63000000    39.30000000
   C     64.15000000    56.44000000    38.64000000
   C     62.76000000    55.84000000    38.60000000
   O     61.90000000    56.46000000    37.97000000
   H     65.74000000    55.05000000    38.72000000
   H     64.49000000    56.64000000    37.62000000
   H     64.22000000    57.40000000    39.15000000
   N     62.52000000    54.69000000    39.23000000
   C     61.24000000    54.01000000    39.25000000
   C     60.36000000    54.45000000    40.40000000
   O     60.87000000    55.12000000    41.30000000
   C     61.49000000    52.51000000    39.41000000
   C     62.00000000    51.84000000    38.16000000
   C     61.08000000    51.00000000    37.52000000
   C     63.35000000    51.81000000    37.78000000
   C     61.46000000    50.33000000    36.35000000
   C     63.74000000    51.08000000    36.65000000
   C     62.78000000    50.41000000    35.86000000
   O     63.04000000    49.80000000    34.67000000
   H     63.41000000    54.29000000    39.52000000
   H     60.81000000    54.15000000    38.26000000
   H     60.55000000    52.10000000    39.79000000
   H     62.30000000    52.40000000    40.13000000
   H     60.08000000    50.86000000    37.89000000
   H     64.09000000    52.39000000    38.30000000
   H     60.68000000    49.82000000    35.80000000
   H     64.80000000    51.15000000    36.43000000
   H     63.97000000    49.83000000    34.43000000
   N     59.06000000    54.14000000    40.32000000
   C     58.03000000    54.73000000    41.14000000
   C     57.81000000    53.93000000    42.41000000
   O     58.15000000    52.75000000    42.47000000
   C     56.73000000    55.16000000    40.45000000
   C     56.77000000    56.49000000    39.71000000
   C     56.05000000    54.09000000    39.60000000
   C     57.84000000    56.63000000    38.62000000
   H     58.74000000    53.70000000    39.47000000
   H     58.42000000    55.71000000    41.43000000
   H     56.07000000    55.27000000    41.31000000
   H     56.88000000    57.26000000    40.47000000
   H     55.82000000    56.60000000    39.20000000
   H     56.56000000    53.95000000    38.65000000
   H     55.83000000    53.20000000    40.19000000
   H     55.09000000    54.48000000    39.27000000
   H     57.70000000    57.55000000    38.06000000
   H     58.84000000    56.62000000    39.06000000
   H     57.60000000    55.76000000    38.01000000
   N     57.26000000    54.59000000    43.43000000
   C     56.79000000    53.93000000    44.63000000
   C     55.68000000    52.90000000    44.44000000
   O     55.40000000    52.31000000    43.39000000
   C     57.94000000    53.46000000    45.51000000
   O     58.88000000    54.40000000    45.99000000
   H     56.96000000    55.55000000    43.28000000
   H     56.33000000    54.75000000    45.18000000
   H     58.48000000    52.68000000    44.97000000
   H     57.53000000    53.15000000    46.47000000
   H     59.43000000    54.78000000    45.31000000
   N     55.12000000    52.57000000    45.60000000
   C     54.18000000    51.50000000    45.84000000
   C     52.87000000    52.15000000    46.25000000
   O     52.76000000    53.25000000    46.79000000
   C     54.81000000    50.50000000    46.81000000
   H     55.27000000    53.16000000    46.41000000
   H     54.04000000    50.90000000    44.94000000
   H     54.13000000    49.74000000    47.21000000
   H     55.47000000    49.93000000    46.16000000
   H     55.36000000    50.96000000    47.63000000
   N     51.78000000    51.58000000    45.75000000
   C     50.47000000    52.14000000    45.50000000
   C     50.44000000    53.43000000    44.70000000
   O     49.56000000    54.28000000    44.88000000
   C     49.60000000    52.03000000    46.75000000
   H     51.95000000    50.70000000    45.27000000
   H     50.07000000    51.45000000    44.75000000
   H     50.12000000    52.58000000    47.54000000
   H     48.61000000    52.44000000    46.60000000
   H     49.50000000    50.99000000    47.07000000
   N     51.38000000    53.55000000    43.76000000
   C     51.57000000    54.75000000    42.97000000
   C     51.18000000    54.57000000    41.51000000
   O     50.92000000    55.50000000    40.74000000
   C     53.02000000    55.19000000    43.12000000
   C     53.38000000    56.51000000    42.43000000
   C     54.50000000    57.29000000    43.11000000
   O     55.60000000    56.74000000    43.29000000
   O     54.35000000    58.51000000    43.37000000
   H     52.07000000    52.82000000    43.80000000
   H     50.90000000    55.51000000    43.36000000
   H     53.66000000    54.37000000    42.79000000
   H     53.20000000    55.23000000    44.20000000
   H     52.48000000    57.09000000    42.60000000
   H     53.56000000    56.37000000    41.37000000
   N     51.09000000    53.31000000    41.09000000
   C     50.52000000    52.93000000    39.81000000
   H     49.62700000    53.52500000    39.62000000
   H     51.24900000    53.10800000    39.02000000
   H     50.25500000    51.87300000    39.82900000
   H     51.47000000    52.54000000    41.62000000
  Ca     56.40000000    58.76000000    44.79000000
   O     56.34000000    59.75000000    47.19000000
   H     56.35000000    60.53000000    47.75000000
   H     56.27000000    59.02000000    47.79000000

Ca 1.70



