%chk=Ng-31_loop3_51.0.chk
%nprocshared=48
%mem=10GB
%nosave
#b3lyp/svp scf=(tight,noincore) Test 
#IOP(5/87=12) Density=Current Pop=(MK,readradii) iop(6/33=2) iop(6/42=6)

Ng-31_loop3_51.0 

   0   1
   C     51.04000000    55.42000000    45.62000000
   C     51.45000000    53.96000000    45.72000000
   O     50.72000000    53.05000000    45.32000000
   H     50.09200000    55.56700000    46.13700000
   H     51.80500000    56.04500000    46.08100000
   H     50.92800000    55.69600000    44.57100000
   N     52.61000000    53.73000000    46.34000000
   C     52.67000000    52.82000000    47.47000000
   C     52.94000000    53.66000000    48.71000000
   O     52.14000000    53.49000000    49.63000000
   C     53.59000000    51.63000000    47.25000000
   C     55.06000000    51.82000000    46.88000000
   O     55.76000000    50.86000000    46.51000000
   O     55.61000000    52.92000000    47.13000000
   H     53.23000000    54.53000000    46.32000000
   H     51.68000000    52.40000000    47.59000000
   H     53.14000000    50.97000000    46.51000000
   H     53.60000000    51.18000000    48.24000000
   N     53.95000000    54.53000000    48.73000000
   C     54.08000000    55.46000000    49.84000000
   C     54.78000000    54.81000000    51.03000000
   O     55.88000000    55.17000000    51.45000000
   C     54.80000000    56.75000000    49.45000000
   C     54.51000000    57.95000000    50.35000000
   C     53.09000000    58.52000000    50.38000000
   C     52.31000000    58.53000000    49.06000000
   N     52.79000000    59.63000000    48.21000000
   H     54.70000000    54.47000000    48.05000000
   H     53.08000000    55.78000000    50.10000000
   H     54.46000000    57.05000000    48.46000000
   H     55.87000000    56.62000000    49.33000000
   H     55.19000000    58.72000000    50.00000000
   H     54.78000000    57.67000000    51.37000000
   H     53.14000000    59.48000000    50.89000000
   H     52.55000000    57.90000000    51.09000000
   H     51.27000000    58.71000000    49.33000000
   H     52.35000000    57.57000000    48.55000000
   H     52.08000000    59.81000000    47.52000000
   H     52.84000000    60.42000000    48.84000000
   H     53.65000000    59.42000000    47.72000000
   N     54.09000000    53.82000000    51.60000000
   C     54.68000000    52.74000000    52.37000000
   C     54.83000000    51.46000000    51.58000000
   O     53.96000000    50.59000000    51.50000000
   C     53.96000000    52.38000000    53.67000000
   C     52.46000000    52.16000000    53.53000000
   O     51.82000000    53.08000000    52.97000000
   O     51.87000000    51.16000000    53.99000000
   H     53.12000000    53.68000000    51.34000000
   H     55.63000000    53.09000000    52.78000000
   H     54.09000000    53.20000000    54.38000000
   H     54.40000000    51.48000000    54.09000000
   N     55.97000000    51.49000000    50.88000000
   C     56.60000000    50.39000000    50.19000000
   C     57.37000000    49.56000000    51.20000000
   O     58.51000000    49.97000000    51.43000000
   H     56.51000000    52.33000000    51.01000000
   H     57.31000000    50.78000000    49.46000000
   H     55.83000000    49.80000000    49.69000000
   N     56.94000000    48.42000000    51.74000000
   C     55.64000000    47.81000000    51.55000000
   C     55.80000000    46.44000000    50.92000000
   O     56.42000000    45.67000000    51.66000000
   C     54.97000000    47.77000000    52.92000000
   C     53.49000000    47.41000000    52.82000000
   N     52.50000000    48.31000000    52.85000000
   O     53.08000000    46.27000000    52.62000000
   H     57.46000000    48.06000000    52.53000000
   H     54.96000000    48.45000000    50.97000000
   H     55.06000000    48.76000000    53.37000000
   H     55.49000000    47.09000000    53.59000000
   H     52.64000000    49.27000000    53.12000000
   H     51.59000000    47.89000000    53.01000000
   N     55.14000000    46.07000000    49.82000000
   C     54.33000000    46.83000000    48.89000000
   C     52.86000000    46.43000000    48.85000000
   O     52.23000000    46.59000000    47.81000000
   H     55.16000000    45.10000000    49.53000000
   H     54.78000000    46.78000000    47.90000000
   H     54.42000000    47.88000000    49.18000000
   N     52.32000000    45.82000000    49.91000000
   C     50.92000000    45.44000000    50.00000000
   C     50.15000000    46.60000000    50.61000000
   O     50.09000000    46.82000000    51.82000000
   C     50.70000000    44.08000000    50.65000000
   C     51.01000000    42.93000000    49.72000000
   C     50.14000000    41.83000000    49.87000000
   C     52.10000000    42.88000000    48.85000000
   C     50.48000000    40.63000000    49.25000000
   C     52.46000000    41.68000000    48.24000000
   C     51.64000000    40.56000000    48.45000000
   O     51.96000000    39.31000000    47.98000000
   H     52.88000000    45.83000000    50.75000000
   H     50.60000000    45.26000000    48.97000000
   H     49.69000000    43.98000000    51.04000000
   H     51.42000000    43.88000000    51.45000000
   H     49.21000000    41.95000000    50.40000000
   H     52.72000000    43.75000000    48.66000000
   H     49.92000000    39.71000000    49.35000000
   H     53.37000000    41.63000000    47.65000000
   H     52.66000000    39.26000000    47.33000000
   N     49.44000000    47.32000000    49.73000000
   C     48.48000000    48.36000000    50.03000000
   C     47.35000000    47.78000000    50.86000000
   O     47.11000000    46.57000000    50.92000000
   C     47.91000000    48.99000000    48.76000000
   C     48.94000000    49.88000000    48.06000000
   C     47.40000000    47.93000000    47.79000000
   C     50.34000000    49.48000000    47.61000000
   H     49.72000000    47.20000000    48.77000000
   H     48.98000000    49.12000000    50.63000000
   H     47.07000000    49.64000000    49.00000000
   H     49.04000000    50.76000000    48.69000000
   H     48.40000000    50.42000000    47.28000000
   H     47.02000000    48.34000000    46.85000000
   H     48.17000000    47.21000000    47.51000000
   H     46.57000000    47.39000000    48.24000000
   H     50.88000000    50.28000000    47.11000000
   H     50.92000000    49.02000000    48.41000000
   H     50.25000000    48.74000000    46.82000000
   N     46.70000000    48.68000000    51.59000000
   C     45.47000000    48.34000000    52.27000000
   C     44.32000000    48.04000000    51.32000000
   O     44.27000000    48.57000000    50.21000000
   C     45.68000000    47.35000000    53.41000000
   O     44.69000000    47.43000000    54.41000000
   H     47.11000000    49.58000000    51.81000000
   H     45.13000000    49.23000000    52.82000000
   H     46.63000000    47.59000000    53.88000000
   H     45.70000000    46.31000000    53.09000000
   H     45.03000000    47.09000000    55.24000000
   N     43.35000000    47.27000000    51.81000000
   C     41.99000000    47.50000000    51.38000000
   C     41.53000000    48.83000000    51.97000000
   O     42.10000000    49.41000000    52.89000000
   C     41.14000000    46.34000000    51.90000000
   H     43.53000000    46.98000000    52.76000000
   H     41.95000000    47.62000000    50.30000000
   H     41.25000000    45.41000000    51.34000000
   H     41.55000000    46.14000000    52.89000000
   H     40.09000000    46.63000000    52.00000000
   N     40.49000000    49.33000000    51.30000000
   C     40.14000000    50.73000000    51.27000000
   C     41.23000000    51.64000000    50.74000000
   O     40.95000000    52.75000000    50.31000000
   C     39.57000000    51.22000000    52.60000000
   H     40.02000000    48.74000000    50.63000000
   H     39.31000000    50.73000000    50.57000000
   H     40.38000000    51.35000000    53.32000000
   H     39.24000000    52.25000000    52.42000000
   H     38.82000000    50.53000000    52.99000000
   N     42.49000000    51.23000000    50.59000000
   C     43.39000000    52.02000000    49.77000000
   C     43.23000000    51.84000000    48.27000000
   O     42.91000000    52.81000000    47.57000000
   C     44.82000000    51.87000000    50.29000000
   C     45.12000000    52.06000000    51.77000000
   C     46.59000000    51.81000000    52.11000000
   O     47.54000000    51.52000000    51.35000000
   O     46.84000000    51.79000000    53.33000000
   H     42.86000000    50.43000000    51.09000000
   H     43.14000000    53.06000000    49.97000000
   H     45.32000000    52.69000000    49.78000000
   H     45.26000000    50.94000000    49.94000000
   H     44.38000000    51.44000000    52.27000000
   H     44.88000000    53.09000000    52.05000000
   N     43.41000000    50.64000000    47.72000000
   C     43.13000000    50.40000000    46.32000000
   H     42.33900000    51.07300000    45.98800000
   H     44.03000000    50.58000000    45.73300000
   H     42.80800000    49.36700000    46.18500000
   H     43.71000000    49.89000000    48.32000000
  Ca     49.51000000    51.81000000    53.14000000
   O     49.35000000    49.13000000    53.11000000
   H     49.67000000    48.42000000    52.55000000
   H     49.68000000    48.91000000    53.98000000

Ca 1.70



