%chk=loop2.cluster103.chk
%nprocshared=48
%mem=10GB
%nosave
#b3lyp/svp scf=(tight,noincore) Test 
#IOP(5/87=12) Density=Current Pop=(MK,readradii) iop(6/33=2) iop(6/42=6)

loop2.cluster103 

   -2  1 
C         63.99682       57.94309       16.16511
C         63.01618       58.52463       17.14020
O         63.36417       59.43568       17.87583
H         64.89910       57.59432       16.70762
H         63.55784       57.07179       15.63176
H         64.28116       58.70735       15.41350
N         61.74526       58.04847       17.17788
C         60.73395       58.52977       18.10577
C         61.04753       58.06799       19.52486
O         61.35797       56.90219       19.72071
C         59.36445       58.01916       17.63397
C         58.25174       58.44885       18.52443
O         57.24795       57.77725       18.60187
O         58.31049       59.61681       19.16760
H         61.47753       57.32175       16.49622
H         60.68130       59.63575       18.05835
H         59.36534       56.91261       17.55894
H         59.15849       58.43724       16.62247
N         60.92420       58.93561       20.57138
C         61.26131       58.60027       21.95182
C         60.03084       58.46806       22.84111
O         60.18504       58.22020       24.03078
C         62.15297       59.72007       22.49702
H         60.55940       59.87496       20.38751
H         61.81634       57.63837       21.99090
H         63.00899       59.89757       21.81352
H         61.56646       60.66443       22.57301
H         62.54053       59.46287       23.50469
N         58.77564       58.59749       22.32634
C         57.55738       58.52337       23.11509
C         56.78630       57.24284       22.79394
O         55.76958       56.98761       23.42453
C         56.71591       59.78504       22.80328
C         57.52551       61.04514       23.03378
O         57.84058       61.90770       22.03778
O         57.93533       61.28551       24.15594
H         58.66178       58.74854       21.32260
H         57.79857       58.49527       24.20328
H         55.81191       59.80989       23.45267
H         56.37946       59.74156       21.74623
N         57.24315       56.36790       21.84285
C         56.61730       55.09175       21.55204
C         55.26101       55.16051       20.88483
O         54.72869       54.09960       20.58756
H         58.11166       56.57070       21.33326
H         56.54256       54.49664       22.48752
H         57.28454       54.53728       20.85502
N         54.63854       56.34229       20.58353
C         53.31017       56.36862       19.97025
C         53.38356       56.45399       18.43363
O         52.35217       56.45805       17.77662
C         52.46182       57.50184       20.61676
C         52.56669       58.85914       19.95712
N         51.79897       59.88554       20.38406
O         53.30169       59.02505       19.00248
H         55.10700       57.23825       20.77971
H         52.79105       55.42369       20.24357
H         52.71917       57.58875       21.69853
H         51.39358       57.21580       20.54904
H         51.15734       59.76506       21.17968
H         51.83220       60.79396       19.89624
N         54.59499       56.55692       17.81440
C         54.81189       56.72272       16.38813
C         54.47907       58.10028       15.84272
O         53.77865       58.17523       14.84344
H         55.43328       56.46805       18.38612
H         54.29896       55.91763       15.81983
H         55.90328       56.60606       16.20628
N         55.02238       59.23537       16.39062
C         54.94625       60.53683       15.70849
C         56.27050       61.27516       15.81896
O         57.06426       60.97630       16.70126
C         53.76013       61.39716       16.20971
C         53.38624       62.53360       15.24924
O         52.62495       60.58701       16.34115
H         55.59693       59.14599       17.23925
H         54.79459       60.33006       14.62646
H         54.02555       61.85196       17.19198
H         52.49131       60.44234       17.31030
H         54.19067       63.27878       15.11927
H         53.10855       62.10525       14.26009
H         52.51018       63.08543       15.64627
N         56.58008       62.25228       14.92700
C         57.88173       62.88761       14.88042
C         57.83779       64.29978       15.43423
O         57.05795       65.12723       14.98144
C         58.42442       62.80176       13.42923
C         58.61933       61.32481       12.98297
C         59.72215       63.60588       13.24763
C         59.59528       60.51127       13.84725
H         55.91070       62.48378       14.18048
H         58.60390       62.34427       15.51840
H         57.68047       63.26122       12.73882
H         58.99081       61.32558       11.93640
H         57.64142       60.79477       12.98353
H         59.51768       64.68594       13.40015
H         60.50463       63.28803       13.96561
H         60.10187       63.49316       12.21042
H         59.18917       60.34249       14.86573
H         59.74998       59.51304       13.38992
H         60.58101       61.01171       13.92635
N         58.76562       64.64800       16.37206
C         59.01841       65.99386       16.84706
C         60.27398       66.49543       16.16570
O         60.81697       65.79812       15.32536
C         59.22161       65.97581       18.38118
C         57.95599       65.68676       19.12126
O         57.89048       64.64262       19.96289
O         56.99762       66.43417       19.00806
H         59.45050       63.93871       16.65179
H         58.19909       66.69358       16.57133
H         59.56557       66.96317       18.74459
H         60.00334       65.22699       18.64800
N         60.75768       67.73223       16.42418
C         61.91656       68.30781       15.74921
C         63.26153       67.64095       16.10966
O         63.94948       67.23988       15.18717
C         61.88073       69.82382       15.97047
C         62.93924       70.64469       15.28077
C         63.34780       70.39498       13.95345
C         63.48143       71.73818       15.97006
C         64.29896       71.22386       13.34765
C         64.41199       72.57190       15.35413
C         64.82537       72.31407       14.04622
H         60.22188       68.32593       17.08017
H         61.76368       68.17255       14.65428
H         61.86725       70.05157       17.05618
H         60.90374       70.16666       15.56323
H         62.94342       69.56713       13.38658
H         63.15759       71.96001       16.97931
H         64.62119       71.02826       12.33267
H         64.80492       73.42326       15.89235
H         65.54843       72.96426       13.57312
N         63.70578       67.46519       17.40158
C         64.96760       66.78558       17.71368
C         64.97858       65.34950       17.21096
O         65.97697       64.92549       16.63984
C         65.08189       66.94534       19.23926
C         63.64864       67.11036       19.71015
C         62.99161       67.89896       18.57912
H         65.84801       67.29763       17.26758
H         65.67404       66.16479       19.76707
H         65.56876       67.92798       19.42574
H         63.19487       66.09802       19.73690
H         63.53016       67.57307       20.71515
H         61.91802       67.63569       18.58800
H         63.13868       68.99426       18.68983
N         63.86690       64.57880       17.29054
C         63.75355       63.25013       16.68392
C         63.97059       63.34107       15.17439
O         64.69736       62.53648       14.61165
C         62.34412       62.69227       16.96670
C         62.09857       62.52188       18.48281
C         60.67537       62.21314       18.82782
O         59.84230       62.01051       17.95999
O         60.30655       62.20154       20.12047
H         63.03354       64.99562       17.73126
H         64.49285       62.54348       17.12407
H         62.19418       61.71387       16.45825
H         61.61335       63.41426       16.55056
H         62.32865       63.45775       19.02372
H         62.76001       61.73134       18.89506
N         63.39167       64.35182       14.47479
C         63.53525       64.53464       13.04798
H         64.60721       64.59769       12.77136
H         63.03780       63.70710       12.50219
H         63.04434       65.49010       12.75201
H         62.86365       65.04749       14.99158
Ca        57.50166       61.97269       19.80551
O         55.60237       63.52344       18.30140
H         55.84098       64.43070       17.99762
H         54.80832       63.65381       18.87784
O         55.09791       61.02224       19.36790
H         54.55340       61.34171       20.12937
H         55.32578       60.08412       19.57969

Ca 1.70



