%chk=loop2.cluster134.chk
%nprocshared=48
%mem=10GB
%nosave
#b3lyp/svp scf=(tight,noincore) Test 
#IOP(5/87=12) Density=Current Pop=(MK,readradii) iop(6/33=2) iop(6/42=6)

loop2.cluster134 

   -2  1 
C         49.17482       44.97489        8.47116
C         48.33990       46.10041        7.91108
O         48.26774       47.11614        8.58557
H         50.18664       45.36273        8.71715
H         48.70311       44.64143        9.42063
H         49.30838       44.08771        7.83577
N         47.63355       46.04526        6.73492
C         47.55063       44.92026        5.80913
C         46.18212       44.28228        5.84577
O         45.26403       44.88571        6.37332
C         47.94009       45.37136        4.38254
C         47.44281       46.70849        3.82445
O         48.16534       47.28239        3.02604
O         46.24539       47.28431        4.09838
H         47.06414       46.86342        6.49551
H         48.23511       44.10609        6.09676
H         47.78933       44.56545        3.63277
H         49.04243       45.50812        4.44294
N         46.02321       42.98557        5.41419
C         44.77783       42.21313        5.47896
C         43.85581       42.51514        4.30566
O         43.49074       41.59710        3.58367
C         44.08761       42.31902        6.84955
H         46.86503       42.47749        5.10145
H         45.05129       41.13729        5.37841
H         43.23885       41.60678        6.90919
H         44.81714       42.06135        7.64817
H         43.67535       43.32660        7.04921
N         43.45412       43.78746        4.05189
C         42.58682       44.17764        2.95249
C         43.27859       45.16810        2.01551
O         44.17383       45.88543        2.43146
C         41.26121       44.75781        3.50113
C         41.23377       45.27700        4.94208
O         42.07960       46.21145        5.44811
O         40.39543       44.80955        5.69631
H         43.77866       44.52763        4.66561
H         42.32836       43.30162        2.31142
H         40.53365       43.91309        3.49817
H         40.83559       45.49569        2.78835
N         42.91491       45.22115        0.69731
C         43.55906       46.08875       -0.28839
C         43.29228       47.57767       -0.13164
O         43.75048       48.34295       -0.96954
H         42.18973       44.57045        0.35808
H         43.16939       45.80782       -1.29188
H         44.65372       45.90686       -0.28595
N         42.52196       48.06275        0.87764
C         42.16643       49.47526        1.00154
C         43.29731       50.37997        1.50225
O         43.07174       51.58005        1.58216
C         40.89860       49.58414        1.88074
C         41.04753       49.00303        3.26732
N         39.94859       48.76462        4.01710
O         42.15010       48.70199        3.69842
H         42.08934       47.39264        1.52455
H         41.85850       49.85024       -0.00127
H         40.11886       48.98535        1.36026
H         40.52556       50.62975        1.94448
H         39.00960       48.97134        3.64661
H         40.03739       48.33455        4.94932
N         44.53473       49.89825        1.84932
C         45.58962       50.78861        2.33644
C         45.42130       51.04585        3.81711
O         44.59922       50.38466        4.43246
H         44.73079       48.88972        1.80157
H         45.50493       51.75754        1.80389
H         46.59516       50.37790        2.10426
N         46.08869       52.03625        4.48107
C         47.14296       52.89402        3.92489
C         48.40537       52.87719        4.80569
O         49.48213       53.17440        4.31019
C         46.65144       54.36030        3.81017
C         45.41043       54.49708        2.92623
O         46.35097       54.87527        5.08461
H         45.76803       52.21364        5.44069
H         47.42646       52.55054        2.90596
H         47.45172       54.97202        3.32471
H         47.11929       55.43911        5.36554
H         45.62370       54.14206        1.89687
H         44.56185       53.91769        3.34822
H         45.10809       55.56487        2.86996
N         48.31120       52.61895        6.14886
C         49.40650       52.64095        7.10647
C         49.94950       54.05277        7.25365
O         50.98592       54.35950        6.67881
C         50.45624       51.51617        6.90793
C         49.72257       50.19175        6.56734
C         51.28195       51.40390        8.21210
C         50.63043       48.97081        6.47374
H         47.40186       52.40971        6.55860
H         48.94371       52.36317        8.07146
H         51.13698       51.74552        6.05884
H         49.24083       50.31615        5.57216
H         48.92995       49.98232        7.31376
H         51.84228       52.34397        8.39595
H         50.61509       51.22357        9.08614
H         52.02053       50.58163        8.16945
H         50.99192       48.68365        7.48244
H         50.05128       48.11472        6.06682
H         51.49148       49.17650        5.80483
N         49.26491       55.01101        7.94951
C         48.08264       54.71323        8.75935
C         48.45677       53.92996       10.01756
O         47.74429       52.99482       10.36356
C         47.23734       55.96419        9.08710
C         47.87499       57.05291        9.90808
O         49.05063       57.00932       10.22384
O         47.12807       58.10393       10.29205
H         49.61692       55.97888        7.92715
H         47.36675       54.11347        8.15483
H         46.33337       55.61308        9.63302
H         46.89036       56.41858        8.13226
N         49.60134       54.21389       10.71750
C         50.01728       53.45299       11.89549
C         49.01620       53.60866       13.03546
O         48.31398       54.61824       13.04638
C         51.48434       53.79759       12.28436
C         51.81691       55.20168       12.76799
C         52.41705       56.13765       11.89950
C         51.64841       55.54360       14.12247
C         52.83014       57.38828       12.37840
C         52.07776       56.79095       14.59772
C         52.66747       57.71095       13.72709
H         50.22585       54.95101       10.36291
H         50.03878       52.38966       11.58145
H         52.09839       53.59457       11.37979
H         51.86688       53.09206       13.04633
H         52.57721       55.89614       10.85656
H         51.22171       54.83145       14.81616
H         53.29507       58.10155       11.70802
H         51.97055       57.03868       15.64637
H         53.00896       58.66999       14.10001
N         48.83031       52.66542       14.01760
C         49.57021       51.41069       14.16015
C         49.12745       50.34437       13.16579
O         48.37203       50.63144       12.25301
C         49.24796       51.01901       15.61331
C         47.82863       51.51030       15.79588
C         47.85817       52.85526       15.07535
H         50.66730       51.53926       14.09338
H         49.41063       49.95511       15.88833
H         49.88759       51.64002       16.27959
H         47.16976       50.81431       15.23013
H         47.47687       51.56102       16.84904
H         46.83692       53.08256       14.69396
H         48.21561       53.67592       15.73441
N         49.60208       49.06773       13.30378
C         49.29870       47.98417       12.37145
C         50.08112       46.71580       12.73566
O         49.46903       45.70545       13.05371
C         47.77877       47.69579       12.19543
C         46.93440       47.47628       13.46405
C         45.55714       46.97337       13.09339
O         44.97811       47.41103       12.10987
O         44.97920       45.99882       13.82167
H         50.23234       48.86487       14.09207
H         49.64318       48.26914       11.35566
H         47.69610       46.80278       11.53758
H         47.30809       48.53305       11.63867
H         46.83771       48.44483       14.00008
H         47.39230       46.74434       14.16079
N         51.44102       46.64478       12.62483
C         52.28385       47.76201       12.24730
H         53.29920       47.38660       11.99517
H         51.89538       48.28656       11.35130
H         52.38519       48.46614       13.09852
H         51.89754       45.73160       12.77671
Ca        44.18260       46.93433        4.96521
O         42.52776       49.81346        6.44051
H         41.86058       50.11292        5.77482
H         42.32271       50.35448        7.24240
O         46.01840       48.97346        7.13757
H         45.86705       49.94813        7.10106
H         46.94580       48.89225        7.46720
O         43.56607       47.28864        8.22727
H         43.93135       46.51409        8.72421
H         43.76922       48.07007        8.80064

Ca 1.70



