%chk=loop2.cluster148.chk
%nprocshared=48
%mem=10GB
%nosave
#b3lyp/svp scf=(tight,noincore) Test 
#IOP(5/87=12) Density=Current Pop=(MK,readradii) iop(6/33=2) iop(6/42=6)

loop2.cluster148 

   -2  1 
C         86.09863       51.49103       60.46882
C         85.81353       52.08242       59.11620
O         84.94520       51.58060       58.41683
H         86.95192       52.00471       60.96131
H         85.21035       51.56060       61.12937
H         86.37573       50.42287       60.33980
N         86.53717       53.14961       58.67168
C         86.43401       53.68040       57.31504
C         85.02022       54.11038       56.97472
O         84.45961       54.95633       57.65661
C         87.38878       54.88009       57.15065
C         87.50425       55.39265       55.73830
O         88.06791       56.59431       55.51605
O         87.14921       54.70932       54.78996
H         87.23589       53.56303       59.30781
H         86.75667       52.87436       56.61992
H         88.41210       54.60438       57.48078
H         87.02580       55.70015       57.80819
N         84.38342       53.53042       55.92197
C         83.01128       53.82581       55.54859
C         82.15625       52.66954       56.02532
O         82.63758       51.54423       56.00997
C         82.92702       53.97794       54.02389
H         84.87048       52.78355       55.40278
H         82.67154       54.77585       56.01236
H         81.89096       54.21785       53.70390
H         83.59759       54.79557       53.68325
H         83.23881       53.03641       53.52075
N         80.89269       52.82802       56.50687
C         80.14050       54.08107       56.47414
C         80.43206       54.94517       57.67953
O         80.97938       54.45784       58.66036
C         78.63309       53.78562       56.27216
C         78.03176       52.82759       57.27207
O         76.99089       52.24893       57.00187
O         78.66150       52.55280       58.43014
H         80.41791       51.97841       56.83051
H         80.45012       54.66043       55.57994
H         78.54724       53.30503       55.27376
H         78.02370       54.71418       56.25002
N         80.12807       56.27614       57.65109
C         80.45739       57.15564       58.76100
C         81.96188       57.31801       58.88571
O         82.65658       57.03788       57.92040
H         79.67654       56.67695       56.81422
H         79.98618       56.73730       59.67047
H         80.03920       58.16872       58.57159
N         82.57161       57.82646       59.99474
C         81.91957       58.18417       61.24807
C         82.58011       57.45441       62.42525
O         82.25434       57.76354       63.56378
C         82.03132       59.70854       61.41977
C         81.27780       60.43844       60.33066
N         81.93221       61.23309       59.45231
O         80.06470       60.31209       60.24492
H         83.59251       57.97594       59.94633
H         80.84015       57.92776       61.26910
H         83.10618       59.98812       61.40567
H         81.60094       60.02393       62.39455
H         82.95501       61.34245       59.50358
H         81.41295       61.73312       58.71508
N         83.49300       56.44584       62.22670
C         84.11432       55.71599       63.32284
C         83.13053       54.92311       64.14321
O         83.54374       54.34830       65.14380
H         83.75912       56.16551       61.27557
H         84.64407       56.43376       63.98596
H         84.86496       55.00088       62.91995
N         81.81562       54.81994       63.78506
C         80.83489       54.18102       64.63610
C         80.52913       52.80808       64.11817
O         80.84241       52.50250       62.97261
C         79.57718       55.08487       64.74202
C         78.59488       54.62016       65.81757
O         79.93430       56.42258       64.99312
H         81.48723       55.20577       62.88891
H         81.27244       54.04886       65.65193
H         79.06100       55.07299       63.75503
H         80.65507       56.43438       65.67353
H         79.11429       54.56018       66.79845
H         77.75925       55.34474       65.89947
H         78.15915       53.63347       65.56486
N         80.02658       51.87942       64.96630
C         79.82867       50.49357       64.59965
C         78.39569       50.07306       64.81489
O         77.60670       50.81223       65.39649
C         80.85477       49.58807       65.35801
C         82.26893       49.66198       64.72893
C         80.95566       49.94128       66.85791
C         82.32653       49.02834       63.33539
H         79.83270       52.15838       65.94109
H         79.96937       50.35575       63.51504
H         80.53542       48.52581       65.28970
H         82.96264       49.06848       65.36293
H         82.64501       50.70816       64.69066
H         79.96501       49.86633       67.35054
H         81.65819       49.25101       67.37059
H         81.36175       50.96644       67.00673
H         81.91683       48.00088       63.38702
H         81.75927       49.60364       62.57869
H         83.37930       48.96712       62.99186
N         77.98302       48.87971       64.31611
C         76.61814       48.38916       64.42294
C         76.52746       46.93160       64.02151
O         77.21958       46.49245       63.11128
C         75.58988       49.21439       63.62028
C         75.94475       49.36479       62.17136
O         76.99312       50.12061       61.80815
O         75.24747       48.85220       61.31120
H         78.68702       48.29211       63.83964
H         76.32349       48.43676       65.49538
H         75.46469       50.22928       64.04924
H         74.60524       48.70024       63.70326
N         75.69703       46.11223       64.71621
C         75.57995       44.67962       64.49015
C         76.93583       43.98232       64.60606
O         77.61019       44.17376       65.61098
C         74.66007       44.08405       65.58435
C         74.58307       42.57787       65.50928
C         75.31193       41.79057       66.42007
C         73.81642       41.95159       64.51641
C         75.28391       40.39758       66.32502
C         73.78267       40.55612       64.43228
C         74.51916       39.78034       65.33260
H         75.12373       46.53606       65.46466
H         75.11978       44.50546       63.49622
H         73.63930       44.52224       65.54455
H         75.09795       44.37255       66.56643
H         75.92093       42.25700       67.18545
H         73.25257       42.54543       63.80816
H         75.86014       39.79715       67.01743
H         73.19094       40.07624       63.66459
H         74.49929       38.70103       65.25994
N         77.35658       43.07130       63.67007
C         78.51194       42.21873       63.86383
C         79.77821       42.86886       63.34335
O         80.82670       42.23996       63.37046
C         78.11793       40.99258       63.03792
C         77.44222       41.62838       61.82806
C         76.61633       42.74246       62.46779
H         78.65823       41.92032       64.92603
H         78.94308       40.28580       62.80817
H         77.33255       40.44370       63.60778
H         78.24330       42.08533       61.20693
H         76.84534       40.93748       61.19511
H         76.51296       43.60763       61.77512
H         75.62534       42.35347       62.75026
N         79.75182       44.13992       62.85531
C         80.93491       44.81630       62.35960
C         81.92892       45.12921       63.46831
O         83.01159       45.60900       63.15892
C         80.52322       46.12660       61.68235
C         79.59723       45.89214       60.48174
C         79.32198       47.20917       59.85301
O         78.05987       47.66674       59.75854
O         80.25356       47.88913       59.45572
H         78.86109       44.64420       62.82130
H         81.42459       44.17016       61.59690
H         81.44051       46.64408       61.32596
H         80.00759       46.78542       62.41789
H         78.63495       45.42238       60.78085
H         80.08971       45.22860       59.73907
N         81.63251       44.89765       64.78219
C         82.55776       45.17622       65.85718
H         83.49869       45.64540       65.50334
H         82.07325       45.86021       66.58454
H         82.80522       44.22229       66.36705
H         80.71870       44.51028       65.04981
Ca        77.27870       50.46901       59.60877
O         79.83520       50.62601       60.67192
H         80.41678       51.30423       60.24850
H         79.43982       51.09107       61.44941
O         78.71154       49.54847       57.13726
H         79.38526       50.06000       56.63165
H         79.26298       48.94260       57.67877
O         74.86884       49.93117       58.32972
H         74.71540       48.95327       58.32198
H         74.01582       50.32850       58.02569

Ca 1.70



