%chk=loop2.cluster222.chk
%nprocshared=48
%mem=10GB
%nosave
#b3lyp/svp scf=(tight,noincore) Test 
#IOP(5/87=12) Density=Current Pop=(MK,readradii) iop(6/33=2) iop(6/42=6)

loop2.cluster222 

   -2  1 
C         56.00953       28.23611       26.13334
C         55.20169       27.85482       24.93234
O         54.30092       27.03991       25.05723
H         56.86304       28.88783       25.85593
H         55.36509       28.76543       26.86509
H         56.41409       27.32257       26.60235
N         55.43986       28.44091       23.72656
C         54.66735       28.09927       22.53983
C         55.16683       26.80461       21.91546
O         54.40380       26.16833       21.20680
C         54.74772       29.23355       21.51054
C         53.81223       29.05028       20.34431
O         52.65151       28.38021       20.49556
O         54.02867       29.64366       19.30123
H         56.14065       29.19462       23.67163
H         53.59982       27.99959       22.85086
H         55.79645       29.30551       21.14881
H         54.48527       30.19582       22.00018
N         56.45073       26.36125       22.12773
C         56.95696       25.07170       21.65092
C         56.24011       23.90725       22.33425
O         56.40878       22.76970       21.91640
C         56.89560       24.98094       20.11352
H         57.09655       26.94418       22.67791
H         58.03279       24.99184       21.91850
H         57.42108       24.06483       19.76717
H         55.85815       24.93691       19.72592
H         57.41006       25.85649       19.66214
N         55.39926       24.13802       23.39014
C         54.53160       23.14587       24.00303
C         53.69112       22.50353       22.91577
O         53.65400       21.28361       22.82237
C         55.29316       22.08415       24.83294
C         56.32305       22.60526       25.79425
O         56.60977       23.78868       25.84206
O         56.98496       21.73314       26.57255
H         55.30323       25.09093       23.75540
H         53.86859       23.69875       24.70791
H         55.82525       21.38330       24.15984
H         54.53348       21.51102       25.41292
N         53.07702       23.28584       21.98004
C         52.48289       22.73246       20.77789
C         51.02121       22.44066       20.97263
O         50.20451       22.92451       20.20219
H         53.20226       24.30289       22.02937
H         53.02817       21.81072       20.47152
H         52.61205       23.45189       19.93889
N         50.62591       21.61479       21.97667
C         49.26391       21.16466       22.17610
C         48.78535       21.52395       23.56693
O         49.44899       21.20765       24.54490
C         49.25698       19.64371       21.95590
C         47.96886       18.96694       22.34842
N         48.00427       17.77748       22.99340
O         46.89387       19.47768       22.07067
H         51.33297       21.23060       22.61176
H         48.56746       21.60837       21.42816
H         50.09014       19.17363       22.52380
H         49.44377       19.46569       20.87580
H         48.90547       17.31636       23.19097
H         47.13199       17.30068       23.26127
N         47.57470       22.12841       23.71851
C         46.96844       22.39235       25.01122
C         47.53721       23.58811       25.74203
O         46.90967       24.02690       26.69661
H         47.00743       22.32174       22.87803
H         46.98627       21.48522       25.65207
H         45.89996       22.63223       24.81552
N         48.67332       24.21954       25.32530
C         49.10817       25.47525       25.92186
C         49.58913       25.34771       27.35977
O         49.81027       24.25258       27.85996
C         50.15046       26.19186       25.02754
C         51.48741       25.44805       24.90406
O         49.59112       26.36139       23.75058
H         49.17794       23.86450       24.50593
H         48.21341       26.13862       25.93584
H         50.35255       27.19370       25.47359
H         50.07588       27.11149       23.31863
H         52.14399       26.00962       24.20761
H         51.99503       25.38284       25.88906
H         51.36064       24.42703       24.49176
N         49.71149       26.48826       28.09052
C         50.10299       26.54244       29.49940
C         51.55060       26.15834       29.68627
O         52.31072       26.31783       28.74454
C         49.82198       27.97614       30.01928
C         49.89349       28.05095       31.55393
C         50.73027       29.04223       29.34944
C         49.19819       29.30405       32.07886
H         49.42725       27.36099       27.62534
H         49.45465       25.82290       30.04804
H         48.76452       28.17429       29.73336
H         50.94659       28.00406       31.90944
H         49.34184       27.18450       31.97742
H         50.70154       28.98928       28.24205
H         50.40767       30.06602       29.61825
H         51.78919       28.91216       29.65877
H         49.72147       30.22593       31.75750
H         48.15131       29.33032       31.70227
H         49.16944       29.27445       33.18581
N         52.01910       25.68394       30.88646
C         53.38550       25.18703       31.01625
C         53.41138       23.81876       31.68091
O         54.28102       23.52941       32.49610
C         54.31784       26.22480       31.67681
C         55.75930       25.98169       31.29321
O         56.02824       25.07315       30.33168
O         56.65123       26.66927       31.76398
H         51.37846       25.58926       31.68603
H         53.74120       25.00381       29.98421
H         54.16187       26.20440       32.77624
H         54.06755       27.24033       31.30309
N         52.48014       22.90477       31.32540
C         52.50631       21.50026       31.68463
C         52.50464       21.14266       33.18395
O         53.34535       20.34982       33.56159
C         51.35428       20.80155       30.92451
C         51.37748       19.30816       31.03501
C         51.99178       18.54308       30.03280
C         50.76792       18.66759       32.12417
C         52.00831       17.15147       30.12662
C         50.78095       17.27429       32.21202
C         51.40378       16.51645       31.21543
H         51.74454       23.21643       30.66855
H         53.44738       21.07136       31.26387
H         51.48010       21.06608       29.85033
H         50.34800       21.17678       31.19987
H         52.46203       19.02796       29.18533
H         50.27468       19.24751       32.89320
H         52.48883       16.56706       29.35377
H         50.30593       16.78286       33.05065
H         51.41528       15.43775       31.28463
N         51.54009       21.56784       34.06661
C         50.55586       22.58877       33.82231
C         50.98739       23.95297       34.36635
O         50.31206       24.92610       34.08992
C         49.39264       22.10357       34.70618
C         50.11498       21.54788       35.93633
C         51.32747       20.85164       35.32168
H         50.22763       22.68114       32.76947
H         48.62410       22.87371       34.94181
H         48.90011       21.24906       34.19774
H         50.47102       22.40518       36.52971
H         49.50853       20.91042       36.61508
H         52.20390       20.85562       36.00389
H         51.05701       19.80330       35.07356
N         52.00073       24.05340       35.28634
C         52.07597       25.18898       36.20119
C         53.18591       26.13015       35.81669
O         54.32472       25.70730       35.68542
C         52.21576       24.64422       37.63781
C         52.00821       25.71046       38.71423
C         51.96184       25.05031       40.06302
O         53.06681       24.47598       40.57496
O         50.91094       24.99984       40.68284
H         52.55251       23.22335       35.52968
H         51.11093       25.73991       36.18630
H         53.18515       24.11500       37.77139
H         51.39987       23.90928       37.79059
H         51.02960       26.20387       38.52438
H         52.80455       26.48451       38.69090
N         52.90092       27.45047       35.62309
C         53.88672       28.42261       35.20457
H         54.88285       27.97034       35.02218
H         53.53674       28.89436       34.26262
H         53.98391       29.20779       35.98356
H         51.93968       27.78617       35.78219
Ca        57.19908       23.84731       28.83863
O         59.37628       24.65343       30.74501
H         59.32452       24.83292       31.71621
H         58.81109       25.35779       30.34355
O         54.90118       25.27611       27.63319
H         55.05856       25.39507       26.66923
H         53.94388       25.04949       27.66786
O         58.50915       21.20685       28.78585
H         59.35865       21.27773       29.28734
H         57.97016       20.54294       29.28434
O         57.15960       22.36332       31.14450
H         56.89831       21.47441       31.48572
H         56.50798       22.98398       31.54924
O         58.05352       26.32194       28.14138
H         58.79924       26.69280       27.60962
H         57.68866       27.08660       28.65233
O         54.72537       22.16670       28.66423
H         53.80311       22.42273       28.41216
H         54.72720       21.17700       28.64134
O         59.65451       23.75596       27.40056
H         60.11180       24.61347       27.58685
H         60.09159       23.40935       26.58402

Ca 1.70



