%chk=loop2.cluster214.chk
%nprocshared=48
%mem=10GB
%nosave
#b3lyp/svp scf=(tight,noincore) Test 
#IOP(5/87=12) Density=Current Pop=(MK,readradii) iop(6/33=2) iop(6/42=6)

loop2.cluster214 

   -2  1 
C         67.88323       89.54774       97.84942
C         69.13949       89.06548       98.50480
O         69.05432       88.31552       99.46495
H         67.08692       89.63246       98.62069
H         68.03449       90.56198       97.42347
H         67.55373       88.83884       97.06332
N         70.35807       89.49874       98.07527
C         71.58485       89.17258       98.79415
C         71.51143       89.80972      100.17771
O         71.79032       89.14828      101.16242
C         72.82307       89.68886       98.04262
C         74.07405       89.26720       98.76524
O         74.81695       90.18203       99.41521
O         74.39042       88.08806       98.80893
H         70.40654       90.12087       97.25213
H         71.68991       88.06590       98.86377
H         72.77744       90.79593       97.97047
H         72.85665       89.27581       97.00868
N         71.05671       91.09330      100.29915
C         70.75039       91.77321      101.55718
C         70.10375       90.88756      102.62130
O         70.51772       90.91392      103.77291
C         71.96501       92.55590      102.05013
H         70.79917       91.59430       99.43534
H         69.97544       92.53252      101.30802
H         72.78802       91.86516      102.32454
H         72.31491       93.24021      101.24685
H         71.68492       93.17361      102.93059
N         69.05589       90.08423      102.28747
C         68.30262       89.25693      103.22752
C         69.20310       88.31118      104.04579
O         69.04939       88.23032      105.25812
C         67.44084       90.12785      104.18457
C         66.53172       91.21724      103.59811
O         67.19878       92.40348      103.28114
O         65.78206       90.82959      102.48455
H         68.77218       90.04780      101.29747
H         67.61311       88.63272      102.61658
H         68.09349       90.64290      104.92171
H         66.78010       89.43482      104.74492
N         70.22037       87.62681      103.45300
C         71.21787       86.90329      104.23179
C         70.77491       85.54517      104.71711
O         69.67473       85.10260      104.41988
H         70.38217       87.75159      102.44912
H         71.52694       87.52242      105.10478
H         72.12434       86.74788      103.60864
N         71.64220       84.82164      105.48289
C         71.38236       83.49845      106.04251
C         71.19402       82.47006      104.94755
O         70.26170       81.67882      104.98778
C         70.23308       83.54201      107.06709
C         70.50034       84.62046      108.08764
N         69.69175       85.70269      108.16700
O         71.47270       84.53331      108.82317
H         72.55939       85.24334      105.69765
H         72.30494       83.19742      106.58990
H         70.13019       82.56127      107.58213
H         69.27869       83.74731      106.53919
H         68.88322       85.80164      107.53576
H         69.89141       86.45365      108.84365
N         72.09730       82.42048      103.93432
C         72.04733       81.43833      102.87247
C         71.17592       81.84868      101.71232
O         71.41144       81.33745      100.62423
H         72.88136       83.09079      103.93135
H         71.84163       80.41049      103.24029
H         73.07823       81.40153      102.45498
N         70.17005       82.77297      101.83390
C         69.44029       83.25931      100.66841
C         67.98880       82.83557      100.67758
O         67.46102       82.45845      101.71213
C         69.53367       84.79669      100.53265
C         70.98204       85.30059      100.66919
O         68.98372       85.14992       99.28546
H         69.92714       83.15430      102.75714
H         69.88465       82.81552       99.75185
H         68.93751       85.27707      101.34214
H         69.34234       86.02121       98.99663
H         71.36703       85.09845      101.69113
H         71.64409       84.81825       99.92227
H         71.01054       86.40020      100.52349
N         67.29512       82.86210       99.50710
C         65.91524       82.42157       99.34589
C         64.94629       83.13355      100.26479
O         64.96686       84.35084      100.38144
C         65.45964       82.46868       97.85593
C         65.63060       83.87433       97.20363
C         66.19701       81.34961       97.09673
C         65.20259       83.92934       95.73621
H         67.81053       83.15444       98.66837
H         65.87667       81.35175       99.64226
H         64.37898       82.20257       97.81602
H         66.68105       84.22529       97.23402
H         65.01297       84.60452       97.76662
H         65.96901       80.37175       97.57831
H         65.84863       81.26737       96.05015
H         67.29556       81.49829       97.11404
H         64.15573       83.58284       95.61745
H         65.27992       84.97544       95.37041
H         65.87501       83.31128       95.10465
N         64.04576       82.37417      100.94903
C         63.14119       82.86218      101.96389
C         63.40063       82.00500      103.19660
O         62.51541       81.33747      103.71052
C         61.68855       82.80703      101.45446
C         60.71617       83.44287      102.41655
O         61.14247       83.98646      103.57526
O         59.53080       83.48970      102.13359
H         64.04109       81.36738      100.77892
H         63.37075       83.92409      102.19809
H         61.39107       81.75768      101.24903
H         61.62826       83.37239      100.49794
N         64.66156       81.98976      103.69103
C         65.08649       81.27694      104.88715
C         65.09915       79.74063      104.81211
O         64.66643       79.14763      105.79550
C         66.50029       81.77461      105.25512
C         66.96834       81.34509      106.62222
C         67.84591       80.25944      106.76306
C         66.56975       82.06495      107.76307
C         68.32076       79.90004      108.02805
C         67.05721       81.70926      109.02437
C         67.93272       80.62835      109.15652
H         65.35156       82.59431      103.22273
H         64.42317       81.59338      105.72298
H         66.50824       82.88768      105.25007
H         67.22830       81.46047      104.47838
H         68.15945       79.69483      105.89409
H         65.90184       82.91302      107.67102
H         68.99730       79.06236      108.13239
H         66.76304       82.27672      109.89838
H         68.31309       80.35718      110.13289
N         65.66417       78.99434      103.79454
C         66.13670       79.48602      102.51222
C         65.19879       78.96987      101.40572
O         65.65800       78.54685      100.35209
C         67.51630       78.83677      102.45857
C         67.32131       77.46162      103.12943
C         66.07313       77.62392      104.01981
H         66.17816       80.57580      102.43237
H         68.02665       78.80672      101.47001
H         68.15022       79.44048      103.14293
H         67.12215       76.66314      102.38488
H         68.24007       77.19910      103.70490
H         65.26983       76.92904      103.69085
H         66.35037       77.43610      105.08211
N         63.85145       78.96385      101.61598
C         62.86122       78.39183      100.70069
C         62.73813       79.08530       99.35192
O         62.70332       80.30263       99.27911
C         61.46625       78.41186      101.36375
C         61.35490       77.45720      102.56518
C         61.55088       76.02376      102.14912
O         62.48556       75.26600      102.75301
O         60.86474       75.54309      101.26037
H         63.51439       79.32020      102.52066
H         63.12295       77.33172      100.50239
H         60.69285       78.10458      100.62503
H         61.22036       79.44773      101.68432
H         60.33565       77.55942      102.99115
H         62.08537       77.72186      103.36013
N         62.48232       78.33556       98.24430
C         62.22198       78.93727       96.95464
H         61.36261       79.63949       97.02668
H         63.12121       79.48140       96.59967
H         61.96139       78.14619       96.21924
H         62.41696       77.31002       98.32886
Ca        65.76871       92.94198      101.60703
O         67.38857       95.30492      101.22034
H         67.48335       95.87960      100.42019
H         67.24426       95.93640      101.96904
O         63.73557       91.67756      100.07734
H         63.49064       91.74515       99.12108
H         63.58703       90.72743      100.31191
O         63.27531       92.98274      103.31753
H         62.98971       93.23780      104.23037
H         62.85857       92.09803      103.16235
O         64.10522       95.68044      101.52610
H         64.29031       96.27146      100.75351
H         63.95861       96.30028      102.28419

Ca 1.70



