%chk=loop2.cluster181.chk
%nprocshared=48
%mem=10GB
%nosave
#b3lyp/svp scf=(tight,noincore) Test 
#IOP(5/87=12) Density=Current Pop=(MK,readradii) iop(6/33=2) iop(6/42=6)

loop2.cluster181 

   -2  1 
C         57.79162       48.37285       18.77061
C         58.77749       48.53410       17.66023
O         59.53844       49.49118       17.64814
H         56.78940       48.13837       18.35841
H         58.12344       47.51486       19.39912
H         57.75088       49.28053       19.40328
N         58.87032       47.56061       16.72527
C         59.98446       47.48007       15.80623
C         59.93847       48.49387       14.65240
O         59.02255       48.42751       13.84384
C         60.02521       46.04582       15.26744
C         61.30102       45.76151       14.59981
O         62.33099       46.60897       14.73522
O         61.38915       44.78631       13.89084
H         58.21662       46.76275       16.78953
H         60.89703       47.62379       16.40942
H         59.17589       45.87531       14.57431
H         59.95505       45.30734       16.09955
N         60.95556       49.39941       14.46991
C         61.02628       50.31408       13.32375
C         62.03424       49.88228       12.25728
O         62.00564       50.45582       11.17763
C         61.43463       51.71741       13.79493
H         61.73082       49.41225       15.14425
H         60.03544       50.36669       12.82045
H         62.41161       51.66114       14.32809
H         61.56803       52.40283       12.92829
H         60.67864       52.15133       14.47766
N         62.96228       48.90680       12.48423
C         63.96234       48.50068       11.48378
C         63.74195       47.06061       10.99601
O         64.45028       46.62432       10.09906
C         65.38699       48.77353       12.04286
C         65.68638       48.02225       13.31037
O         64.94667       46.94866       13.60943
O         66.53587       48.42435       14.08939
H         62.98381       48.45634       13.40319
H         63.86148       49.12821       10.57302
H         65.42188       49.86075       12.27618
H         66.17768       48.56229       11.29316
N         62.70898       46.30789       11.47628
C         62.29073       45.03330       10.91315
C         63.16500       43.83333       11.22468
O         63.31099       42.99126       10.35090
H         62.09712       46.70731       12.19574
H         62.12529       45.13522        9.81704
H         61.29381       44.79749       11.33846
N         63.71541       43.64218       12.46478
C         64.49665       42.44382       12.80565
C         63.92936       41.64258       13.99170
O         64.44933       40.57324       14.28006
C         65.97208       42.85227       12.98189
C         66.25397       43.80058       14.11130
N         67.38892       44.53133       14.11163
O         65.46600       43.91447       15.02816
H         63.62478       44.38681       13.16797
H         64.48147       41.73654       11.94987
H         66.25724       43.36801       12.03980
H         66.63028       41.96696       13.09870
H         68.05789       44.46305       13.33431
H         67.58546       45.18651       14.87391
N         62.83273       42.06583       14.68388
C         62.16675       41.28905       15.71566
C         62.91609       41.18540       17.01977
O         62.49834       40.41610       17.87114
H         62.40786       42.94547       14.43388
H         61.89039       40.29498       15.31091
H         61.21876       41.80634       15.99332
N         63.96645       42.00742       17.28978
C         64.51423       42.16174       18.63294
C         64.62311       43.63222       18.97967
O         64.64633       44.47643       18.09482
C         65.87667       41.46204       18.78854
C         65.70379       39.93956       18.72048
O         66.76073       41.91395       17.79315
H         64.28548       42.65146       16.56523
H         63.80781       41.73001       19.37538
H         66.28510       41.71233       19.79473
H         67.60856       41.40821       17.89789
H         66.67508       39.43851       18.91414
H         64.98704       39.60801       19.50345
H         65.32715       39.62777       17.72475
N         64.66169       44.00828       20.28532
C         64.73945       45.40453       20.67292
C         66.18082       45.83175       20.64053
O         67.03392       45.19026       21.23961
C         64.05873       45.67292       22.03833
C         62.56906       45.25182       21.95908
C         64.17405       47.17209       22.41145
C         61.89916       45.22625       23.32980
H         64.59831       43.28724       21.01876
H         64.15012       46.01764       19.95648
H         64.56673       45.06149       22.81463
H         62.49671       44.21716       21.56606
H         62.00584       45.91512       21.26235
H         65.23288       47.45194       22.58777
H         63.76935       47.81194       21.59721
H         63.62493       47.41914       23.33932
H         62.48532       44.57357       24.01188
H         61.81639       46.23839       23.77060
H         60.87685       44.80753       23.23194
N         66.49958       46.96212       19.97415
C         67.83222       47.54027       19.90721
C         67.81905       48.79348       20.74447
O         66.74696       49.19274       21.15066
C         68.25167       47.75594       18.42488
C         67.14910       47.46811       17.43036
O         66.08963       48.28596       17.32063
O         67.18377       46.44704       16.77107
H         65.72636       47.49265       19.55518
H         68.57126       46.87002       20.39917
H         69.05646       47.02149       18.21567
H         68.66971       48.76691       18.23631
N         68.95339       49.39920       21.18379
C         68.89388       50.46335       22.18589
C         68.10097       51.69614       21.70827
O         67.17293       52.06795       22.40540
C         70.28438       50.75708       22.78651
C         70.22766       51.76515       23.91335
C         70.98851       52.94259       23.83886
C         69.42477       51.53640       25.04983
C         70.94185       53.87859       24.87602
C         69.37556       52.48035       26.07906
C         70.13300       53.65023       25.99238
H         69.87054       49.01893       20.89307
H         68.31634       50.05201       23.04517
H         70.99474       51.08297       22.00630
H         70.68540       49.80624       23.20401
H         71.61931       53.13261       22.97979
H         68.83494       50.63380       25.14090
H         71.53291       54.78237       24.81307
H         68.75016       52.30350       26.94511
H         70.09517       54.37871       26.79161
N         68.35438       52.34687       20.52451
C         67.51278       53.43875       20.02266
C         66.02504       53.11107       19.99594
O         65.20564       54.01452       20.11335
C         68.02971       53.61795       18.58543
C         69.49177       53.24326       18.71832
C         69.43893       52.02402       19.63468
H         67.69748       54.33238       20.65597
H         67.57614       52.84505       17.92283
H         67.83210       54.62053       18.14678
H         70.03969       53.07689       17.76710
H         69.98590       54.07203       19.27573
H         69.19562       51.08428       19.09446
H         70.41939       51.95411       20.13833
N         65.60638       51.83062       19.81848
C         64.20543       51.42620       19.84923
C         63.68838       51.51805       21.28970
O         62.69326       52.18203       21.53255
C         64.11535       50.03633       19.20035
C         62.73196       49.60305       18.71945
C         62.90605       48.39796       17.84263
O         63.37518       48.53019       16.72342
O         62.60660       47.16882       18.29878
H         66.32354       51.10948       19.64235
H         63.62402       52.09535       19.17816
H         64.54682       49.26787       19.86469
H         64.73688       50.10685       18.28132
H         62.26451       50.39963       18.09753
H         62.07260       49.38197       19.58196
N         64.39705       50.94965       22.30874
C         64.10947       51.16098       23.70946
H         63.09810       50.79726       23.96953
H         64.85983       50.61106       24.32597
H         64.21892       52.24016       23.94911
H         65.22259       50.40744       22.09555
Ca        64.35326       46.17860       15.59068

Ca 1.70



