%chk=loop2.cluster81.chk
%nprocshared=48
%mem=10GB
%nosave
#b3lyp/svp scf=(tight,noincore) Test 
#IOP(5/87=12) Density=Current Pop=(MK,readradii) iop(6/33=2) iop(6/42=6)

loop2.cluster81 

   -2  1 
C         42.05982       23.84907      -23.19253
C         42.37027       22.68125      -24.08323
O         43.52096       22.49649      -24.45166
H         40.98423       23.87625      -22.91177
H         42.66751       23.80654      -22.26611
H         42.29350       24.78229      -23.74619
N         41.37209       21.85558      -24.49380
C         41.58001       20.77928      -25.45554
C         41.98896       21.36553      -26.80895
O         41.26470       22.18290      -27.36011
C         40.28844       19.93555      -25.53387
C         40.20893       19.03603      -26.71819
O         41.10351       18.06856      -26.95777
O         39.34289       19.24942      -27.54398
H         40.41698       22.02937      -24.14125
H         42.37848       20.10369      -25.09615
H         39.42131       20.62365      -25.62160
H         40.16718       19.34343      -24.60448
N         43.14467       20.94727      -27.40642
C         43.62135       21.43006      -28.70082
C         43.26642       20.48428      -29.84642
O         43.53914       20.82180      -30.99088
C         45.15244       21.54844      -28.63652
H         43.69302       20.21640      -26.93978
H         43.17966       22.42739      -28.92233
H         45.59248       20.54752      -28.41771
H         45.57487       21.90255      -29.60067
H         45.46082       22.24417      -27.82949
N         42.67243       19.27809      -29.61416
C         42.41833       18.29190      -30.66351
C         40.98523       18.33798      -31.18713
O         40.69330       17.66454      -32.16677
C         42.61544       16.87540      -30.06934
C         44.02329       16.59467      -29.60247
O         44.29016       16.28232      -28.31204
O         44.93221       16.59345      -30.41431
H         42.47854       19.00583      -28.64687
H         43.11530       18.45418      -31.51681
H         42.35717       16.10920      -30.83140
H         41.90058       16.75210      -29.22633
N         40.01928       19.03806      -30.53403
C         38.60499       18.92493      -30.85113
C         38.06919       17.53850      -30.54915
O         37.22366       17.05762      -31.29116
H         40.27704       19.62173      -29.73073
H         38.38998       19.22980      -31.89963
H         38.05168       19.61743      -30.18304
N         38.50147       16.84951      -29.44684
C         37.98841       15.53497      -29.07318
C         37.29967       15.55459      -27.69837
O         36.75612       14.53733      -27.29150
C         39.13106       14.50637      -29.16160
C         39.94659       14.41330      -27.90480
N         40.05426       13.22688      -27.26692
O         40.48962       15.40323      -27.44766
H         39.24321       17.25736      -28.86689
H         37.22493       15.22103      -29.81628
H         39.78369       14.75076      -30.02989
H         38.69352       13.50558      -29.35248
H         39.60306       12.38233      -27.64217
H         40.58986       13.14373      -26.40321
N         37.24395       16.70284      -26.95692
C         36.43127       16.84453      -25.76369
C         37.00224       16.30824      -24.47691
O         36.32690       16.45255      -23.46660
H         37.66689       17.55984      -27.32128
H         35.41941       16.43458      -25.95663
H         36.31685       17.93381      -25.56748
N         38.23401       15.72957      -24.39102
C         38.82037       15.40071      -23.09282
C         40.16710       16.07069      -22.90645
O         40.73532       16.60512      -23.85127
C         38.86545       13.87282      -22.84584
C         37.47352       13.32828      -22.51762
O         39.36333       13.21578      -23.97793
H         38.79171       15.56977      -25.24418
H         38.21694       15.84299      -22.27147
H         39.51250       13.67832      -21.96028
H         39.23381       12.23813      -23.86393
H         36.83187       13.34841      -23.42185
H         37.57466       12.27892      -22.16470
H         37.00260       13.91766      -21.70371
N         40.71635       16.09783      -21.65944
C         41.96751       16.75871      -21.33878
C         43.04168       15.69735      -21.18460
O         42.89429       14.79742      -20.36756
C         41.78605       17.64713      -20.06228
C         40.68264       18.72981      -20.22831
C         43.10410       18.30464      -19.61598
C         40.84131       19.62663      -21.45990
H         40.21153       15.63390      -20.88819
H         42.28337       17.42798      -22.16420
H         41.46909       17.00099      -19.21248
H         40.67190       19.36826      -19.31637
H         39.68575       18.24408      -20.29449
H         42.93732       18.92965      -18.71124
H         43.84271       17.52956      -19.33230
H         43.53115       18.94528      -20.40927
H         41.84214       20.10071      -21.50272
H         40.67803       19.03098      -22.37844
H         40.07107       20.42583      -21.44136
N         44.17268       15.76334      -21.94847
C         45.32788       14.89347      -21.76850
C         46.27671       15.55363      -20.80285
O         45.97628       16.63793      -20.32999
C         46.08500       14.71907      -23.10509
C         45.27493       14.10453      -24.18759
O         44.84772       12.83138      -24.06906
O         45.03583       14.74005      -25.20422
H         44.28976       16.57476      -22.56371
H         45.01835       13.91092      -21.34724
H         46.96858       14.06363      -22.97316
H         46.43168       15.71916      -23.44776
N         47.44693       14.96787      -20.44309
C         48.35488       15.59002      -19.49661
C         48.92481       16.93437      -20.00026
O         48.81834       17.89104      -19.25376
C         49.44775       14.60876      -19.04054
C         50.29429       15.24563      -17.97296
C         51.60552       15.64652      -18.26479
C         49.76599       15.47686      -16.69015
C         52.37695       16.28098      -17.28925
C         50.54639       16.09929      -15.71328
C         51.84943       16.50545      -16.01402
H         47.67176       14.02970      -20.81534
H         47.76768       15.80904      -18.57437
H         50.07185       14.29009      -19.89020
H         48.98405       13.68352      -18.63029
H         52.01726       15.48879      -19.25414
H         48.75429       15.17176      -16.44931
H         53.38184       16.60362      -17.52477
H         50.13885       16.27203      -14.72550
H         52.44935       16.99683      -15.26024
N         49.54656       17.10518      -21.22056
C         50.04709       18.41145      -21.65811
C         48.96941       19.48609      -21.67191
O         49.28028       20.65890      -21.50297
C         50.51455       18.13961      -23.09764
C         50.89256       16.67279      -23.05100
C         49.76974       16.07372      -22.20411
H         50.89541       18.69277      -20.99666
H         49.64903       18.20548      -23.79553
H         51.31041       18.82938      -23.45738
H         51.03809       16.19107      -24.04168
H         51.84122       16.59270      -22.47206
H         48.83718       15.93333      -22.79212
H         50.13422       15.11400      -21.80787
N         47.67539       19.15019      -21.92382
C         46.57003       20.10314      -21.92545
C         46.24024       20.53736      -20.50144
O         46.00239       21.71341      -20.27400
C         45.35873       19.46619      -22.63345
C         45.70771       19.20857      -24.11646
C         44.65311       18.48859      -24.88577
O         44.83674       18.27006      -26.07065
O         43.52099       18.06507      -24.29435
H         47.46062       18.15687      -22.11391
H         46.82709       21.00140      -22.52972
H         44.47735       20.14326      -22.59397
H         45.10227       18.52570      -22.11559
H         46.62845       18.59506      -24.20889
H         45.88541       20.18709      -24.61321
N         46.29507       19.63730      -19.47977
C         46.16544       19.99893      -18.08572
H         45.54334       20.90427      -17.94101
H         45.71036       19.15170      -17.52693
H         47.18235       20.15845      -17.66757
H         46.59827       18.68950      -19.68309
Ca        42.80212       16.66244      -26.67095
O         43.34777       13.67994      -28.18379
H         43.55691       13.57011      -29.14560
H         44.04653       13.15888      -27.71483
O         41.95210       14.21156      -24.80725
H         42.87723       13.96893      -24.64978
H         41.52898       13.40082      -24.45642

Ca 1.70



