%chk=loop2.cluster124.chk
%nprocshared=48
%mem=10GB
%nosave
#b3lyp/svp scf=(tight,noincore) Test 
#IOP(5/87=12) Density=Current Pop=(MK,readradii) iop(6/33=2) iop(6/42=6)

loop2.cluster124 

   -2  1 
C         19.82704        5.40387       65.31533
C         20.44273        5.53544       66.67864
O         20.75773        6.64137       67.09330
H         18.89601        6.00033       65.24036
H         20.56093        5.75995       64.56174
H         19.59036        4.34319       65.08234
N         20.70627        4.41849       67.40854
C         21.45060        4.45257       68.66555
C         20.63868        5.02908       69.82694
O         21.20530        5.30966       70.87543
C         21.88815        3.00602       68.97823
C         22.85531        2.89629       70.11424
O         23.94480        3.44176       70.04476
O         22.54360        2.15650       71.19444
H         20.45324        3.50348       67.00384
H         22.35825        5.07260       68.49469
H         22.38933        2.58502       68.07838
H         20.98288        2.38981       69.18165
N         19.28451        5.12525       69.73466
C         18.42134        5.49877       70.85809
C         16.99969        5.02209       70.57789
O         16.68250        4.77806       69.42173
C         18.43610        7.02204       71.06141
H         18.85405        4.78729       68.86643
H         18.79212        4.96271       71.75825
H         18.01842        7.52629       70.16100
H         17.82384        7.31858       71.93810
H         19.46981        7.39401       71.21629
N         16.05523        4.83608       71.53708
C         16.17039        5.02564       72.96890
C         15.71612        3.74590       73.65103
O         14.60562        3.29042       73.40244
C         15.24483        6.17655       73.39324
C         15.29835        6.45136       74.87102
O         16.41217        6.17895       75.57850
O         14.39387        7.07157       75.39978
H         15.16047        4.49314       71.20919
H         17.20380        5.29008       73.26375
H         14.19734        5.94616       73.09487
H         15.54188        7.10586       72.86792
N         16.54039        3.10301       74.51232
C         16.18487        1.86926       75.18506
C         16.98344        0.74204       74.57438
O         18.17400        0.92709       74.36140
H         17.48225        3.48781       74.67834
H         15.09595        1.67661       75.15943
H         16.45173        1.98015       76.25730
N         16.45020       -0.48092       74.28766
C         15.10281       -0.89309       74.66452
C         14.04137       -0.33492       73.73852
O         14.10756       -0.55407       72.53582
C         15.02950       -2.42967       74.72092
C         13.71454       -2.88350       75.30699
N         13.65562       -3.33392       76.58186
O         12.69276       -2.81204       74.64059
H         17.08997       -1.19873       73.91220
H         14.92068       -0.57157       75.71559
H         15.84988       -2.75925       75.39571
H         15.20433       -2.90523       73.73045
H         14.50228       -3.35975       77.16911
H         12.75482       -3.61813       76.99295
N         12.97901        0.33678       74.26345
C         11.83395        0.73573       73.46829
C         11.11153        1.92263       74.06249
O          9.94096        2.10286       73.75783
H         12.90681        0.41175       75.28995
H         11.12755       -0.12107       73.45108
H         12.10888        0.96320       72.41308
N         11.77415        2.83143       74.84472
C         11.17706        4.08783       75.29239
C         11.43956        5.18189       74.24725
O         11.89570        6.26179       74.57695
C         11.68732        4.44038       76.72113
C         11.07803        3.53747       77.79026
O         13.08495        4.31018       76.79506
H         12.77673        2.68977       75.01824
H         10.06822        3.99854       75.32870
H         11.37331        5.47092       76.99513
H         13.47764        5.19071       76.59217
H          9.97635        3.67451       77.82029
H         11.31601        2.47190       77.59347
H         11.48867        3.81788       78.78567
N         11.09578        4.94108       72.94872
C         11.15806        5.90372       71.85365
C          9.84720        6.68258       71.78524
O          8.79512        6.08133       71.66837
C         11.41314        5.17616       70.48452
C         12.87697        4.74858       70.36964
C         10.49547        3.95555       70.22039
C         13.25273        4.03605       69.06283
H         10.67757        4.04368       72.74088
H         11.98884        6.62545       72.01493
H         11.24471        5.93473       69.70289
H         13.09883        4.06648       71.21669
H         13.49715        5.66853       70.43916
H          9.42944        4.17894       70.38836
H         10.58798        3.62078       69.16926
H         10.78873        3.08735       70.85153
H         12.99343        4.65850       68.18187
H         14.34150        3.83116       69.04214
H         12.75002        3.05029       68.98988
N          9.85560        8.04588       71.87546
C          8.63917        8.85446       71.85801
C          8.77956       10.09898       70.96694
O          9.66031       10.91541       71.17442
C          8.22802        9.21866       73.30010
C          9.35537        9.73096       74.13511
O         10.12825        8.84180       74.79836
O          9.63377       10.91744       74.13137
H         10.73977        8.52213       72.04255
H          7.78768        8.25604       71.47346
H          7.89059        8.28275       73.79335
H          7.36655        9.91961       73.30260
N          7.84258       10.31636       69.99808
C          7.72777       11.54516       69.19923
C          8.61306       11.46337       67.95486
O          8.50748       10.48003       67.24123
C          6.24127       11.67126       68.79605
C          5.96960       12.77062       67.81184
C          5.82724       12.45292       66.45150
C          5.84860       14.10304       68.23079
C          5.57722       13.45672       65.51840
C          5.58456       15.10623       67.29269
C          5.45259       14.78306       65.93751
H          7.08850        9.62136       69.91392
H          7.96759       12.43294       69.81802
H          5.61162       11.80948       69.70417
H          5.91339       10.71348       68.33685
H          5.92468       11.42677       66.11637
H          5.94751       14.35896       69.27874
H          5.47935       13.20328       64.47108
H          5.48163       16.13335       67.61530
H          5.25269       15.55908       65.21176
N          9.48335       12.47112       67.59388
C         10.43895       12.33997       66.49745
C         11.41038       11.20530       66.76979
O         11.89959       10.57665       65.84134
C         11.21242       13.67155       66.54969
C         10.19848       14.62200       67.15354
C          9.55222       13.76056       68.23777
H          9.88504       12.22466       65.53927
H         12.03866       13.60772       67.29478
H         11.64711       13.98815       65.57539
H         10.61181       15.58945       67.51108
H          9.43159       14.82648       66.37200
H         10.18734       13.67723       69.14718
H          8.56310       14.19909       68.47232
N         11.71761       10.89646       68.06507
C         12.63390        9.83913       68.47380
C         12.19050        8.45205       68.00725
O         12.98250        7.52298       68.06982
C         12.72189        9.88902       70.00990
C         13.85215        9.07143       70.62496
C         13.89415        9.34490       72.09152
O         14.82062        9.96277       72.58087
O         12.85735        8.96394       72.84161
H         11.28712       11.46719       68.80771
H         13.62623       10.08036       68.03310
H         11.73677        9.58918       70.41926
H         12.89915       10.94739       70.30870
H         14.80584        9.39393       70.16600
H         13.70464        7.98542       70.46541
N         10.93929        8.24685       67.50841
C         10.50048        6.97876       66.97448
H          9.47617        7.09212       66.55965
H         11.18240        6.65701       66.16213
H         10.45839        6.20532       67.75738
H         10.27192        9.01657       67.48965
Ca        12.34568        9.11714       74.99701
O         10.95854        8.05736       77.45696
H         10.09071        7.61792       77.27385
H         11.35041        7.53965       78.20399
O         12.09571       11.66842       75.95194
H         11.35129       11.37140       76.53384
H         11.74477       11.57955       75.03103
O         13.54345        9.32264       77.93906
H         14.48820        9.02934       77.96563
H         13.24340        9.27710       78.88109
O         15.17311        9.78252       75.49528
H         15.98328        9.25783       75.71132
H         15.47509       10.42742       74.81208

Ca 1.70



