%chk=loop2.cluster168.chk
%nprocshared=48
%mem=10GB
%nosave
#b3lyp/svp scf=(tight,noincore) Test 
#IOP(5/87=12) Density=Current Pop=(MK,readradii) iop(6/33=2) iop(6/42=6)

loop2.cluster168 

   -2  1 
C         44.52039      -11.80828       31.73998
C         43.26868      -12.62532       31.85845
O         42.63446      -12.62212       32.89949
H         45.37631      -12.45218       31.44554
H         44.36245      -11.04118       30.95229
H         44.75953      -11.29276       32.69362
N         42.83423      -13.33918       30.79192
C         41.57343      -14.06895       30.77754
C         41.49236      -15.15922       31.83229
O         40.44852      -15.28843       32.44493
C         41.37445      -14.70936       29.39385
C         40.00888      -15.32222       29.24885
O         39.89146      -16.52098       29.05400
O         38.91014      -14.54585       29.32169
H         43.40540      -13.31824       29.93225
H         40.74377      -13.34063       30.93782
H         42.16273      -15.47915       29.24022
H         41.48192      -13.93414       28.60617
N         42.52092      -16.04246       32.01724
C         42.42834      -17.23649       32.86579
C         42.23285      -16.95331       34.36251
O         41.93179      -17.88027       35.10429
C         41.33265      -18.16264       32.30447
H         43.38729      -15.90587       31.47843
H         43.37908      -17.80217       32.76383
H         41.40807      -19.17363       32.75712
H         40.31185      -17.76971       32.49074
H         41.46936      -18.27403       31.20578
N         42.38817      -15.69574       34.87501
C         42.06886      -15.30923       36.25020
C         40.60213      -15.54168       36.52017
O         40.24724      -15.94518       37.61305
C         42.94251      -15.96478       37.34518
C         44.41895      -15.85676       37.10557
O         45.06858      -14.67131       37.02809
O         45.06029      -16.88483       36.95821
H         42.68714      -14.93998       34.24410
H         42.22943      -14.22425       36.32817
H         42.67481      -17.04263       37.41179
H         42.70844      -15.51395       38.33544
N         39.67918      -15.30399       35.54781
C         38.26458      -15.49611       35.77522
C         37.82415      -14.56992       36.86505
O         38.47372      -13.55671       37.09209
H         39.98334      -14.97136       34.63499
H         38.08141      -16.55256       36.06989
H         37.68792      -15.29651       34.84553
N         36.75816      -14.89320       37.64020
C         36.37395      -14.10951       38.80220
C         36.14655      -12.65651       38.41483
O         36.66547      -11.75599       39.06105
C         37.40435      -14.35146       39.93649
C         37.33305      -15.80840       40.35489
N         38.35131      -16.66218       40.10338
O         36.32208      -16.22527       40.89969
H         36.22421      -15.74896       37.42745
H         35.39409      -14.48864       39.16338
H         37.19218      -13.72535       40.82937
H         38.42472      -14.08819       39.57905
H         39.20338      -16.33807       39.63889
H         38.27187      -17.65961       40.35285
N         35.32676      -12.36967       37.36236
C         34.95504      -11.01267       37.00034
C         36.01664      -10.23301       36.24830
O         35.78311       -9.06399       35.97187
H         34.89145      -13.14864       36.84489
H         34.63892      -10.47089       37.91592
H         34.07250      -11.06085       36.32470
N         37.15894      -10.82577       35.79228
C         38.09020      -10.11815       34.92298
C         38.95875       -9.11568       35.66422
O         39.38990       -9.38539       36.77751
C         39.05414      -11.05963       34.14464
C         38.37788      -12.26037       33.49176
O         39.63441      -10.31826       33.10270
H         37.29028      -11.82866       35.94195
H         37.48954       -9.61041       34.13236
H         39.84125      -11.47929       34.82052
H         40.51165      -10.00305       33.41295
H         38.31650      -13.10101       34.20730
H         37.36806      -11.99614       33.12170
H         38.99399      -12.60830       32.63368
N         39.45303       -8.05279       34.96827
C         40.58259       -7.22990       35.41513
C         41.81762       -8.13071       35.60304
O         41.87095       -9.17787       34.98302
C         40.81397       -6.12536       34.33313
C         41.69643       -4.97254       34.84588
C         41.37393       -6.73784       33.02573
C         41.82170       -3.82321       33.84265
H         39.04810       -7.87454       34.03768
H         40.28935       -6.76088       36.38325
H         39.81399       -5.68142       34.11610
H         42.70878       -5.34621       35.10016
H         41.22235       -4.55365       35.75734
H         40.79027       -7.61989       32.69551
H         41.33486       -6.01151       32.19146
H         42.42663       -7.06044       33.17266
H         42.31942       -4.15378       32.90902
H         40.81886       -3.41073       33.59682
H         42.44123       -3.01684       34.28465
N         42.83018       -7.83075       36.45712
C         43.91739       -8.78673       36.74357
C         43.90285       -9.22200       38.21128
O         44.28332      -10.33370       38.51813
C         45.25870       -8.19863       36.33321
C         46.46903       -9.09495       36.51461
O         46.40547      -10.43332       36.75662
O         47.56900       -8.59773       36.34103
H         42.80732       -6.91540       36.92941
H         43.79940       -9.70589       36.14201
H         45.40945       -7.26771       36.91851
H         45.21056       -7.91444       35.25578
N         43.43708       -8.38131       39.16440
C         43.17066       -8.78920       40.53221
C         43.14286       -7.58765       41.49860
O         43.80213       -7.70580       42.52817
C         41.85189       -9.61181       40.58830
C         41.43390       -9.87081       42.01418
C         42.15300      -10.76101       42.82596
C         40.33881       -9.17452       42.55251
C         41.78177      -10.94443       44.16262
C         39.98539       -9.34336       43.89201
C         40.70538      -10.22852       44.69732
H         43.16365       -7.46093       38.88167
H         43.98309       -9.46225       40.88980
H         41.94206      -10.57136       40.03492
H         41.04350       -9.05781       40.08015
H         42.99568      -11.30859       42.42313
H         39.77943       -8.48059       41.93917
H         42.33466      -11.63323       44.78711
H         39.15765       -8.78169       44.30614
H         40.43009      -10.35780       45.73568
N         42.39450       -6.43894       41.32598
C         41.59910       -6.09739       40.15627
C         42.36018       -5.20516       39.17796
O         41.77120       -4.84033       38.16893
C         40.47404       -5.21029       40.73675
C         40.60281       -5.37500       42.24805
C         42.10404       -5.54688       42.41716
H         41.14362       -6.99495       39.70855
H         40.69987       -4.13422       40.54754
H         39.46708       -5.41509       40.31210
H         40.15329       -4.53925       42.82356
H         40.11483       -6.32364       42.54044
H         42.60748       -4.57576       42.22317
H         42.39639       -5.91828       43.42270
N         43.61428       -4.71906       39.44821
C         44.17899       -3.60685       38.68681
C         45.35186       -4.00355       37.81964
O         46.31446       -4.59057       38.29847
C         44.51155       -2.40872       39.59630
C         43.23526       -1.85227       40.25351
C         43.49997       -0.56038       40.96767
O         43.31041       -0.47147       42.29717
O         43.85863        0.42392       40.33984
H         44.13274       -5.04924       40.28028
H         43.41713       -3.20862       37.98960
H         44.94403       -1.61189       38.95097
H         45.26441       -2.67443       40.37267
H         42.83099       -2.60024       40.96488
H         42.46017       -1.65539       39.47970
N         45.31090       -3.67805       36.49342
C         46.34134       -3.99664       35.53450
H         47.23715       -4.45710       35.99616
H         45.90752       -4.69331       34.78767
H         46.64196       -3.06704       35.00257
H         44.49055       -3.16843       36.13264
Ca        45.17090      -12.36829       37.03205
O         45.83443      -12.73210       39.92606
H         46.67850      -12.32926       40.25083
H         45.48019      -13.23489       40.70125
O         45.74265      -13.37840       34.63937
H         46.25516      -13.02631       33.87406
H         46.21157      -14.21112       34.89530
O         42.82369      -11.88761       35.97014
H         42.97733      -12.49334       35.20792
H         41.96429      -11.44610       35.78813
O         42.82942      -12.89355       38.79064
H         41.88539      -12.72446       38.54556
H         42.79628      -13.19970       39.73090
O         47.81332      -13.11437       37.73138
H         48.72320      -12.72834       37.69553
H         47.91212      -14.03811       37.38990

Ca 1.70



