%chk=loop2.cluster224.chk
%nprocshared=48
%mem=10GB
%nosave
#b3lyp/svp scf=(tight,noincore) Test 
#IOP(5/87=12) Density=Current Pop=(MK,readradii) iop(6/33=2) iop(6/42=6)

loop2.cluster224 

   -2  1 
C         53.77788       47.79223       17.34786
C         54.20608       48.89090       16.42459
O         54.22836       48.68467       15.21882
H         52.74349       47.47411       17.11006
H         54.47071       46.93269       17.22458
H         53.82152       48.12037       18.40810
N         54.61650       50.08486       16.93172
C         55.19813       51.11828       16.09188
C         54.08799       51.92635       15.44365
O         53.31737       52.55659       16.15610
C         56.15520       51.96924       16.95796
C         57.09349       52.86481       16.19721
O         57.06395       52.92217       14.97826
O         58.02003       53.57015       16.87424
H         54.62897       50.20912       17.95630
H         55.83754       50.62037       15.32745
H         56.80668       51.26488       17.52164
H         55.57581       52.56380       17.69709
N         53.93532       51.93165       14.08805
C         52.85899       52.65185       13.40530
C         52.04761       51.67430       12.54844
O         52.47379       50.53258       12.42419
C         53.52079       53.75058       12.56797
H         54.61080       51.40369       13.51222
H         52.18681       53.12282       14.14698
H         52.81264       54.40227       12.04010
H         54.10732       54.40799       13.24343
H         54.20847       53.30250       11.81973
N         50.87545       51.99017       11.91027
C         50.16119       53.27261       11.97243
C         49.69930       53.66069       13.37454
O         49.68867       52.83099       14.27436
C         48.95873       53.29878       10.98979
C         47.93630       52.21494       11.21171
O         48.21694       51.04685       11.00196
O         46.68399       52.53918       11.57523
H         50.48071       51.24841       11.31878
H         50.83254       54.06514       11.61869
H         49.32804       53.20788        9.94588
H         48.44897       54.28233       11.07534
N         49.31310       54.95233       13.61800
C         48.94056       55.44393       14.93843
C         50.16505       55.80552       15.75130
O         51.27290       55.66287       15.24725
H         49.35465       55.63632       12.84702
H         48.33792       54.67919       15.47392
H         48.31590       56.35488       14.81674
N         50.08879       56.24983       17.03900
C         48.84883       56.51951       17.77543
C         48.50780       55.38275       18.72968
O         47.58129       55.52893       19.51915
C         49.06186       57.81387       18.59123
C         49.36405       58.98375       17.69315
N         50.59696       59.54319       17.68569
O         48.49354       59.42054       16.95567
H         50.97733       56.38859       17.54641
H         47.98161       56.65576       17.09597
H         49.91174       57.64320       19.29048
H         48.17226       58.06067       19.21229
H         51.34981       59.16577       18.28017
H         50.80512       60.33636       17.06193
N         49.19674       54.20934       18.70533
C         48.95913       53.12306       19.63546
C         47.55963       52.56389       19.58597
O         46.96834       52.35288       20.63597
H         49.94063       54.06834       18.00555
H         49.20625       53.44259       20.67055
H         49.64790       52.29359       19.36503
N         46.97933       52.25807       18.39492
C         45.74323       51.48627       18.29250
C         45.98611       50.30409       17.38090
O         46.90086       50.34576       16.56431
C         44.54781       52.34197       17.82443
C         44.08211       53.29791       18.93002
O         44.89654       53.06679       16.67261
H         47.46674       52.52791       17.52494
H         45.47013       51.06033       19.28429
H         43.68745       51.65915       17.61813
H         44.11490       53.04124       16.06174
H         43.22926       53.91196       18.57121
H         43.72889       52.71022       19.80725
H         44.89939       53.97186       19.25965
N         45.27695       49.15657       17.54805
C         45.56601       47.94487       16.79604
C         44.33878       47.40030       16.08333
O         43.22509       47.53927       16.57696
C         46.25464       46.87375       17.68750
C         47.71553       47.29221       18.00406
C         45.47443       46.59310       18.99007
C         48.56627       46.10845       18.45892
H         44.55367       49.12357       18.28534
H         46.29148       48.15872       15.97953
H         46.30167       45.94879       17.07237
H         47.74345       48.11321       18.75516
H         48.20508       47.66624       17.07850
H         45.49319       47.48403       19.65759
H         44.41768       46.33783       18.77549
H         45.92275       45.75024       19.55274
H         48.19013       45.65760       19.39692
H         48.55723       45.33990       17.66110
H         49.61655       46.43420       18.61160
N         44.49483       46.72105       14.91028
C         43.40719       46.14644       14.13534
C         43.83688       44.95092       13.30245
O         44.81699       45.00367       12.56985
C         42.67590       47.16569       13.25084
C         43.57378       48.06757       12.46918
O         43.78952       49.31501       12.92338
O         43.91120       47.77080       11.33424
H         45.44428       46.58142       14.56430
H         42.64498       45.76402       14.84612
H         42.04868       47.80699       13.89796
H         41.98298       46.63213       12.55920
N         43.04633       43.84662       13.33549
C         43.24686       42.61288       12.58810
C         44.53653       41.93451       13.01933
O         44.74434       41.82064       14.22178
C         42.06379       41.68696       12.95374
C         42.13740       40.32745       12.32817
C         42.42719       39.20813       13.12455
C         41.91331       40.16418       10.95479
C         42.50412       37.94070       12.54832
C         41.98775       38.89324       10.38162
C         42.28411       37.78223       11.17751
H         42.20640       43.90070       13.93341
H         43.23019       42.82843       11.49852
H         41.09653       42.16280       12.67811
H         42.06655       41.57760       14.06201
H         42.60584       39.32189       14.18765
H         41.68429       41.02203       10.33364
H         42.73558       37.08288       13.16550
H         41.81674       38.77076        9.32098
H         42.34271       36.79891       10.73272
N         45.44063       41.40594       12.12849
C         46.61402       40.67094       12.56960
C         47.65632       41.50011       13.30714
O         48.68101       40.94550       13.68074
C         47.18199       40.09324       11.26582
C         45.93124       39.94351       10.41347
C         45.21176       41.25929       10.70499
H         46.26080       39.83581       13.21636
H         47.81652       40.85631       10.76117
H         47.77552       39.16307       11.40367
H         46.11743       39.74018        9.33720
H         45.32388       39.10730       10.83360
H         45.70186       42.09959       10.16792
H         44.16017       41.16892       10.39632
N         47.47169       42.83393       13.55784
C         48.45475       43.63352       14.28115
C         48.65210       43.14913       15.71483
O         49.63769       43.54006       16.32363
C         48.09254       45.13929       14.23508
C         48.13552       45.66289       12.77842
C         48.02506       47.18481       12.62491
O         46.97560       47.75040       13.34440
O         47.81412       47.51585       11.28033
H         46.62601       43.30143       13.21604
H         49.43144       43.51205       13.76548
H         48.81274       45.72193       14.84695
H         47.08822       45.26784       14.68037
H         47.36562       45.15248       12.16546
H         49.12797       45.41166       12.34984
N         47.79895       42.25122       16.29676
C         48.04996       41.65762       17.59578
H         48.96580       42.05350       18.08170
H         47.18542       41.82870       18.26988
H         48.18226       40.56309       17.45780
H         46.95427       41.94206       15.79789
Ca        46.34531       49.19353       11.71856
O         46.10867       48.75018        8.85979
H         46.78128       49.24433        8.32748
H         45.29876       48.73326        8.29119
O         44.66542       51.23620        9.92093
H         45.22073       51.95692        9.53051
H         43.73843       51.47963        9.67551
O         45.49008       51.27544       13.78662
H         46.23480       51.36417       14.42867
H         44.89785       52.04340       13.97984

Ca 1.70



