%chk=loop2.cluster150.chk
%nprocshared=48
%mem=10GB
%nosave
#b3lyp/svp scf=(tight,noincore) Test 
#IOP(5/87=12) Density=Current Pop=(MK,readradii) iop(6/33=2) iop(6/42=6)

loop2.cluster150 

   -2  1 
C         59.30362       31.06699       10.22221
C         59.41104       31.51006        8.79765
O         58.84124       30.86042        7.94075
H         58.23287       31.03382       10.51247
H         59.73848       30.04963       10.32852
H         59.84314       31.75927       10.89901
N         60.11158       32.63052        8.46105
C         60.25019       33.07174        7.07482
C         61.13299       32.10390        6.26317
O         61.03358       32.08345        5.04391
C         60.77109       34.51419        7.05145
C         60.63361       35.16568        5.70803
O         61.61661       35.60536        5.13585
O         59.41360       35.31544        5.15459
H         60.53197       33.19501        9.21371
H         59.22459       33.09355        6.65349
H         61.82342       34.52630        7.40742
H         60.15617       35.11599        7.75725
N         61.93048       31.19253        6.91572
C         62.62985       30.05587        6.30388
C         61.72824       29.14091        5.46931
O         62.23391       28.27927        4.76193
C         63.95922       30.44533        5.64548
H         62.00223       31.25969        7.93762
H         62.97020       29.41467        7.14415
H         64.58091       30.99854        6.38569
H         64.52633       29.51766        5.39499
H         63.83875       31.05648        4.73219
N         60.36797       29.23541        5.56632
C         59.39744       28.38873        4.88869
C         59.36282       28.56387        3.37396
O         58.59244       27.87929        2.71557
C         59.56410       26.90549        5.32638
C         58.24734       26.36577        5.79887
O         58.11035       25.99512        7.08289
O         57.26979       26.38551        5.06749
H         59.97482       29.92220        6.20311
H         58.40462       28.74559        5.24430
H         60.25035       26.83529        6.20060
H         59.99415       26.28019        4.51571
N         60.18179       29.46109        2.75396
C         60.32166       29.55078        1.31669
C         59.35018       30.50194        0.66866
O         59.24449       31.64326        1.09599
H         60.82566       30.03271        3.30984
H         60.33463       28.54022        0.85324
H         61.32179       29.99066        1.12246
N         58.70783       30.12554       -0.47134
C         57.91915       31.04940       -1.28239
C         56.66004       31.49843       -0.57337
O         56.08432       30.72699        0.18247
C         57.59319       30.38442       -2.63352
C         56.94383       31.32511       -3.61611
N         55.78325       30.99094       -4.22455
O         57.48772       32.38514       -3.88921
H         58.87792       29.17404       -0.83151
H         58.55538       31.93859       -1.49949
H         56.96330       29.48241       -2.46689
H         58.55178       30.05439       -3.08822
H         55.33026       30.08574       -4.03290
H         55.35472       31.62965       -4.91041
N         56.14675       32.74029       -0.81333
C         54.97812       33.24457       -0.11843
C         55.35385       33.50033        1.31111
O         56.26126       34.28965        1.54747
H         56.60944       33.35576       -1.49913
H         54.13631       32.52388       -0.22287
H         54.66118       34.20982       -0.56758
N         54.72745       32.85130        2.32797
C         55.20221       32.94553        3.70287
C         54.20669       32.37943        4.69190
O         53.60974       31.33383        4.46132
C         56.59526       32.27565        3.84002
C         57.05891       32.05446        5.27974
O         56.58877       31.02804        3.20072
H         53.93166       32.23029        2.10735
H         55.31217       34.02301        3.96679
H         57.33820       32.96259        3.36552
H         57.18038       31.11205        2.41223
H         57.01838       32.98994        5.87504
H         56.43021       31.28199        5.76796
H         58.09579       31.66008        5.26005
N         54.00348       33.05988        5.85226
C         53.06351       32.66162        6.88842
C         53.46516       31.36473        7.56099
O         54.63930       31.03308        7.56286
C         52.94268       33.81036        7.93203
C         51.78616       33.54777        8.91896
C         54.27484       34.06576        8.68741
C         51.45889       34.75791        9.78390
H         54.53052       33.93601        5.97964
H         52.07943       32.52693        6.38563
H         52.68709       34.72113        7.34520
H         52.02980       32.69325        9.58521
H         50.87101       33.30071        8.33728
H         54.53140       33.20478        9.33979
H         55.13356       34.23811        8.00923
H         54.20485       34.97753        9.31011
H         52.31065       35.02977       10.43760
H         51.19406       35.62062        9.13669
H         50.59536       34.51299       10.43447
N         52.52854       30.59697        8.18842
C         52.88571       29.36033        8.88666
C         51.73612       28.35500        9.05550
O         51.94914       27.31567        9.66186
C         53.54116       29.69336       10.24491
C         54.45616       28.60424       10.75416
O         54.77213       27.66440       10.04193
O         54.99148       28.70737       11.98345
H         51.55915       30.92557        8.16008
H         53.62078       28.83865        8.23682
H         52.73179       29.90129       10.97754
H         54.17233       30.60232       10.16928
N         50.53139       28.53004        8.44926
C         49.59147       27.44563        8.26385
C         48.77814       26.98207        9.49216
O         48.51020       25.79340        9.53328
C         48.67067       27.79686        7.07190
C         47.86315       26.61893        6.60505
C         48.46504       25.57451        5.87534
C         46.49899       26.55519        6.90704
C         47.70058       24.47613        5.46781
C         45.74469       25.44989        6.51391
C         46.34335       24.40996        5.79673
H         50.35066       29.37864        7.90624
H         50.18012       26.56770        7.90786
H         49.27757       28.14943        6.20414
H         48.01665       28.64142        7.37558
H         49.51749       25.61586        5.61611
H         46.03013       27.35349        7.46776
H         48.15938       23.67393        4.90264
H         44.69622       25.39971        6.77103
H         45.75440       23.55399        5.49621
N         48.22146       27.81962       10.44554
C         48.36607       29.25417       10.53409
C         49.10319       29.69900       11.80896
O         49.23935       30.89350       12.00854
C         46.90586       29.68398       10.64944
C         46.27541       28.59667       11.53812
C         47.10953       27.33587       11.25793
H         48.85625       29.73003        9.66829
H         46.72286       30.72211       11.00981
H         46.47123       29.58328        9.63414
H         46.39357       28.86298       12.60952
H         45.19233       28.46646       11.31018
H         47.45187       26.85496       12.19770
H         46.48472       26.61168       10.69476
N         49.52472       28.79764       12.75279
C         50.00042       29.24039       14.06221
C         51.39290       29.81802       13.95327
O         52.32872       29.09622       13.63923
C         49.91242       28.08380       15.08389
C         48.45632       27.66007       15.39372
C         47.71853       28.66023       16.25103
O         47.37259       28.33045       17.51035
O         47.41571       29.75884       15.81438
H         49.40293       27.79298       12.59399
H         49.32871       30.03673       14.42919
H         50.39282       28.36258       16.04743
H         50.46451       27.21030       14.67196
H         48.50416       26.71190       15.96788
H         47.87635       27.45798       14.46807
N         51.58243       31.15172       14.17563
C         52.85916       31.81420       14.01661
H         53.67320       31.11728       13.73014
H         52.75907       32.58226       13.22022
H         53.13335       32.32140       14.96526
H         50.77446       31.73733       14.43332
Ca        56.03452       25.95059        7.90511
O         54.03317       24.91496        9.37400
H         53.27762       25.47872        9.08582
H         53.62371       24.04570        9.59705
O         56.73832       28.60340        7.16753
H         57.35248       29.01019        7.82290
H         55.88542       29.07425        7.30169
O         57.24323       26.01439       10.49328
H         57.32448       26.82408       11.05664
H         56.96415       25.29836       11.11700
O         56.33890       23.23158        8.44804
H         57.07310       22.65590        8.12017
H         56.36800       23.14934        9.43398
O         53.83062       27.04933        6.25105
H         53.99068       27.84162        5.67983
H         53.07554       26.57634        5.82013
O         54.93394       24.22478        5.89773
H         54.30507       24.50029        5.18545
H         55.14054       23.27794        5.69950

Ca 1.70



