%chk=loop2.cluster23.chk
%nprocshared=48
%mem=10GB
%nosave
#b3lyp/svp scf=(tight,noincore) Test 
#IOP(5/87=12) Density=Current Pop=(MK,readradii) iop(6/33=2) iop(6/42=6)

loop2.cluster23 

   -2  1 
C         54.81004       47.23212       12.97517
C         55.68057       48.08479       12.09296
O         55.69746       47.87821       10.88782
H         53.76971       47.19863       12.59042
H         55.22286       46.20111       13.00315
H         54.78864       47.62126       14.01568
N         56.49705       49.02431       12.64804
C         57.45248       49.80725       11.86549
C         56.75832       50.88871       11.05603
O         55.68031       51.32255       11.43312
C         58.48111       50.43288       12.83153
C         59.61383       51.17652       12.17949
O         60.23596       52.15191       12.86755
O         60.13031       50.74493       11.16165
H         56.50965       49.10836       13.67641
H         57.99584       49.10930       11.18770
H         58.93504       49.61515       13.43198
H         57.95864       51.11356       13.53911
N         57.35716       51.40531        9.94280
C         56.74189       52.44734        9.12346
C         55.52834       51.88831        8.43526
O         55.50419       50.68295        8.22277
C         57.71900       52.85948        8.01111
H         58.26911       51.02655        9.65268
H         56.51027       53.32567        9.75940
H         57.28445       53.64525        7.36027
H         58.66227       53.24062        8.45023
H         57.96168       51.98099        7.36861
N         54.53076       52.65618        7.91424
C         54.32717       54.11057        8.07495
C         54.15018       54.56450        9.52606
O         53.79432       53.76382       10.37044
C         53.09941       54.56955        7.23101
C         51.81461       53.85211        7.57371
O         51.87252       52.55439        7.90795
O         50.73421       54.37038        7.34202
H         53.88956       52.14045        7.30589
H         55.22135       54.62422        7.67414
H         53.31533       54.32130        6.17059
H         52.94150       55.66777        7.28721
N         54.45621       55.84950        9.88498
C         54.46243       56.32112       11.26955
C         53.65676       57.59257       11.46440
O         54.26365       58.65391       11.50765
H         54.79659       56.49693        9.15693
H         55.52191       56.57615       11.49891
H         54.16490       55.55628       12.01273
N         52.29712       57.61363       11.60034
C         51.43633       56.43478       11.56517
C         51.42910       55.67387       12.88924
O         51.05657       56.23805       13.90829
C         49.97992       56.85701       11.25463
C         49.89523       57.71865       10.01694
N         50.34829       57.26336        8.82904
O         49.42886       58.84544       10.09554
H         51.84677       58.54032       11.67812
H         51.76322       55.77996       10.73233
H         49.55805       57.43097       12.11054
H         49.35724       55.94681       11.11208
H         50.75604       56.32519        8.75814
H         50.30449       57.85663        7.98794
N         51.78193       54.35961       12.92381
C         51.62689       53.51834       14.10230
C         50.17986       53.12065       14.24428
O         49.58994       53.29629       15.30435
H         52.10304       53.90814       12.06114
H         52.05290       53.99519       15.01079
H         52.18828       52.57469       13.92251
N         49.54319       52.57116       13.17530
C         48.15268       52.12759       13.16529
C         48.01744       50.85750       12.33252
O         48.92792       50.52734       11.57362
C         47.18146       53.26041       12.69726
C         47.17643       54.44018       13.67782
O         47.53120       53.72387       11.41861
H         50.11278       52.42598       12.33429
H         47.87424       51.81901       14.19593
H         46.15031       52.84334       12.65830
H         46.82135       54.35665       11.12516
H         46.46335       55.22016       13.33513
H         46.85588       54.09329       14.68209
H         48.17968       54.90907       13.74455
N         46.92013       50.06020       12.44976
C         46.81828       48.77798       11.76249
C         45.99374       48.86269       10.48630
O         44.79533       49.10735       10.52369
C         46.33306       47.60631       12.66803
C         47.44691       47.12519       13.62630
C         45.03321       47.92143       13.43240
C         47.08313       45.80853       14.30945
H         46.15842       50.35952       13.07826
H         47.83381       48.46543       11.43078
H         46.13760       46.75635       11.97295
H         47.69964       47.89492       14.38606
H         48.35838       46.92149       13.02674
H         44.62983       47.00675       13.91023
H         45.22141       48.66824       14.23164
H         44.24482       48.30431       12.75856
H         46.76364       45.07524       13.53948
H         47.96926       45.40992       14.84549
H         46.26180       45.93533       15.04204
N         46.60913       48.58919        9.30642
C         45.95739       48.35574        8.02996
C         46.40813       46.99970        7.51409
O         47.55100       46.60257        7.72166
C         46.29410       49.42243        6.96639
C         47.74299       49.73531        6.94770
O         48.24794       50.36135        8.01413
O         48.44463       49.48293        5.98031
H         47.62009       48.44281        9.32721
H         44.85095       48.36097        8.13491
H         45.77955       50.37966        7.19727
H         45.94357       49.08327        5.96617
N         45.56971       46.27767        6.74085
C         45.92350       45.00131        6.13348
C         46.12473       43.92661        7.20514
O         45.30450       43.84265        8.10891
C         44.79980       44.65093        5.13974
C         44.99902       43.39997        4.32731
C         44.61021       42.15479        4.84468
C         45.51839       43.47467        3.02155
C         44.72596       41.00232        4.06203
C         45.64267       42.31739        2.24749
C         45.23990       41.08350        2.76458
H         44.64075       46.68464        6.54150
H         46.84578       45.13721        5.52826
H         44.74950       45.50849        4.43098
H         43.81178       44.60605        5.64541
H         44.19698       42.08363        5.84273
H         45.82462       44.42683        2.60502
H         44.40674       40.04750        4.45774
H         46.04097       42.37875        1.24259
H         45.32137       40.19102        2.15795
N         47.17015       43.03582        7.15083
C         47.32205       41.92891        8.07876
C         48.33558       42.26636        9.17580
O         48.88907       41.35289        9.77446
C         47.81123       40.83434        7.12264
C         48.77022       41.59168        6.20948
C         48.05107       42.92492        6.00337
H         46.38029       41.58710        8.56159
H         48.23498       39.92512        7.60160
H         46.93346       40.51964        6.51034
H         49.70462       41.76590        6.78024
H         49.00993       41.06449        5.25815
H         48.75941       43.77633        5.90663
H         47.43313       42.83467        5.09189
N         48.57301       43.56518        9.53997
C         49.48167       43.93517       10.62742
C         49.06552       43.40062       11.99080
O         49.89360       43.42721       12.89217
C         49.63918       45.47823       10.71243
C         50.68199       45.96539        9.69826
C         50.89563       47.44921        9.74151
O         49.87635       48.29178        9.53623
O         52.01242       47.89771        9.92688
H         48.08449       44.31782        9.03700
H         50.47551       43.47806       10.42078
H         50.00396       45.78363       11.71576
H         48.64568       45.96531       10.56018
H         50.38006       45.67001        8.67488
H         51.65350       45.47935        9.94508
N         47.82032       42.90865       12.23713
C         47.47827       42.36365       13.53650
H         46.41228       42.05796       13.55398
H         48.11660       41.48287       13.75585
H         47.64415       43.11316       14.33600
H         47.09734       42.92914       11.50453
Ca        50.28107       51.07662        8.03527
O         52.74474       50.74704       10.39636
H         53.31281       49.94144       10.33481
H         53.39064       51.45719       10.61281
O         50.21865       52.96534       10.07528
H         50.06867       53.83393        9.63790
H         49.30574       52.65868       10.28417
O         52.49716       49.49926        7.09409
H         53.29524       49.88147        7.53153
H         52.83824       49.11984        6.24721

Ca 1.70



