%chk=loop2.cluster190.chk
%nprocshared=48
%mem=10GB
%nosave
#b3lyp/svp scf=(tight,noincore) Test 
#IOP(5/87=12) Density=Current Pop=(MK,readradii) iop(6/33=2) iop(6/42=6)

loop2.cluster190 

   -2  1 
C         49.43991      -14.89030       25.75643
C         49.36767      -16.07902       26.67362
O         48.69739      -16.01780       27.69344
H         50.49433      -14.71238       25.45410
H         48.83793      -15.08034       24.84200
H         49.06033      -13.97569       26.25831
N         50.06455      -17.20642       26.36799
C         50.05677      -18.41433       27.19296
C         50.58519      -18.14634       28.60358
O         49.99973      -18.62146       29.56505
C         50.91053      -19.49710       26.50340
C         50.71433      -20.85001       27.12489
O         51.75662      -21.50346       27.66976
O         49.61164      -21.37526       27.10827
H         50.63188      -17.20039       25.50477
H         49.01016      -18.79142       27.24599
H         51.98271      -19.20110       26.53220
H         50.60605      -19.58467       25.43743
N         51.66631      -17.33189       28.78357
C         52.20230      -16.93106       30.08485
C         51.14097      -16.31249       30.98044
O         51.10635      -16.57732       32.17603
C         52.99440      -18.05474       30.75906
H         52.09311      -16.90001       27.95065
H         52.93739      -16.12005       29.87904
H         53.48626      -17.66721       31.67918
H         52.33791      -18.90582       31.02990
H         53.79376      -18.40889       30.07381
N         50.25888      -15.42823       30.44516
C         49.32781      -14.61309       31.21082
C         48.33844      -15.43198       32.05139
O         48.01791      -15.02851       33.16114
C         50.13826      -13.58136       32.04165
C         51.26713      -12.97293       31.23375
O         52.54496      -13.20599       31.59156
O         51.03779      -12.32283       30.22832
H         50.29588      -15.26021       29.43000
H         48.72854      -14.05460       30.46346
H         50.60532      -14.10087       32.90421
H         49.47330      -12.78420       32.43953
N         47.84531      -16.62247       31.59158
C         46.96163      -17.46626       32.39305
C         45.55049      -16.92574       32.52729
O         45.13137      -16.12002       31.71019
H         48.17476      -16.98457       30.68617
H         47.41484      -17.62645       33.39576
H         46.87591      -18.46898       31.92063
N         44.75231      -17.36906       33.55049
C         43.36135      -16.95707       33.78189
C         42.40305      -17.47474       32.71811
O         41.35024      -16.88679       32.51364
C         43.25297      -15.43627       34.01335
C         44.10015      -15.04101       35.19378
N         45.21530      -14.29575       35.02337
O         43.79031      -15.42266       36.31269
H         45.16341      -18.02667       34.22995
H         43.01603      -17.44769       34.71848
H         42.20211      -15.13569       34.22006
H         43.57203      -14.89594       33.10002
H         45.50728      -13.99490       34.08271
H         45.80397      -14.05126       35.83306
N         42.67878      -18.63133       32.05380
C         41.80822      -19.17829       31.02602
C         42.19784      -18.68144       29.66164
O         41.78151      -19.28311       28.67739
H         43.56826      -19.11937       32.23114
H         40.72997      -19.00839       31.23031
H         41.96704      -20.27931       31.03114
N         43.02448      -17.60580       29.51502
C         43.57649      -17.20444       28.24174
C         43.19410      -15.78733       27.89766
O         42.83730      -15.00861       28.77740
C         45.12418      -17.28085       28.32682
C         45.61696      -18.63654       28.83277
O         45.69268      -17.03568       27.06565
H         43.32284      -17.07399       30.34116
H         43.21665      -17.88089       27.43394
H         45.48068      -16.52499       29.07270
H         46.18017      -16.17330       27.12203
H         45.23152      -19.45327       28.18931
H         46.72730      -18.65460       28.83132
H         45.27893      -18.80566       29.87826
N         43.34302      -15.36153       26.61914
C         43.25842      -13.95743       26.23486
C         44.33623      -13.15325       26.94126
O         45.28176      -13.71901       27.47408
C         43.31796      -13.73836       24.67924
C         44.39550      -14.62508       23.96752
C         41.90933      -13.97635       24.10866
C         44.58406      -14.36139       22.47357
H         43.56745      -16.07881       25.92345
H         42.29128      -13.55654       26.61819
H         43.55169      -12.66768       24.48262
H         44.11073      -15.69212       24.01544
H         45.38341      -14.49912       24.46349
H         41.20213      -13.25606       24.57550
H         41.85823      -13.78800       23.02002
H         41.55995      -15.00675       24.32666
H         45.05484      -13.37363       22.30258
H         45.24685      -15.15095       22.05384
H         43.62884      -14.42628       21.91813
N         44.17261      -11.80988       27.07689
C         45.06833      -10.97475       27.86811
C         44.51369      -10.78659       29.33626
O         44.77269       -9.49360       29.81526
C         45.30807       -9.66988       27.07163
C         46.54943       -8.91855       27.46928
O         47.36516       -9.39095       28.42645
O         46.85983       -7.90504       26.86575
H         43.31171      -11.38185       26.70171
H         46.04974      -11.48355       27.95155
H         44.41162       -9.01570       27.14117
H         45.45976       -9.93610       26.00314
N         43.06914      -11.06124       29.42390
C         42.48452      -11.07948       30.78077
C         41.08674      -10.46550       30.75347
O         40.83257       -9.64085       31.62042
C         42.41875      -12.51032       31.41197
C         41.64172      -12.54435       32.72514
C         40.29891      -12.97054       32.72286
C         42.22574      -12.14409       33.94332
C         39.55084      -12.97874       33.90352
C         41.47344      -12.17333       35.12951
C         40.13649      -12.58230       35.10594
H         42.91390      -12.00994       29.02780
H         43.09359      -10.46287       31.48109
H         43.43350      -12.93852       31.55831
H         41.90410      -13.19236       30.70679
H         39.82543      -13.27599       31.80011
H         43.25854      -11.82391       33.97926
H         38.51363      -13.29027       33.88429
H         41.92265      -11.87528       36.06893
H         39.55231      -12.59211       36.01907
N         40.08762      -10.82913       29.87204
C         40.19557      -11.70283       28.70852
C         40.37283      -10.85904       27.42041
O         40.10051      -11.35196       26.33576
C         38.79576      -12.33100       28.72711
C         37.90670      -11.13252       29.04052
C         38.71797      -10.40968       30.11446
H         40.90648      -12.54314       28.77482
H         38.51608      -12.89795       27.81334
H         38.74905      -13.03200       29.59261
H         37.86493      -10.50224       28.12611
H         36.86789      -11.37916       29.34782
H         38.57772       -9.30694       30.07418
H         38.42238      -10.79718       31.11276
N         40.77957       -9.55472       27.50072
C         40.72982       -8.57870       26.40655
C         41.44597       -9.02137       25.13939
O         42.61326       -9.37858       25.19681
C         41.34945       -7.25536       26.91736
C         41.12734       -6.05631       25.98742
C         41.86219       -4.85764       26.51896
O         43.08167       -4.86886       26.58678
O         41.18203       -3.76915       26.92540
H         41.07639       -9.20184       28.41872
H         39.65904       -8.38909       26.17096
H         42.43682       -7.42142       27.08513
H         40.88763       -6.98699       27.89420
H         40.03664       -5.84111       25.94215
H         41.49104       -6.26342       24.95963
N         40.80137       -8.95076       23.93645
C         41.42989       -9.29247       22.67435
H         42.47134       -9.65587       22.79611
H         40.83554      -10.08274       22.17071
H         41.44895       -8.39488       22.01829
H         39.83070       -8.60422       23.90474
Ca        46.67482       -9.44723       31.08210
O         45.75485      -11.77541       32.27318
H         45.99808      -12.32073       31.48362
H         46.57561      -11.75566       32.82638
O         48.07711      -11.62310       30.23838
H         48.94863      -11.18512       30.08840
H         47.84598      -12.03319       29.36956
O         48.26611       -8.76759       33.68174
H         49.02283       -8.90846       34.30401
H         47.71667       -8.06704       34.11490
O         46.44482       -6.58323       31.07585
H         47.09187       -6.10446       30.49998
H         45.82132       -5.88405       31.39470
O         49.33655       -8.21321       30.49222
H         49.34759       -8.14418       29.50507
H         50.20831       -7.84061       30.77461
O         45.18027       -8.50847       33.20047
H         44.97315       -7.58030       33.47280
H         44.80597       -9.07996       33.91567

Ca 1.70



