%chk=loop2.cluster79.chk
%nprocshared=48
%mem=10GB
%nosave
#b3lyp/svp scf=(tight,noincore) Test 
#IOP(5/87=12) Density=Current Pop=(MK,readradii) iop(6/33=2) iop(6/42=6)

loop2.cluster79 

   -2  1 
C         37.93807       45.61222       -0.03058
C         36.63897       45.85293        0.67830
O         36.53391       46.88390        1.32812
H         38.73954       45.48656        0.72559
H         37.93447       44.75217       -0.71903
H         38.16885       46.51179       -0.64138
N         35.56799       45.00953        0.61703
C         35.51074       43.68508       -0.01743
C         34.84515       42.66543        0.91186
O         34.01811       43.05012        1.72335
C         34.79811       43.73538       -1.39796
C         33.48646       44.48350       -1.42009
O         32.86671       44.59775       -2.46649
O         33.00177       45.01515       -0.28025
H         34.72844       45.33214        1.10495
H         36.52467       43.29129       -0.20579
H         34.61335       42.69158       -1.74638
H         35.48188       44.21585       -2.12641
N         35.21781       41.34227        0.85386
C         34.68591       40.23989        1.67417
C         33.29874       39.78928        1.21552
O         33.18338       38.69405        0.68262
C         34.83925       40.50553        3.17674
H         35.96225       41.09318        0.18676
H         35.32976       39.35567        1.46884
H         34.43826       39.65139        3.76125
H         35.92353       40.60048        3.40821
H         34.32992       41.43001        3.50990
N         32.22535       40.60866        1.30605
C         30.98399       40.37886        0.56954
C         31.04643       41.27737       -0.64001
O         31.39487       42.42368       -0.47879
C         29.71433       40.55486        1.45409
C         29.68760       41.63129        2.51364
O         30.46326       42.56870        2.49649
O         28.79647       41.53427        3.52030
H         32.35618       41.51568        1.75300
H         30.91366       39.34536        0.16895
H         29.60381       39.60759        2.01753
H         28.80203       40.64482        0.81946
N         30.87542       40.78467       -1.90452
C         31.00873       41.59710       -3.11351
C         29.76738       42.43214       -3.36213
O         29.06084       42.19262       -4.33110
H         30.69272       39.77768       -2.02302
H         31.12486       40.90514       -3.97487
H         31.92901       42.21827       -3.07137
N         29.42988       43.41078       -2.48751
C         28.19594       44.16410       -2.49921
C         28.48497       45.66472       -2.45075
O         27.58213       46.42330       -2.12114
C         27.37627       43.69837       -1.26237
C         28.13330       43.68111        0.08675
N         27.21359       43.33713        1.16240
O         28.70358       44.92042        0.37024
H         30.05798       43.61694       -1.71743
H         27.56242       43.95377       -3.39087
H         27.04782       42.65035       -1.44965
H         26.45748       44.31453       -1.16971
H         26.80848       42.38912        0.99598
H         27.74491       43.31995        2.05918
N         29.71971       46.17459       -2.76688
C         30.05126       47.58198       -2.55446
C         30.42672       47.78895       -1.10165
O         30.61139       46.80696       -0.42705
H         30.46109       45.54861       -3.11216
H         29.17850       48.20498       -2.84093
H         30.91928       47.87168       -3.18333
N         30.51728       48.98962       -0.47997
C         30.27694       50.27095       -1.11677
C         31.34319       51.30966       -0.74257
O         31.31356       52.40004       -1.30044
C         28.83954       50.71288       -0.73088
C         28.64942       51.00997        0.76610
O         28.45292       51.84127       -1.46696
H         30.64612       48.96246        0.54063
H         30.30834       50.13861       -2.21761
H         28.15286       49.86531       -0.97148
H         28.30157       51.53098       -2.39776
H         28.98821       50.17173        1.40935
H         29.19616       51.93063        1.05483
H         27.57011       51.16647        0.97708
N         32.28072       51.06363        0.22954
C         33.26522       52.01951        0.71970
C         32.61643       53.37778        1.01914
O         32.87312       54.32583        0.29514
C         34.52629       52.15045       -0.18807
C         34.95123       50.78981       -0.79589
C         35.66336       52.74666        0.68021
C         36.24372       50.87751       -1.61124
H         32.27999       50.16216        0.71982
H         33.67238       51.57761        1.65186
H         34.30685       52.82738       -1.04208
H         34.14345       50.45390       -1.48274
H         35.07927       50.01929       -0.00489
H         35.33904       53.67784        1.18808
H         35.96115       52.01619        1.46816
H         36.55701       52.99664        0.07753
H         36.17137       51.68651       -2.36890
H         37.11169       51.07172       -0.94688
H         36.42973       49.91369       -2.12765
N         31.73215       53.55911        2.04213
C         31.43204       52.55799        3.05811
C         32.63978       52.20616        3.92291
O         32.58408       51.22008        4.63869
C         30.30477       53.06397        3.99448
C         30.59363       54.37694        4.70429
O         29.67574       54.88797        5.54450
O         31.63469       54.98846        4.51713
H         31.27547       54.48425        2.10474
H         31.08186       51.63347        2.54986
H         30.10139       52.29070        4.76591
H         29.38078       53.20151        3.39498
N         33.73533       53.02325        3.95274
C         34.88396       52.77838        4.81854
C         34.45505       52.65413        6.27692
O         33.49453       53.31259        6.65212
C         35.94647       53.89227        4.63856
C         35.52235       55.30512        5.00132
C         34.95179       56.15229        4.03112
C         35.77943       55.81729        6.28694
C         34.64233       57.47935        4.34305
C         35.47245       57.14987        6.59092
C         34.90756       57.97973        5.61891
H         33.74256       53.85850        3.36512
H         35.34992       51.84032        4.47722
H         36.27914       53.89245        3.57910
H         36.85845       53.64656        5.21688
H         34.76290       55.79514        3.02813
H         36.23237       55.19133        7.04565
H         34.21123       58.12501        3.58838
H         35.68493       57.54464        7.57643
H         34.68358       59.01367        5.85084
N         35.12523       51.86223        7.18346
C         36.37209       51.15261        6.92384
C         36.31768       49.95706        5.98499
O         35.27339       49.64272        5.43016
C         36.81245       50.70129        8.32397
C         36.19852       51.76690        9.21654
C         34.81583       51.90796        8.59585
H         37.10816       51.89141        6.54854
H         36.31114       49.74029        8.58093
H         37.91135       50.57412        8.43261
H         36.19873       51.52006       10.29865
H         36.75351       52.71993        9.05705
H         34.19241       51.02224        8.85368
H         34.32076       52.84374        8.93383
N         37.46282       49.25104        5.76727
C         37.58910       48.15299        4.81568
C         39.06572       47.74140        4.67277
O         39.38252       46.57873        4.88337
C         36.68731       46.93808        5.20004
C         36.82227       46.52928        6.68010
C         36.13506       45.22410        6.96967
O         34.94033       45.09139        6.75750
O         36.83970       44.19667        7.48343
H         38.30277       49.53523        6.29082
H         37.28030       48.50086        3.80560
H         36.95002       46.08454        4.53369
H         35.61795       47.16520        5.00469
H         36.37243       47.32213        7.31608
H         37.89031       46.42482        6.95877
N         40.04099       48.61315        4.26745
C         39.83017       50.02286        3.99727
H         39.58956       50.57620        4.92541
H         40.77381       50.46764        3.61356
H         39.03604       50.17240        3.23862
H         40.99598       48.24541        4.13455
Ca        30.96151       44.64050        0.62065
O         33.17717       46.43847        2.65185
H         33.78730       45.84650        3.16137
H         33.73782       47.21533        2.40162
O         31.17801       44.75848        4.15938
H         30.45824       44.36911        4.71661
H         31.82000       45.13818        4.80981
O         29.61124       46.89257        2.35947
H         29.36877       47.12468        3.29002
H         28.85290       47.22210        1.81432

Ca 1.70



