%chk=loop2.cluster113.chk
%nprocshared=48
%mem=10GB
%nosave
#b3lyp/svp scf=(tight,noincore) Test 
#IOP(5/87=12) Density=Current Pop=(MK,readradii) iop(6/33=2) iop(6/42=6)

loop2.cluster113 

   -2  1 
C         78.62863       98.99034        3.23474
C         78.65871      100.48840        3.25694
O         79.08057      101.06443        4.24693
H         77.63226       98.65356        2.87771
H         79.41103       98.59182        2.55571
H         78.78069       98.58902        4.25883
N         78.17633      101.18705        2.19429
C         78.08351      102.64456        2.16152
C         76.62095      103.07911        2.06925
O         76.21315      103.96382        2.80762
C         78.93198      103.17653        0.99291
C         79.04083      104.67803        1.02203
O         80.21834      105.25850        1.32505
O         78.06698      105.37491        0.78621
H         77.84012      100.65182        1.38016
H         78.52039      103.09063        3.08363
H         78.54553      102.83653        0.00673
H         79.95673      102.76373        1.11859
N         75.77059      102.46286        1.19683
C         74.36954      102.81536        0.99289
C         73.51813      102.78124        2.26542
O         72.68612      103.65828        2.45954
C         74.27601      104.13007        0.20897
H         76.12805      101.68597        0.62647
H         73.94965      102.03016        0.32607
H         74.64194      104.98644        0.81236
H         74.90626      104.05041       -0.70495
H         73.23111      104.32107       -0.11353
N         73.67256      101.76783        3.17052
C         72.83091      101.57421        4.35649
C         72.71219      102.79895        5.25290
O         71.69835      102.95688        5.92251
C         71.46359      100.97995        3.95205
C         71.60249       99.60653        3.33467
O         70.69782       99.18264        2.63615
O         72.75590       98.89369        3.46740
H         74.42340      101.08136        3.00920
H         73.32109      100.81474        4.99401
H         70.95308      101.67404        3.24747
H         70.79518      100.85790        4.83334
N         73.73456      103.69380        5.34875
C         73.66653      104.83971        6.23474
C         73.81929      104.44587        7.69030
O         74.36962      103.39632        7.99158
H         74.56618      103.58155        4.75600
H         72.70825      105.38200        6.06323
H         74.48443      105.55089        5.99354
N         73.37771      105.29782        8.65267
C         73.46344      105.07315       10.09344
C         74.89309      104.93836       10.59736
O         75.15683      104.10155       11.45053
C         72.56793      103.90339       10.56670
C         71.19509      103.96000        9.94714
N         70.42037      105.06175       10.07226
O         70.78758      103.00460        9.30420
H         72.92230      106.17191        8.34576
H         73.06106      105.99754       10.56186
H         72.47869      103.94706       11.67609
H         73.03635      102.92917       10.30305
H         70.75228      105.88473       10.59431
H         69.49414      105.09641        9.62246
N         75.86588      105.77832       10.14600
C         77.20824      105.75784       10.70562
C         78.00168      104.49954       10.42075
O         79.06728      104.35457       11.00775
H         75.63992      106.48109        9.42745
H         77.13227      105.92868       11.80077
H         77.80023      106.59619       10.27797
N         77.60572      103.58671        9.48087
C         78.47198      102.49271        9.04240
C         77.90782      101.11410        9.31642
O         76.73857      100.96577        9.64978
C         78.80973      102.64034        7.53394
C         77.56725      102.57106        6.62768
O         79.46924      103.86297        7.32600
H         76.70757      103.72197        9.00266
H         79.43126      102.53248        9.60582
H         79.48533      101.79808        7.24661
H         80.17989      103.70125        6.65008
H         77.85855      102.71262        5.57026
H         77.06312      101.58578        6.72652
H         76.84161      103.37440        6.85559
N         78.74894      100.04721        9.21844
C         78.37231       98.66636        9.49507
C         77.31690       98.11466        8.55501
O         77.46893       98.17422        7.34349
C         79.59993       97.70882        9.50770
C         80.40450       97.72233        8.17270
C         80.47217       98.00326       10.73986
C         81.64885       96.84313        8.20922
H         79.73506      100.25222        9.00380
H         77.95359       98.63308       10.52557
H         79.20752       96.67802        9.66678
H         80.74567       98.74145        7.90342
H         79.75786       97.35690        7.34940
H         79.84508       98.00097       11.65845
H         81.21924       97.19561       10.88167
H         80.98599       98.98088       10.65360
H         82.13379       96.84872        7.21096
H         82.38268       97.24885        8.93695
H         81.37894       95.80323        8.48364
N         76.23815       97.48851        9.09572
C         75.17671       96.81322        8.35556
C         74.10308       96.43076        9.34950
O         74.39837       95.76155       10.33432
C         75.65115       95.53585        7.62774
C         74.47287       94.72713        7.08750
O         73.61710       95.18066        6.12659
O         74.26321       93.62478        7.57134
H         76.17732       97.47923       10.12665
H         74.74662       97.49553        7.60198
H         76.18357       94.90110        8.37644
H         76.37394       95.75986        6.81688
N         72.81772       96.78394        9.11846
C         71.72319       96.43893        9.99913
C         70.92039       97.71305       10.26383
O         69.84954       97.86404        9.67929
C         70.90423       95.33769        9.28902
C         69.92123       94.65372       10.20624
C         68.54589       94.90815       10.10590
C         70.38178       93.71569       11.14819
C         67.64561       94.24159       10.94465
C         69.47852       93.04285       11.97554
C         68.11098       93.30736       11.87547
H         72.58961       97.25431        8.23291
H         72.08805       95.99605       10.94831
H         71.58841       94.54152        8.91673
H         70.40898       95.75875        8.38751
H         68.17432       95.62433        9.38498
H         71.43673       93.48935       11.22016
H         66.58589       94.44440       10.86853
H         69.83801       92.31088       12.68835
H         67.41144       92.78433       12.51482
N         71.36899       98.71862       11.08280
C         72.58212       98.66055       11.88390
C         72.46216       97.63943       13.00103
O         71.48585       97.63422       13.73524
C         72.72419      100.09773       12.40606
C         71.29345      100.59792       12.47111
C         70.66329       99.97304       11.22829
H         73.48169       98.45082       11.27001
H         73.31622      100.20339       13.34254
H         73.22545      100.69506       11.61233
H         70.82302      100.13256       13.36312
H         71.18017      101.70153       12.54817
H         69.57052       99.85480       11.39709
H         70.84908      100.57688       10.31282
N         73.48485       96.75820       13.19387
C         73.48711       95.73590       14.23354
C         74.87199       95.13380       14.34371
O         75.40060       94.64925       13.35218
C         72.49827       94.59653       13.90600
C         72.53598       93.41096       14.90179
C         72.06508       93.76713       16.28679
O         72.78054       94.60069       17.06432
O         71.04680       93.26200       16.72949
H         74.31875       96.85447       12.59909
H         73.21230       96.20421       15.20101
H         72.77573       94.19111       12.91032
H         71.45941       94.98316       13.84300
H         73.55585       92.96898       14.96699
H         71.87346       92.61852       14.49537
N         75.48964       95.08382       15.55498
C         76.75591       94.41789       15.76086
H         77.49719       95.15539       16.12510
H         76.61993       93.62522       16.52735
H         77.14037       93.93694       14.83737
H         75.02825       95.49873       16.37608
Ca        73.21260       96.93189        4.65550
O         72.56023       98.84524        6.42249
H         73.49497       99.09838        6.62361
H         72.02093       99.29777        7.11400
O         75.60023       98.20986        4.85794
H         75.67721       98.55161        5.78093
H         76.19267       97.41756        4.82841
O         73.18114       93.65892        3.88290
H         73.70087       93.04448        3.30797
H         72.95573       93.11911        4.68235
O         71.02241       96.17271        2.44470
H         71.09456       96.98465        1.88738
H         70.08097       95.88928        2.33460
O         70.21867       96.54046        5.27649
H         69.49962       96.00602        4.85477
H         69.79778       97.41512        5.47075

Ca 1.70



