%chk=loop2.cluster71.chk
%nprocshared=48
%mem=10GB
%nosave
#b3lyp/svp scf=(tight,noincore) Test 
#IOP(5/87=12) Density=Current Pop=(MK,readradii) iop(6/33=2) iop(6/42=6)

loop2.cluster71 

   -2  1 
C         63.82254       57.98047       17.06867
C         62.75285       58.55948       17.93935
O         63.01477       59.51043       18.66093
H         64.70000       57.72682       17.69906
H         63.47020       57.04780       16.57817
H         64.11699       58.71190       16.28986
N         61.50156       58.03267       17.91625
C         60.45454       58.47749       18.81510
C         60.75315       57.98787       20.22621
O         60.94496       56.79853       20.43623
C         59.09608       57.98514       18.30790
C         58.04138       58.20816       19.32630
O         57.42715       57.25733       19.75095
O         57.82440       59.42158       19.83971
H         61.29108       57.27810       17.24466
H         60.38718       59.58831       18.79907
H         59.12713       56.89782       18.08846
H         58.83402       58.53239       17.37551
N         60.77254       58.88247       21.24657
C         61.08407       58.54651       22.62738
C         59.83100       58.23667       23.43416
O         59.89368       57.43216       24.35265
C         61.79687       59.75652       23.25250
H         60.55260       59.86017       21.02961
H         61.79470       57.69235       22.67713
H         61.13474       60.65183       23.24004
H         62.09072       59.54994       24.30222
H         62.71145       60.00030       22.66885
N         58.68482       58.93450       23.20883
C         57.49296       58.84445       24.05522
C         56.78654       57.49781       23.95402
O         56.19253       57.05085       24.92557
C         56.50709       59.95830       23.63732
C         57.16467       61.32098       23.69087
O         57.44814       62.04989       22.57987
O         57.50835       61.76401       24.77437
H         58.68213       59.61584       22.43685
H         57.79398       59.02319       25.11271
H         55.63493       59.96201       24.33245
H         56.13953       59.75234       22.61258
N         56.73398       56.85303       22.76160
C         56.09138       55.56847       22.55197
C         54.75970       55.65457       21.83348
O         53.89430       54.84715       22.14145
H         57.23008       57.27297       21.97774
H         55.97394       54.99387       23.49729
H         56.76780       54.95226       21.92044
N         54.51123       56.58258       20.85741
C         53.27584       56.55929       20.06746
C         53.52399       56.63957       18.54914
O         52.56161       56.68888       17.79636
C         52.28619       57.63147       20.57496
C         52.59649       59.05247       20.20769
N         51.72052       60.03426       20.52691
O         53.61342       59.32042       19.59282
H         55.19366       57.33395       20.69000
H         52.74483       55.60088       20.24147
H         52.19771       57.55019       21.68179
H         51.29167       57.40159       20.13770
H         50.85125       59.81255       21.03619
H         51.89973       61.00942       20.24610
N         54.78803       56.63944       18.03121
C         55.08319       56.73628       16.61161
C         54.70909       58.08417       16.05897
O         53.94617       58.15678       15.10567
H         55.58343       56.53243       18.65674
H         54.58706       55.91206       16.05806
H         56.18318       56.62858       16.46847
N         55.25723       59.20735       16.60037
C         55.02547       60.54514       16.05194
C         56.24472       61.40514       16.33863
O         56.92646       61.17199       17.32867
C         53.71385       61.17508       16.59849
C         53.22173       62.34023       15.73426
O         52.67845       60.23061       16.61006
H         55.92698       59.08057       17.37384
H         54.95727       60.43740       14.94516
H         53.88612       61.54528       17.63660
H         52.84286       59.63543       17.38182
H         53.96138       63.15937       15.65088
H         52.97572       61.96316       14.71588
H         52.28781       62.75413       16.17284
N         56.62598       62.37707       15.47076
C         57.92109       63.02845       15.57568
C         57.80512       64.44410       16.11828
O         57.09119       65.26627       15.56547
C         58.66298       62.93323       14.21054
C         58.99196       61.46505       13.80698
C         59.93640       63.79155       14.19779
C         59.81693       60.66054       14.82202
H         56.02566       62.60128       14.66322
H         58.56654       62.49529       16.30046
H         58.01384       63.34933       13.40869
H         59.55844       61.49485       12.85052
H         58.05295       60.90372       13.61602
H         59.65669       64.86563       14.23900
H         60.58939       63.55183       15.05389
H         60.50682       63.64299       13.25877
H         59.22552       60.44631       15.73601
H         60.09444       59.68163       14.37676
H         60.74969       61.18968       15.09803
N         58.59955       64.79332       17.17529
C         58.78887       66.14824       17.66884
C         60.06851       66.70270       17.06080
O         60.69654       66.02498       16.27408
C         58.93366       66.12188       19.20614
C         57.70243       65.63343       19.89992
O         57.77101       64.56987       20.71712
O         56.64775       66.23259       19.77362
H         59.23824       64.08888       17.54653
H         57.95012       66.80725       17.36004
H         59.13860       67.13976       19.59226
H         59.79607       65.47158       19.48376
N         60.47922       67.96727       17.35149
C         61.64606       68.57725       16.71302
C         62.99134       67.96355       17.11678
O         63.75324       67.64151       16.20950
C         61.57873       70.10338       16.86309
C         62.66830       70.81586       16.09825
C         62.90606       70.53376       14.73643
C         63.44543       71.78993       16.74185
C         63.91517       71.20291       14.04542
C         64.43955       72.47317       16.03702
C         64.67794       72.17584       14.69231
H         59.89536       68.54390       17.97088
H         61.52461       68.39907       15.62527
H         61.57936       70.39668       17.93237
H         60.60499       70.42527       16.43363
H         62.32473       69.79322       14.20547
H         63.26838       72.03140       17.78264
H         64.10053       70.96851       13.00507
H         65.02425       73.23475       16.53402
H         65.45121       72.70155       14.14973
N         63.38374       67.72975       18.41200
C         64.60055       67.00651       18.73562
C         64.63836       65.61428       18.10348
O         65.70004       65.16709       17.70106
C         64.64788       66.95069       20.26750
C         63.35964       67.60613       20.77242
C         62.64417       68.19387       19.56193
H         65.48208       67.58296       18.36996
H         64.72388       65.91332       20.66782
H         65.53161       67.51922       20.62898
H         62.71507       66.80176       21.18778
H         63.53446       68.35556       21.57728
H         61.59281       67.84863       19.56689
H         62.69502       69.30095       19.58350
N         63.48947       64.89798       17.96212
C         63.42363       63.59406       17.28779
C         63.68212       63.74361       15.79161
O         64.25362       62.84732       15.18529
C         62.03228       62.95840       17.54167
C         61.84940       62.71881       19.05175
C         60.50962       62.30512       19.59009
O         59.40434       62.11355       18.84722
O         60.40362       62.20629       20.79977
H         62.61828       65.31245       18.31970
H         64.18132       62.90390       17.72224
H         61.93200       61.99427       16.99986
H         61.27775       63.66352       17.16983
H         62.05733       63.65899       19.59634
H         62.59951       61.96986       19.37703
N         63.31315       64.87948       15.14169
C         63.55777       65.11829       13.73865
H         64.63908       65.01284       13.51434
H         62.96085       64.41853       13.12025
H         63.25295       66.15962       13.48594
H         62.85871       65.61793       15.67147
Ca        57.64871       61.91224       20.29318
O         55.36274       63.64414       18.55820
H         55.55766       64.55602       18.22977
H         54.39736       63.66485       18.77491
O         54.96396       61.82322       20.99755
H         54.55198       61.60090       21.86789
H         54.97344       60.97018       20.50179

Ca 1.70



