%chk=loop2.cluster149.chk
%nprocshared=48
%mem=10GB
%nosave
#b3lyp/svp scf=(tight,noincore) Test 
#IOP(5/87=12) Density=Current Pop=(MK,readradii) iop(6/33=2) iop(6/42=6)

loop2.cluster149 

   -2  1 
C         63.74520       57.95276       16.61567
C         62.64373       58.45611       17.48549
O         62.84256       59.41406       18.22001
H         64.62782       57.73947       17.25172
H         63.43979       57.00701       16.11950
H         63.99734       58.70518       15.84216
N         61.42978       57.85111       17.44532
C         60.34925       58.23889       18.32034
C         60.64783       57.80382       19.75328
O         60.67163       56.61087       20.01739
C         59.04394       57.61319       17.80208
C         57.91951       57.95155       18.69693
O         57.13991       57.09044       19.04551
O         57.91820       59.13409       19.31387
H         61.26518       57.10875       16.74897
H         60.23429       59.33537       18.26203
H         59.13789       56.50815       17.73915
H         58.82128       58.00559       16.78456
N         60.89628       58.72763       20.72899
C         61.19800       58.35001       22.11204
C         59.94109       58.08263       22.94520
O         60.06741       57.75456       24.11818
C         61.99668       59.47434       22.78330
H         60.94823       59.71966       20.46499
H         61.85918       57.45562       22.10112
H         62.89653       59.71382       22.17760
H         61.37719       60.39188       22.88336
H         62.33552       59.15615       23.79302
N         58.69639       58.22920       22.40559
C         57.44667       58.11797       23.15049
C         56.66154       56.87239       22.75143
O         55.63680       56.60103       23.36159
C         56.60573       59.37905       22.85031
C         57.36943       60.62865       23.21154
O         57.79661       61.50352       22.27228
O         57.63145       60.84978       24.38101
H         58.61850       58.46562       21.41807
H         57.65204       58.03986       24.24423
H         55.63974       59.35856       23.40327
H         56.37189       59.38385       21.76501
N         57.10941       56.04037       21.76539
C         56.48000       54.76843       21.45706
C         55.10926       54.80377       20.79381
O         54.57830       53.72623       20.56598
H         57.98732       56.25601       21.27588
H         56.41646       54.17905       22.39637
H         57.15211       54.21519       20.76482
N         54.48765       55.95966       20.40138
C         53.17197       55.94929       19.73945
C         53.26442       56.12351       18.21447
O         52.23456       56.14692       17.55408
C         52.24060       56.99978       20.38376
C         52.69499       58.41849       20.16990
N         52.96176       59.23187       21.21799
O         52.79604       58.84608       19.03504
H         54.96915       56.86111       20.52887
H         52.67592       54.96657       19.90074
H         52.14918       56.78983       21.46998
H         51.22714       56.90767       19.93535
H         52.88020       58.89182       22.18437
H         53.23749       60.21159       21.06215
N         54.47338       56.18734       17.59092
C         54.66288       56.31490       16.15537
C         54.49660       57.72820       15.65006
O         53.81829       57.91896       14.65086
H         55.31429       56.05142       18.14963
H         54.02453       55.59428       15.59659
H         55.71843       56.04753       15.94020
N         55.13293       58.77309       16.26194
C         55.03551       60.14417       15.75138
C         56.34543       60.90435       15.91525
O         57.16465       60.54150       16.74821
C         53.79240       60.85940       16.33495
C         53.54205       62.23500       15.72515
O         52.65501       60.08283       16.06113
H         55.67644       58.58372       17.11393
H         54.89404       60.07890       14.65310
H         53.91882       60.99952       17.43075
H         52.35328       59.67312       16.90694
H         54.36843       62.94090       15.93979
H         53.40990       62.12764       14.62745
H         52.61198       62.66338       16.15400
N         56.62541       61.95055       15.08196
C         57.90855       62.63335       15.06844
C         57.76247       64.05010       15.58483
O         57.15306       64.88684       14.93385
C         58.50893       62.57515       13.62871
C         58.81860       61.11820       13.18933
C         59.74954       63.46855       13.44795
C         59.85439       60.39297       14.06231
H         55.92142       62.23986       14.38795
H         58.61850       62.13700       15.75241
H         57.74681       62.97946       12.92336
H         59.19577       61.13688       12.14320
H         57.88238       60.51960       13.19082
H         59.49552       64.53142       13.63496
H         60.56910       63.17683       14.13024
H         60.10701       63.41178       12.39713
H         59.48553       60.25093       15.09770
H         60.04962       59.38490       13.64431
H         60.81706       60.94213       14.09088
N         58.36911       64.38208       16.76038
C         58.56042       65.74913       17.21224
C         59.78633       66.32063       16.51510
O         60.43322       65.61263       15.76928
C         58.77249       65.75720       18.74153
C         57.55555       65.26755       19.46783
O         57.64224       64.20785       20.28823
O         56.49073       65.84974       19.34269
H         58.86695       63.65169       17.27414
H         57.67322       66.36715       16.95617
H         58.98200       66.78372       19.10083
H         59.64458       65.11480       19.00508
N         60.13819       67.62282       16.69701
C         61.27763       68.23133       16.00578
C         62.63301       67.63533       16.38711
O         63.36945       67.29436       15.46590
C         61.27277       69.75360       16.19800
C         62.38792       70.41064       15.41647
C         62.44504       70.30209       14.01294
C         63.38433       71.13219       16.09113
C         63.48364       70.91025       13.30265
C         64.41875       71.74032       15.37535
C         64.46807       71.63086       13.98302
H         59.54402       68.21326       17.29345
H         61.12619       68.06222       14.91628
H         61.35561       69.98823       17.27659
H         60.30257       70.16092       15.84088
H         61.68957       69.74839       13.46959
H         63.35991       71.22008       17.16989
H         63.52446       70.82377       12.22421
H         65.18260       72.29668       15.90152
H         65.26953       72.10422       13.43149
N         63.08394       67.47398       17.67559
C         64.36457       66.85298       17.97371
C         64.44110       65.40062       17.51430
O         65.53666       64.88494       17.36538
C         64.51021       67.02186       19.49170
C         63.06895       67.13347       19.97566
C         62.37066       67.90597       18.85969
H         65.18645       67.40076       17.45936
H         65.11543       66.24359       20.00810
H         64.97654       68.01338       19.67393
H         62.64257       66.10703       19.98559
H         62.94227       67.58310       20.98583
H         61.29909       67.63733       18.87928
H         62.51438       69.00171       18.96618
N         63.30881       64.69712       17.24689
C         63.32523       63.34646       16.68797
C         63.53658       63.40688       15.18255
O         64.14010       62.50421       14.61773
C         61.98975       62.65580       17.00131
C         61.75339       62.61431       18.52438
C         60.43883       62.02255       18.90734
O         59.66742       61.59841       18.06337
O         60.09630       61.98358       20.20606
H         62.39904       65.13362       17.43822
H         64.12205       62.73601       17.17062
H         61.99774       61.62062       16.59395
H         61.16507       63.21762       16.51585
H         61.75732       63.63997       18.94604
H         62.56430       62.03607       19.01504
N         63.07526       64.47257       14.47322
C         63.27119       64.63975       13.05444
H         64.35139       64.58413       12.80930
H         62.69993       63.87219       12.49590
H         62.90045       65.64641       12.75410
H         62.57891       65.21262       14.96568
Ca        57.38862       61.53879       20.04675
O         55.16843       62.99464       18.62585
H         54.98956       63.95475       18.47745
H         54.39088       62.68632       19.15400
O         55.48474       59.90253       19.11384
H         54.69707       60.35815       19.47811
H         55.48804       59.01628       19.54944
O         55.16312       62.26698       21.57039
H         54.22750       62.39268       21.85788
H         55.69617       62.76344       22.23895

Ca 1.70



