%chk=loop2.cluster130.chk
%nprocshared=48
%mem=10GB
%nosave
#b3lyp/svp scf=(tight,noincore) Test 
#IOP(5/87=12) Density=Current Pop=(MK,readradii) iop(6/33=2) iop(6/42=6)

loop2.cluster130 

   -2  1 
C         84.23517       78.04249        3.06423
C         84.26340       76.62710        3.58518
O         85.06980       76.37726        4.46962
H         85.27342       78.33129        2.79505
H         83.62286       78.21958        2.16838
H         83.89106       78.72369        3.87156
N         83.43062       75.62429        3.16366
C         82.29365       75.75918        2.24512
C         82.25484       74.67133        1.12654
O         83.10310       73.58823        1.38835
C         80.94865       75.76150        3.00948
C         80.69308       74.67420        4.01659
O         81.54854       73.86079        4.30677
O         79.51454       74.64728        4.66361
H         83.57106       74.70729        3.60909
H         82.27038       76.74414        1.75712
H         80.12766       75.74376        2.25751
H         80.86899       76.71580        3.57078
N         82.53331       75.23698       -0.21280
C         81.96472       74.45990       -1.33647
C         80.54765       73.95281       -1.03748
O         79.69453       74.76328       -0.70104
C         82.96278       73.37541       -1.74950
H         82.12991       76.19878       -0.28906
H         81.88840       75.14427       -2.21387
H         83.07925       72.62160       -0.94602
H         82.62655       72.87369       -2.68221
H         83.95221       73.83737       -1.94506
N         80.22624       72.62671       -1.13881
C         78.92281       72.10241       -0.73894
C         78.75117       72.17753        0.76985
O         79.71347       72.40144        1.48326
C         78.69468       70.63780       -1.22365
C         79.81331       69.66034       -0.95574
O         79.65801       68.68549       -0.04251
O         80.80423       69.65676       -1.67053
H         80.92786       71.97381       -1.48998
H         78.12808       72.72508       -1.20564
H         78.52248       70.62523       -2.31934
H         77.76639       70.24795       -0.75342
N         77.52637       71.96231        1.32268
C         77.32214       71.94420        2.76452
C         75.92685       71.45852        3.10231
O         74.96549       71.92927        2.51154
H         76.72532       71.80249        0.69453
H         77.50768       72.95421        3.18842
H         78.04969       71.23849        3.21736
N         75.75796       70.47520        4.03656
C         74.47372       69.83303        4.30660
C         74.06491       69.97232        5.75539
O         74.85383       69.66181        6.63779
C         74.58843       68.32795        4.02049
C         74.95959       68.03836        2.59300
N         74.15386       68.42858        1.57885
O         75.99258       67.43305        2.35000
H         76.58498       70.13110        4.54769
H         73.66896       70.24802        3.66207
H         73.61242       67.84065        4.23770
H         75.35377       67.88536        4.69817
H         73.27536       68.93243        1.76836
H         74.40904       68.21877        0.60330
N         72.79796       70.36493        6.07162
C         72.31935       70.39467        7.44089
C         72.11185       69.00597        8.01091
O         72.29705       68.02660        7.30159
H         72.14446       70.63247        5.32131
H         71.32686       70.89068        7.46771
H         73.03905       70.97213        8.05886
N         71.72145       68.82005        9.30294
C         71.52876       69.90479       10.26776
C         72.64458       69.92201       11.30119
O         72.65257       70.82154       12.12569
C         70.11398       69.80807       10.88622
C         69.07022       70.27715        9.86585
O         69.85117       68.48256       11.28020
H         71.60776       67.84744        9.63690
H         71.61467       70.90330        9.79824
H         70.03509       70.49462       11.76287
H         69.31560       68.51613       12.11500
H         69.19272       71.37181        9.70383
H         69.19571       69.76387        8.88938
H         68.04228       70.09840       10.24236
N         73.65174       68.99516       11.27196
C         74.84075       68.99808       12.11978
C         74.49506       69.18136       13.59011
O         74.31846       70.31433       14.01822
C         75.95068       69.96278       11.61436
C         76.15875       69.86649       10.07542
C         77.26200       69.68308       12.37583
C         76.57203       68.48851        9.54206
H         73.60463       68.23159       10.58572
H         75.27945       68.00411       11.96914
H         75.64310       71.01330       11.81440
H         76.92548       70.60626        9.75581
H         75.20724       70.15648        9.58086
H         77.12613       69.86666       13.46282
H         77.57170       68.62284       12.24839
H         78.08031       70.33775       12.01349
H         77.59433       68.22229        9.87916
H         75.86505       67.69361        9.85041
H         76.56621       68.51332        8.43243
N         74.30841       68.13386       14.43618
C         74.50478       66.73772       14.06469
C         75.97176       66.41825       13.87391
O         76.34622       65.97159       12.79317
C         73.80972       65.76930       15.06345
C         73.95683       65.96214       16.56153
O         73.23887       65.17856       17.38578
O         74.64253       66.84796       17.04164
H         73.97182       68.35653       15.38048
H         73.98361       66.53499       13.09963
H         74.10416       64.72660       14.80535
H         72.72152       65.86195       14.87120
N         76.86016       66.57569       14.89157
C         78.22214       66.09355       14.81289
C         78.25909       64.67824       15.38183
O         77.27139       64.27679       15.99965
C         79.17354       67.09384       15.51684
C         78.96441       67.22795       17.01260
C         78.18562       68.27977       17.52581
C         79.58587       66.33517       17.90713
C         78.02486       68.43234       18.90663
C         79.43188       66.50124       19.28967
C         78.65118       67.54785       19.78782
H         76.52298       66.90865       15.79608
H         78.51347       66.08959       13.74981
H         79.01600       68.08371       15.03688
H         80.24067       66.87636       15.33672
H         77.70112       68.97753       16.85496
H         80.20433       65.52718       17.53671
H         77.42061       69.24256       19.29385
H         79.92372       65.82370       19.97677
H         78.53502       67.67701       20.85697
N         79.32410       63.83591       15.23965
C         80.53230       64.12419       14.47510
C         80.30669       64.41675       12.99961
O         79.20099       64.25826       12.50153
C         81.31453       62.80874       14.58537
C         80.88219       62.27313       15.93390
C         79.38735       62.56928       15.92826
H         81.06231       64.95074       14.97758
H         80.91685       62.08018       13.84125
H         82.40835       62.91560       14.42980
H         81.13985       61.21173       16.13174
H         81.36034       62.91476       16.70865
H         78.78795       61.82196       15.36228
H         79.03958       62.62956       16.98541
N         81.37064       64.77913       12.22307
C         81.26317       64.99173       10.78508
C         82.14059       66.16208       10.28490
O         82.61120       66.07817        9.15770
C         81.73061       63.70063       10.07248
C         80.87270       62.46255       10.34754
C         81.44409       61.30839        9.57669
O         82.10801       60.33105       10.22139
O         81.36594       61.28582        8.35805
H         82.30173       64.82592       12.65741
H         80.21009       65.17744       10.46985
H         82.77513       63.48531       10.39666
H         81.72074       63.85952        8.97350
H         79.81336       62.62445       10.04495
H         80.89791       62.22528       11.42943
N         82.38370       67.31290       10.98042
C         81.86479       67.63361       12.28941
H         80.80130       67.34062       12.38608
H         82.51032       67.19920       13.08252
H         81.90852       68.73736       12.41530
H         82.96033       68.03413       10.51816
Ca        82.07414       71.92614        2.61261
O         80.21657       69.56578        3.20993
H         80.31853       69.29859        2.26510
H         79.52123       68.96119        3.57079
O         83.42841       68.86996        3.07437
H         84.02596       68.36111        2.47055
H         82.74809       68.21116        3.36268
O         80.14637       71.47647        5.20208
H         79.28863       71.02217        5.39051
H         80.06551       72.34524        5.66456
O         84.85467       72.07459        2.93926
H         85.54671       71.91956        3.62683
H         85.27674       72.69089        2.28997
O         83.13533       71.44314        5.52418
H         83.01642       70.71268        6.18167
H         83.93357       71.93683        5.83889
O         82.99044       70.41089        0.56585
H         82.26170       69.80736        0.28670
H         83.81436       69.98678        0.22488

Ca 1.70



