%chk=loop2.cluster198.chk
%nprocshared=48
%mem=10GB
%nosave
#b3lyp/svp scf=(tight,noincore) Test 
#IOP(5/87=12) Density=Current Pop=(MK,readradii) iop(6/33=2) iop(6/42=6)

loop2.cluster198 

   -2  1 
C          3.65948        9.80150       24.94277
C          3.50475       11.06995       25.73708
O          2.56631       11.81870       25.50530
H          4.59948        9.27290       25.21391
H          2.80872        9.12265       25.15502
H          3.69773       10.02422       23.85605
N          4.41140       11.36914       26.70754
C          4.37191       12.58534       27.52021
C          3.20337       12.62769       28.51216
O          3.05884       13.62813       29.20150
C          5.71770       12.66782       28.27832
C          5.91312       13.91130       29.09414
O          6.16802       13.81394       30.41312
O          5.87699       15.00900       28.56252
H          5.19276       10.71048       26.85000
H          4.30089       13.46109       26.83600
H          6.53669       12.62904       27.52783
H          5.81141       11.77853       28.94113
N          2.34271       11.57814       28.65293
C          1.27368       11.55149       29.64286
C          1.47447       10.31553       30.49790
O          1.45758        9.22426       29.94408
C         -0.07253       11.51056       28.92962
H          2.45740       10.74331       28.06368
H          1.26989       12.46826       30.25774
H         -0.89295       11.41164       29.66805
H         -0.21032       12.45896       28.36780
H         -0.11472       10.66213       28.21388
N          1.74891       10.36324       31.83427
C          1.85128       11.59195       32.63036
C          2.61129       11.30994       33.92417
O          2.92943       10.16588       34.15559
C          0.44378       12.15589       32.95634
C          0.49401       13.65257       33.06793
O          0.39967       14.26060       34.26187
O          0.65064       14.32644       32.06322
H          1.98905        9.46170       32.26851
H          2.47117       12.30785       32.05427
H          0.06476       11.68705       33.89430
H         -0.30265       11.91785       32.16682
N          2.97643       12.29534       34.79559
C          3.73418       12.03151       36.02682
C          5.06579       11.35155       35.72207
O          5.69689       11.75736       34.75699
H          2.74130       13.27147       34.57093
H          3.11654       11.43891       36.73076
H          3.94754       13.01112       36.50464
N          5.57815       10.29700       36.44467
C          5.12037        9.86289       37.77317
C          4.22946        8.61579       37.71277
O          4.17861        7.83392       38.65098
C          6.38149        9.62491       38.63851
C          6.15432        9.43031       40.11746
N          7.21199        9.17615       40.92070
O          5.03358        9.51489       40.59835
H          6.46099        9.88579       36.10006
H          4.53755       10.67924       38.24771
H          7.05172       10.50548       38.53896
H          6.91612        8.73566       38.23441
H          8.16087        9.10445       40.52338
H          7.08182        9.04882       41.93447
N          3.43119        8.43203       36.64157
C          2.40343        7.42009       36.53539
C          1.24346        7.70925       37.45465
O          0.50272        6.78860       37.77427
H          3.53478        9.07128       35.87678
H          2.81453        6.39779       36.65318
H          1.97496        7.48454       35.50737
N          0.90780        9.00096       37.74799
C         -0.36657        9.36363       38.33748
C         -1.22273        9.80760       37.18884
O         -0.95461       10.84732       36.60073
C         -0.19439       10.41949       39.45863
C         -1.50561       11.12688       39.83231
O          0.32132        9.77278       40.59565
H          1.49011        9.76648       37.37454
H         -0.86451        8.47637       38.78956
H          0.49842       11.22474       39.11005
H          1.13163       10.26522       40.88593
H         -2.31523       10.39795       40.03986
H         -1.35204       11.76813       40.72680
H         -1.82698       11.79562       39.00269
N         -2.20387        8.98017       36.73310
C         -3.04510        9.27899       35.58688
C         -4.50436        9.07129       35.93141
O         -4.81802        8.53877       36.99323
C         -2.64165        8.40491       34.36257
C         -1.25883        8.84781       33.83871
C         -2.67660        6.89995       34.70158
C         -0.80208        8.05748       32.61451
H         -2.32241        8.06309       37.19413
H         -2.93464       10.34942       35.30525
H         -3.36827        8.58569       33.54218
H         -0.48604        8.75653       34.63150
H         -1.33221        9.91711       33.54812
H         -3.67819        6.60842       35.07528
H         -2.48427        6.28179       33.80344
H         -1.90983        6.64456       35.46322
H         -0.63554        6.99187       32.85806
H         -1.52319        8.15424       31.78034
H          0.16044        8.43836       32.27051
N         -5.46137        9.51614       35.07676
C         -6.88423        9.41714       35.32845
C         -7.60947        8.90633       34.08107
O         -7.58607        9.59478       33.06972
C         -7.42700       10.83684       35.63331
C         -6.76835       11.53430       36.80796
O         -6.95500       11.10964       37.93460
O         -5.99852       12.63989       36.64715
H         -5.16127       10.02866       34.24224
H         -7.08329        8.75160       36.20104
H         -8.51758       10.76355       35.84245
H         -7.29444       11.46630       34.72889
N         -8.34012        7.75644       34.09504
C         -9.26731        7.39239       33.01331
C         -8.59700        7.19968       31.64818
O         -7.69252        6.38647       31.55875
C        -10.01347        6.09916       33.38488
C        -11.00866        5.66391       32.33266
C        -10.62272        4.74233       31.34364
C        -12.32474        6.15657       32.33886
C        -11.54068        4.31104       30.38427
C        -13.24335        5.71527       31.37895
C        -12.85218        4.79029       30.40594
H         -8.31629        7.17134       34.94706
H        -10.01746        8.20233       32.96215
H        -10.54043        6.23606       34.35378
H         -9.27112        5.28565       33.53715
H         -9.60972        4.36111       31.31725
H        -12.63879        6.87109       33.08950
H        -11.23535        3.59939       29.62817
H        -14.26035        6.08531       31.39200
H        -13.56489        4.44371       29.66888
N         -9.05333        7.84089       30.51395
C         -8.48567        7.63121       29.18232
C         -7.01604        8.00243       29.05916
O         -6.38766        7.66222       28.06560
C         -9.32614        8.57727       28.30627
C        -10.66270        8.57335       29.02117
C        -10.23987        8.66548       30.48280
H         -8.64414        6.56014       28.92659
H         -8.93844        9.61863       28.40837
H         -9.35756        8.31799       27.22680
H        -11.38503        9.35713       28.70951
H        -11.12555        7.57272       28.85334
H         -9.96472        9.69829       30.78883
H        -11.08447        8.27332       31.08305
N         -6.42081        8.74983       30.02485
C         -5.01487        9.12976       30.02199
C         -4.13441        7.89550       30.14277
O         -3.09972        7.83038       29.49557
C         -4.80942       10.13477       31.16117
C         -3.45451       10.85031       31.16240
C         -3.57331       12.04400       32.05786
O         -3.96143       11.84988       33.32193
O         -3.46231       13.17214       31.60910
H         -7.00585        9.08883       30.79631
H         -4.78824        9.66895       29.07611
H         -5.00396        9.64106       32.13274
H         -5.58984       10.91924       31.01912
H         -3.21911       11.20449       30.14003
H         -2.65875       10.16654       31.51286
N         -4.56091        6.82197       30.86631
C         -3.87079        5.55163       30.85888
H         -2.86957        5.64798       31.32149
H         -4.46698        4.80316       31.42711
H         -3.77716        5.18148       29.81439
H         -5.43735        6.88744       31.39104
Ca        -5.04015       13.22927       34.70439
O         -3.64770       15.38192       37.03832
H         -3.93087       15.56008       37.97016
H         -3.13406       16.18669       36.77552
O         -2.37664       13.21474       35.33923
H         -2.48710       12.60182       36.10414
H         -1.44674       13.52094       35.41556
O         -2.69081       15.52566       33.30911
H         -2.14451       14.86749       32.81261
H         -2.68750       16.32827       32.73050
O         -6.98586       14.20256       33.09945
H         -7.68192       14.85004       32.83047
H         -7.39071       13.30997       32.95719

Ca 1.70



