%chk=loop2.cluster86.chk
%nprocshared=48
%mem=10GB
%nosave
#b3lyp/svp scf=(tight,noincore) Test 
#IOP(5/87=12) Density=Current Pop=(MK,readradii) iop(6/33=2) iop(6/42=6)

loop2.cluster86 

   -2  1 
   C     82.94000000    54.65000000     8.30000000
   C     84.15000000    54.66000000     7.38000000
   O     85.08000000    55.42000000     7.67000000
   H     82.08300000    54.23700000     7.76800000
   H     83.15300000    54.03700000     9.17500000
   H     82.71400000    55.66900000     8.61600000
   N     84.24000000    53.78000000     6.38000000
   C     85.42000000    53.61000000     5.56000000
   C     85.46000000    54.46000000     4.30000000
   O     84.70000000    54.28000000     3.35000000
   C     85.75000000    52.14000000     5.34000000
   C     87.22000000    51.98000000     4.98000000
   O     87.91000000    51.08000000     5.51000000
   O     87.77000000    52.72000000     4.14000000
   H     83.41000000    53.26000000     6.14000000
   H     86.26000000    53.94000000     6.18000000
   H     85.15000000    51.65000000     4.58000000
   H     85.59000000    51.70000000     6.33000000
   N     86.34000000    55.47000000     4.27000000
   C     86.55000000    56.36000000     3.15000000
   C     87.49000000    55.95000000     2.02000000
   O     87.66000000    56.63000000     1.02000000
   C     86.77000000    57.81000000     3.58000000
   H     87.05000000    55.44000000     4.98000000
   H     85.60000000    56.45000000     2.63000000
   H     86.12000000    57.94000000     4.44000000
   H     87.79000000    57.91000000     3.95000000
   H     86.64000000    58.51000000     2.76000000
   N     88.13000000    54.78000000     2.12000000
   C     89.07000000    54.31000000     1.13000000
   C     88.94000000    52.84000000     0.76000000
   O     89.47000000    52.45000000    -0.28000000
   C     90.52000000    54.51000000     1.58000000
   C     90.69000000    53.87000000     2.95000000
   O     90.55000000    52.65000000     3.20000000
   O     90.96000000    54.55000000     3.96000000
   H     87.91000000    54.16000000     2.89000000
   H     88.86000000    54.76000000     0.15000000
   H     90.60000000    55.58000000     1.77000000
   H     91.21000000    54.02000000     0.89000000
   N     88.31000000    51.98000000     1.56000000
   C     88.05000000    50.61000000     1.17000000
   C     89.12000000    49.63000000     1.60000000
   O     88.95000000    48.49000000     1.18000000
   H     88.04000000    52.24000000     2.50000000
   H     87.94000000    50.58000000     0.08000000
   H     87.09000000    50.38000000     1.64000000
   N     90.19000000    50.07000000     2.28000000
   C     91.40000000    49.32000000     2.52000000
   C     91.32000000    48.32000000     3.67000000
   O     92.34000000    47.68000000     3.89000000
   C     92.51000000    50.30000000     2.88000000
   C     92.58000000    50.92000000     4.27000000
   N     93.62000000    51.72000000     4.51000000
   O     91.76000000    50.69000000     5.16000000
   H     90.23000000    51.06000000     2.50000000
   H     91.74000000    48.82000000     1.62000000
   H     92.52000000    51.09000000     2.13000000
   H     93.50000000    49.85000000     2.82000000
   H     94.01000000    52.12000000     3.67000000
   H     93.63000000    52.25000000     5.37000000
   N     90.14000000    47.96000000     4.18000000
   C     89.83000000    46.87000000     5.09000000
   C     90.23000000    47.07000000     6.54000000
   O     89.98000000    46.20000000     7.38000000
   H     89.37000000    48.58000000     3.97000000
   H     90.24000000    45.98000000     4.61000000
   H     88.75000000    46.76000000     5.17000000
   N     90.84000000    48.24000000     6.77000000
   C     91.31000000    48.67000000     8.07000000
   C     90.74000000    49.99000000     8.56000000
   O     90.44000000    50.79000000     7.68000000
   C     92.83000000    48.81000000     8.15000000
   C     93.28000000    47.37000000     8.37000000
   O     93.42000000    49.27000000     6.95000000
   H     90.65000000    48.96000000     6.09000000
   H     91.01000000    47.93000000     8.82000000
   H     93.09000000    49.38000000     9.04000000
   H     92.84000000    49.84000000     6.44000000
   H     93.05000000    46.73000000     7.52000000
   H     94.35000000    47.36000000     8.57000000
   H     92.85000000    46.99000000     9.29000000
   N     90.72000000    50.22000000     9.88000000
   C     90.45000000    51.49000000    10.52000000
   C     91.67000000    52.40000000    10.48000000
   O     92.59000000    52.08000000    11.23000000
   C     89.85000000    51.46000000    11.92000000
   C     88.79000000    50.36000000    11.98000000
   C     89.31000000    52.85000000    12.26000000
   C     88.06000000    50.25000000    13.32000000
   H     91.08000000    49.56000000    10.55000000
   H     89.67000000    51.94000000     9.91000000
   H     90.59000000    51.16000000    12.66000000
   H     89.34000000    49.43000000    11.90000000
   H     88.03000000    50.37000000    11.20000000
   H     88.46000000    53.13000000    11.63000000
   H     88.83000000    52.88000000    13.24000000
   H     90.12000000    53.58000000    12.25000000
   H     87.59000000    49.27000000    13.37000000
   H     88.71000000    50.36000000    14.18000000
   H     87.28000000    51.02000000    13.29000000
   N     91.52000000    53.57000000     9.85000000
   C     92.46000000    54.67000000     9.88000000
   C     92.05000000    55.67000000    10.95000000
   O     90.89000000    55.75000000    11.33000000
   C     92.75000000    55.17000000     8.47000000
   C     93.04000000    54.03000000     7.50000000
   O     92.06000000    53.52000000     6.91000000
   O     94.22000000    53.75000000     7.21000000
   H     90.63000000    53.69000000     9.38000000
   H     93.33000000    54.15000000    10.27000000
   H     93.58000000    55.86000000     8.60000000
   H     91.92000000    55.73000000     8.02000000
   N     92.98000000    56.45000000    11.52000000
   C     92.67000000    57.23000000    12.70000000
   C     91.61000000    58.30000000    12.45000000
   O     90.75000000    58.52000000    13.29000000
   C     93.98000000    57.74000000    13.29000000
   C     93.70000000    58.73000000    14.40000000
   C     94.13000000    60.06000000    14.45000000
   C     93.03000000    58.27000000    15.54000000
   C     93.89000000    60.87000000    15.56000000
   C     92.65000000    59.10000000    16.61000000
   C     93.12000000    60.42000000    16.64000000
   H     93.92000000    56.21000000    11.23000000
   H     92.14000000    56.58000000    13.39000000
   H     94.59000000    58.25000000    12.54000000
   H     94.57000000    56.89000000    13.62000000
   H     94.67000000    60.40000000    13.58000000
   H     92.94000000    57.21000000    15.68000000
   H     94.22000000    61.90000000    15.53000000
   H     92.19000000    58.66000000    17.47000000
   H     92.96000000    61.09000000    17.47000000
   N     91.56000000    58.94000000    11.27000000
   C     90.41000000    59.74000000    10.93000000
   C     89.09000000    58.99000000    10.76000000
   O     88.06000000    59.66000000    10.88000000
   C     90.73000000    60.41000000     9.60000000
   C     92.25000000    60.46000000     9.64000000
   C     92.58000000    59.10000000    10.26000000
   H     90.18000000    60.45000000    11.72000000
   H     90.36000000    59.81000000     8.76000000
   H     90.41000000    61.45000000     9.52000000
   H     92.68000000    60.60000000     8.65000000
   H     92.51000000    61.13000000    10.47000000
   H     92.46000000    58.28000000     9.56000000
   H     93.59000000    59.27000000    10.64000000
   N     89.08000000    57.67000000    10.61000000
   C     87.90000000    56.84000000    10.45000000
   C     87.50000000    56.37000000    11.84000000
   O     86.33000000    56.51000000    12.20000000
   C     88.17000000    55.64000000     9.55000000
   C     88.81000000    56.09000000     8.24000000
   C     88.84000000    54.90000000     7.29000000
   O     88.79000000    55.06000000     6.06000000
   O     89.07000000    53.77000000     7.79000000
   H     89.98000000    57.25000000    10.42000000
   H     87.09000000    57.44000000    10.05000000
   H     87.22000000    55.21000000     9.24000000
   H     88.77000000    54.89000000    10.06000000
   H     89.81000000    56.48000000     8.43000000
   H     88.19000000    56.91000000     7.88000000
   N     88.42000000    56.16000000    12.78000000
   C     88.21000000    56.07000000    14.21000000
   H     87.15900000    55.86400000    14.41000000
   H     88.82100000    55.26500000    14.61800000
   H     88.49000000    57.01300000    14.67900000
   H     89.40000000    56.14000000    12.54000000
  Ca     90.04000000    52.77000000     5.70000000

Ca 1.70



