%chk=loop2.cluster62.chk
%nprocshared=48
%mem=10GB
%nosave
#b3lyp/svp scf=(tight,noincore) Test 
#IOP(5/87=12) Density=Current Pop=(MK,readradii) iop(6/33=2) iop(6/42=6)

loop2.cluster62 

   -2  1 
   C     92.86000000    79.20000000    29.55000000
   C     94.28000000    78.89000000    30.01000000
   O     95.11000000    79.79000000    30.04000000
   H     92.22500000    79.36800000    30.42000000
   H     92.86600000    80.09400000    28.92700000
   H     92.47200000    78.35900000    28.97500000
   N     94.55000000    77.71000000    30.56000000
   C     95.81000000    77.31000000    31.15000000
   C     96.04000000    77.84000000    32.56000000
   O     96.37000000    77.12000000    33.50000000
   C     95.91000000    75.81000000    30.92000000
   C     97.29000000    75.17000000    31.06000000
   O     98.33000000    75.86000000    31.07000000
   O     97.37000000    73.92000000    31.03000000
   H     93.74000000    77.09000000    30.57000000
   H     96.62000000    77.78000000    30.60000000
   H     95.63000000    75.58000000    29.90000000
   H     95.15000000    75.37000000    31.57000000
   N     95.83000000    79.12000000    32.87000000
   C     95.84000000    79.81000000    34.14000000
   C     94.94000000    81.03000000    33.98000000
   O     94.64000000    81.51000000    32.89000000
   C     97.30000000    80.16000000    34.44000000
   H     95.44000000    79.72000000    32.15000000
   H     95.52000000    79.14000000    34.94000000
   H     97.60000000    80.90000000    33.70000000
   H     97.35000000    80.68000000    35.40000000
   H     97.95000000    79.29000000    34.40000000
   N     94.58000000    81.81000000    35.00000000
   C     94.87000000    81.73000000    36.42000000
   C     94.60000000    80.42000000    37.14000000
   O     93.81000000    79.56000000    36.76000000
   C     94.18000000    82.96000000    37.01000000
   C     94.54000000    84.27000000    36.34000000
   O     95.56000000    84.85000000    36.79000000
   O     93.83000000    84.73000000    35.42000000
   H     93.94000000    82.55000000    34.74000000
   H     95.93000000    81.96000000    36.53000000
   H     94.44000000    82.97000000    38.07000000
   H     93.09000000    82.89000000    36.97000000
   N     95.26000000    80.28000000    38.30000000
   C     95.25000000    79.04000000    39.04000000
   C     95.78000000    77.83000000    38.28000000
   O     96.70000000    77.89000000    37.46000000
   H     96.06000000    80.88000000    38.47000000
   H     94.28000000    78.91000000    39.52000000
   H     95.89000000    79.28000000    39.89000000
   N     95.22000000    76.64000000    38.48000000
   C     94.23000000    76.21000000    39.45000000
   C     92.87000000    76.89000000    39.44000000
   O     92.18000000    76.68000000    40.43000000
   C     94.10000000    74.70000000    39.23000000
   C     95.40000000    73.94000000    39.49000000
   N     95.41000000    73.14000000    40.56000000
   O     96.42000000    73.98000000    38.81000000
   H     95.70000000    75.91000000    37.98000000
   H     94.70000000    76.47000000    40.40000000
   H     93.82000000    74.51000000    38.20000000
   H     93.41000000    74.30000000    39.97000000
   H     94.69000000    73.19000000    41.27000000
   H     96.30000000    72.68000000    40.66000000
   N     92.47000000    77.58000000    38.37000000
   C     91.13000000    78.08000000    38.16000000
   C     90.77000000    79.38000000    38.87000000
   O     89.62000000    79.49000000    39.30000000
   H     93.19000000    77.73000000    37.67000000
   H     90.38000000    77.34000000    38.45000000
   H     90.91000000    78.26000000    37.11000000
   N     91.70000000    80.29000000    39.16000000
   C     91.53000000    81.49000000    39.95000000
   C     90.94000000    82.63000000    39.13000000
   O     91.29000000    83.80000000    39.32000000
   C     92.82000000    81.81000000    40.69000000
   C     92.46000000    82.52000000    41.99000000
   O     93.53000000    80.64000000    41.05000000
   H     92.66000000    80.17000000    38.89000000
   H     90.76000000    81.30000000    40.70000000
   H     93.44000000    82.42000000    40.03000000
   H     94.43000000    80.97000000    41.07000000
   H     92.04000000    83.47000000    41.67000000
   H     91.68000000    81.96000000    42.52000000
   H     93.29000000    82.58000000    42.69000000
   N     90.12000000    82.28000000    38.14000000
   C     89.57000000    83.16000000    37.13000000
   C     88.51000000    84.12000000    37.66000000
   O     87.80000000    83.86000000    38.63000000
   C     89.06000000    82.44000000    35.88000000
   C     90.10000000    81.92000000    34.89000000
   C     88.01000000    81.39000000    36.22000000
   C     91.19000000    81.01000000    35.45000000
   H     89.82000000    81.32000000    38.01000000
   H     90.42000000    83.78000000    36.85000000
   H     88.56000000    83.19000000    35.28000000
   H     90.62000000    82.77000000    34.45000000
   H     89.53000000    81.38000000    34.14000000
   H     88.49000000    80.56000000    36.75000000
   H     87.14000000    81.68000000    36.81000000
   H     87.57000000    81.03000000    35.29000000
   H     91.83000000    81.53000000    36.16000000
   H     90.71000000    80.17000000    35.95000000
   H     91.81000000    80.67000000    34.62000000
   N     88.48000000    85.23000000    36.93000000
   C     87.52000000    86.29000000    37.15000000
   C     86.41000000    86.25000000    36.10000000
   O     86.37000000    85.36000000    35.26000000
   C     88.37000000    87.56000000    37.16000000
   C     89.04000000    87.73000000    35.80000000
   O     89.87000000    86.92000000    35.34000000
   O     88.89000000    88.83000000    35.24000000
   H     89.12000000    85.40000000    36.17000000
   H     87.04000000    86.26000000    38.13000000
   H     89.09000000    87.43000000    37.97000000
   H     87.74000000    88.42000000    37.35000000
   N     85.51000000    87.23000000    36.20000000
   C     84.19000000    87.28000000    35.59000000
   C     84.09000000    86.97000000    34.11000000
   O     83.46000000    85.96000000    33.81000000
   C     83.22000000    86.64000000    36.57000000
   C     81.92000000    87.38000000    36.78000000
   C     80.89000000    87.32000000    35.84000000
   C     81.82000000    88.23000000    37.89000000
   C     79.74000000    88.11000000    35.90000000
   C     80.66000000    89.01000000    37.95000000
   C     79.61000000    88.93000000    37.03000000
   H     85.63000000    87.87000000    36.97000000
   H     84.00000000    88.36000000    35.63000000
   H     83.59000000    86.49000000    37.59000000
   H     83.07000000    85.61000000    36.25000000
   H     81.07000000    86.74000000    34.95000000
   H     82.50000000    88.18000000    38.73000000
   H     79.08000000    88.21000000    35.04000000
   H     80.52000000    89.61000000    38.83000000
   H     78.82000000    89.67000000    37.12000000
   N     84.80000000    87.68000000    33.23000000
   C     84.73000000    87.41000000    31.81000000
   C     85.37000000    86.08000000    31.43000000
   O     85.00000000    85.53000000    30.40000000
   C     85.49000000    88.59000000    31.22000000
   C     85.24000000    89.72000000    32.22000000
   C     85.50000000    88.92000000    33.50000000
   H     83.68000000    87.39000000    31.52000000
   H     86.57000000    88.42000000    31.18000000
   H     85.17000000    88.87000000    30.22000000
   H     85.99000000    90.51000000    32.16000000
   H     84.24000000    90.16000000    32.15000000
   H     86.54000000    88.65000000    33.67000000
   H     85.10000000    89.43000000    34.38000000
   N     86.46000000    85.67000000    32.09000000
   C     87.29000000    84.53000000    31.73000000
   C     86.66000000    83.23000000    32.19000000
   O     86.80000000    82.23000000    31.49000000
   C     88.62000000    84.82000000    32.41000000
   C     89.64000000    85.36000000    31.41000000
   C     90.85000000    85.86000000    32.20000000
   O     91.52000000    85.10000000    32.93000000
   O     91.09000000    87.07000000    32.05000000
   H     86.71000000    86.18000000    32.92000000
   H     87.56000000    84.48000000    30.67000000
   H     88.97000000    83.88000000    32.83000000
   H     88.45000000    85.39000000    33.32000000
   H     89.17000000    86.23000000    30.96000000
   H     89.97000000    84.72000000    30.58000000
   N     85.84000000    83.21000000    33.25000000
   C     84.97000000    82.10000000    33.56000000
   H     84.03000000    82.21400000    33.02000000
   H     85.44900000    81.16800000    33.26200000
   H     84.77200000    82.08100000    34.63200000
   H     85.88000000    84.03000000    33.85000000
  Ca     92.32000000    86.68000000    34.98000000
   O     92.34000000    89.09000000    33.55000000
   H     91.90000000    88.79000000    32.75000000
   H     92.38000000    90.04000000    33.46000000
   O     92.14000000    85.88000000    37.66000000
   H     91.93000000    85.08000000    38.14000000
   H     92.55000000    86.45000000    38.31000000
   O     94.92000000    87.07000000    33.53000000
   H     95.20000000    87.98000000    33.63000000
   H     95.73000000    86.56000000    33.56000000
   O     94.67000000    87.37000000    36.29000000
   H     95.06000000    87.78000000    37.06000000
   H     95.02000000    86.48000000    36.28000000

Ca 1.70



