%chk=loop2.cluster158.chk
%nprocshared=48
%mem=10GB
%nosave
#b3lyp/svp scf=(tight,noincore) Test 
#IOP(5/87=12) Density=Current Pop=(MK,readradii) iop(6/33=2) iop(6/42=6)

loop2.cluster158 

   -2  1 
   C    108.18000000    63.04000000    -4.78000000
   C    106.72000000    63.50000000    -4.78000000
   O    105.85000000    62.63000000    -4.72000000
   H    108.79400000    63.78000000    -4.26700000
   H    108.26000000    62.08300000    -4.26500000
   H    108.52700000    62.93100000    -5.80700000
   N    106.46000000    64.80000000    -4.81000000
   C    107.18000000    66.06000000    -4.69000000
   C    106.59000000    67.08000000    -5.65000000
   O    105.39000000    67.16000000    -5.87000000
   C    106.96000000    66.50000000    -3.24000000
   C    105.53000000    66.57000000    -2.73000000
   O    104.45000000    66.46000000    -3.35000000
   O    105.42000000    66.82000000    -1.51000000
   H    105.47000000    64.94000000    -4.92000000
   H    108.24000000    65.96000000    -4.92000000
   H    107.36000000    67.51000000    -3.14000000
   H    107.53000000    65.79000000    -2.65000000
   N    107.53000000    67.66000000    -6.41000000
   C    107.38000000    68.67000000    -7.44000000
   C    106.95000000    70.05000000    -6.95000000
   O    107.54000000    71.07000000    -7.29000000
   C    106.62000000    68.11000000    -8.63000000
   H    108.47000000    67.40000000    -6.15000000
   H    108.36000000    68.80000000    -7.91000000
   H    107.05000000    67.18000000    -9.00000000
   H    105.58000000    67.91000000    -8.38000000
   H    106.62000000    68.91000000    -9.38000000
   N    105.90000000    70.06000000    -6.13000000
   C    105.30000000    71.22000000    -5.50000000
   C    104.86000000    70.83000000    -4.10000000
   O    104.88000000    69.65000000    -3.74000000
   C    104.04000000    71.63000000    -6.26000000
   C    103.06000000    70.61000000    -6.80000000
   O    103.02000000    69.42000000    -6.41000000
   O    102.17000000    71.02000000    -7.57000000
   H    105.28000000    69.29000000    -6.33000000
   H    105.97000000    72.07000000    -5.43000000
   H    104.40000000    72.12000000    -7.16000000
   H    103.48000000    72.41000000    -5.74000000
   N    104.25000000    71.74000000    -3.34000000
   C    103.86000000    71.61000000    -1.95000000
   C    102.43000000    71.95000000    -1.58000000
   O    101.94000000    73.02000000    -1.96000000
   H    104.15000000    72.71000000    -3.62000000
   H    104.48000000    72.36000000    -1.46000000
   H    104.06000000    70.58000000    -1.63000000
   N    101.78000000    71.16000000    -0.72000000
   C    100.47000000    71.46000000    -0.18000000
   C    100.45000000    72.03000000     1.23000000
   O    101.34000000    71.71000000     2.02000000
   C     99.55000000    70.25000000    -0.32000000
   C     99.13000000    70.14000000    -1.79000000
   N     98.32000000    71.11000000    -2.23000000
   O     99.41000000    69.15000000    -2.45000000
   H    102.24000000    70.32000000    -0.40000000
   H    100.03000000    72.19000000    -0.86000000
   H     98.62000000    70.42000000     0.21000000
   H    100.04000000    69.37000000     0.10000000
   H     98.00000000    71.80000000    -1.56000000
   H     98.07000000    71.18000000    -3.20000000
   N     99.49000000    72.88000000     1.59000000
   C     99.41000000    73.62000000     2.83000000
   C     98.07000000    74.22000000     3.26000000
   O     97.37000000    74.82000000     2.44000000
   H     98.80000000    73.17000000     0.91000000
   H    100.03000000    74.50000000     2.67000000
   H     99.77000000    72.94000000     3.59000000
   N     97.67000000    74.11000000     4.53000000
   C     98.49000000    73.64000000     5.62000000
   C     98.19000000    72.18000000     5.96000000
   O     98.91000000    71.72000000     6.85000000
   C     98.35000000    74.44000000     6.91000000
   C     99.00000000    75.82000000     6.79000000
   O     96.98000000    74.73000000     7.09000000
   H     96.70000000    74.24000000     4.76000000
   H     99.53000000    73.70000000     5.31000000
   H     98.70000000    73.87000000     7.77000000
   H     96.64000000    74.02000000     7.64000000
   H     98.61000000    76.37000000     5.94000000
   H     98.87000000    76.39000000     7.71000000
   H    100.07000000    75.77000000     6.62000000
   N     97.28000000    71.49000000     5.28000000
   C     96.81000000    70.15000000     5.58000000
   C     96.11000000    69.97000000     6.91000000
   O     96.69000000    69.99000000     7.99000000
   C     97.92000000    69.10000000     5.50000000
   C     98.86000000    69.31000000     4.32000000
   C     97.38000000    67.69000000     5.69000000
   C     98.09000000    69.42000000     3.00000000
   H     96.87000000    71.94000000     4.48000000
   H     96.21000000    69.94000000     4.69000000
   H     98.49000000    69.17000000     6.42000000
   H     99.60000000    68.52000000     4.33000000
   H     99.39000000    70.26000000     4.36000000
   H     96.76000000    67.69000000     6.58000000
   H     96.75000000    67.51000000     4.81000000
   H     98.19000000    66.97000000     5.77000000
   H     97.15000000    68.85000000     3.00000000
   H     97.92000000    70.47000000     2.80000000
   H     98.70000000    69.08000000     2.16000000
   N     94.78000000    69.85000000     6.91000000
   C     93.79000000    69.84000000     5.85000000
   C     93.73000000    68.49000000     5.15000000
   O     94.10000000    68.36000000     3.98000000
   C     92.38000000    70.32000000     6.19000000
   C     91.81000000    69.70000000     7.46000000
   O     92.56000000    69.41000000     8.42000000
   O     90.57000000    69.52000000     7.47000000
   H     94.44000000    69.67000000     7.84000000
   H     94.12000000    70.62000000     5.16000000
   H     91.84000000    70.11000000     5.26000000
   H     92.48000000    71.39000000     6.38000000
   N     93.44000000    67.48000000     5.96000000
   C     93.31000000    66.11000000     5.49000000
   C     91.84000000    65.70000000     5.42000000
   O     91.02000000    66.21000000     6.18000000
   C     94.21000000    65.38000000     6.48000000
   C     93.77000000    65.30000000     7.93000000
   C     94.16000000    66.22000000     8.90000000
   C     93.05000000    64.16000000     8.33000000
   C     93.79000000    66.06000000    10.24000000
   C     92.81000000    63.96000000     9.69000000
   C     93.08000000    64.93000000    10.66000000
   H     92.97000000    67.68000000     6.84000000
   H     93.72000000    66.14000000     4.48000000
   H     95.17000000    65.89000000     6.43000000
   H     94.43000000    64.39000000     6.08000000
   H     94.65000000    67.12000000     8.56000000
   H     92.95000000    63.40000000     7.57000000
   H     93.99000000    66.80000000    11.01000000
   H     92.35000000    63.03000000    10.01000000
   H     92.89000000    64.71000000    11.70000000
   N     91.40000000    64.69000000     4.66000000
   C     92.21000000    63.76000000     3.91000000
   C     92.74000000    64.37000000     2.62000000
   O     92.55000000    65.56000000     2.37000000
   C     91.39000000    62.48000000     3.80000000
   C     90.01000000    63.12000000     3.66000000
   C     90.03000000    64.23000000     4.70000000
   H     93.09000000    63.53000000     4.52000000
   H     91.69000000    61.89000000     2.94000000
   H     91.41000000    61.83000000     4.67000000
   H     89.84000000    63.54000000     2.66000000
   H     89.23000000    62.41000000     3.91000000
   H     89.21000000    64.93000000     4.54000000
   H     89.96000000    63.70000000     5.65000000
   N     93.46000000    63.51000000     1.90000000
   C     94.03000000    63.86000000     0.61000000
   C     95.45000000    63.34000000     0.48000000
   O     95.95000000    63.02000000    -0.60000000
   C     93.09000000    63.27000000    -0.44000000
   C     91.64000000    63.73000000    -0.43000000
   C     91.45000000    64.73000000    -1.56000000
   O     91.60000000    65.96000000    -1.44000000
   O     91.32000000    64.18000000    -2.67000000
   H     93.54000000    62.56000000     2.22000000
   H     94.01000000    64.92000000     0.38000000
   H     93.10000000    62.18000000    -0.38000000
   H     93.57000000    63.28000000    -1.42000000
   H     91.44000000    64.28000000     0.49000000
   H     90.95000000    62.91000000    -0.63000000
   N     96.38000000    63.27000000     1.44000000
   C     96.42000000    63.59000000     2.85000000
   H     96.41800000    64.67300000     2.97600000
   H     95.54600000    63.16500000     3.34400000
   H     97.32600000    63.17500000     3.29200000
   H     97.28000000    62.95000000     1.10000000
  Ca    102.79000000    67.25000000    -5.21000000
   O    102.78000000    66.54000000    -7.87000000
   H    102.34000000    66.88000000    -8.65000000
   H    102.51000000    65.62000000    -7.83000000
   O    100.21000000    67.89000000    -5.87000000
   H     99.41000000    68.15000000    -5.42000000
   H    100.06000000    68.12000000    -6.79000000
   O    101.95000000    68.87000000    -3.40000000
   H    101.10000000    69.31000000    -3.36000000
   H    102.19000000    68.73000000    -2.48000000
   O    103.74000000    64.56000000    -5.73000000
   H    104.40000000    64.25000000    -6.34000000
   H    103.48000000    63.79000000    -5.23000000
   O    101.13000000    65.38000000    -4.24000000
   H    100.60000000    64.64000000    -4.54000000
   H    101.11000000    65.31000000    -3.28000000

Ca 1.70



