%chk=loop2.cluster54.chk
%nprocshared=48
%mem=10GB
%nosave
#b3lyp/svp scf=(tight,noincore) Test 
#IOP(5/87=12) Density=Current Pop=(MK,readradii) iop(6/33=2) iop(6/42=6)

loop2.cluster54 

   -2  1 
   C    108.01000000    63.09000000    -5.54000000
   C    106.60000000    63.67000000    -5.50000000
   O    105.63000000    62.92000000    -5.63000000
   H    108.68700000    63.74300000    -4.98800000
   H    108.00900000    62.10000000    -5.08400000
   H    108.34300000    63.01400000    -6.57500000
   N    106.29000000    64.91000000    -5.13000000
   C    107.11000000    65.98000000    -4.58000000
   C    106.96000000    67.32000000    -5.29000000
   O    105.83000000    67.72000000    -5.55000000
   C    106.93000000    66.19000000    -3.08000000
   C    105.51000000    66.24000000    -2.51000000
   O    104.54000000    66.45000000    -3.26000000
   O    105.48000000    66.00000000    -1.28000000
   H    105.33000000    65.15000000    -5.32000000
   H    108.15000000    65.66000000    -4.60000000
   H    107.46000000    67.11000000    -2.82000000
   H    107.48000000    65.39000000    -2.60000000
   N    108.09000000    67.95000000    -5.59000000
   C    108.25000000    69.37000000    -5.86000000
   C    107.59000000    70.42000000    -4.97000000
   O    108.18000000    71.45000000    -4.66000000
   C    107.89000000    69.70000000    -7.30000000
   H    108.92000000    67.38000000    -5.52000000
   H    109.32000000    69.60000000    -5.76000000
   H    108.23000000    70.71000000    -7.54000000
   H    108.47000000    68.97000000    -7.86000000
   H    106.82000000    69.54000000    -7.45000000
   N    106.33000000    70.19000000    -4.58000000
   C    105.48000000    71.13000000    -3.89000000
   C    104.49000000    70.48000000    -2.93000000
   O    104.19000000    69.30000000    -3.09000000
   C    104.77000000    72.11000000    -4.82000000
   C    104.06000000    71.54000000    -6.04000000
   O    103.79000000    70.33000000    -6.13000000
   O    103.61000000    72.34000000    -6.89000000
   H    105.86000000    69.31000000    -4.74000000
   H    106.15000000    71.74000000    -3.27000000
   H    105.57000000    72.70000000    -5.27000000
   H    104.17000000    72.84000000    -4.28000000
   N    104.07000000    71.15000000    -1.86000000
   C    103.17000000    70.60000000    -0.86000000
   C    101.69000000    70.85000000    -1.12000000
   O    101.30000000    71.80000000    -1.78000000
   H    104.31000000    72.13000000    -1.85000000
   H    103.37000000    71.09000000     0.10000000
   H    103.36000000    69.55000000    -0.61000000
   N    100.87000000    70.03000000    -0.46000000
   C     99.44000000    70.22000000    -0.28000000
   C     99.16000000    70.50000000     1.19000000
   O     99.84000000    69.96000000     2.06000000
   C     98.70000000    68.99000000    -0.78000000
   C     98.64000000    68.83000000    -2.29000000
   N     97.70000000    69.57000000    -2.89000000
   O     99.47000000    68.27000000    -3.00000000
   H    101.20000000    69.24000000     0.08000000
   H     99.26000000    71.09000000    -0.92000000
   H     97.67000000    68.99000000    -0.44000000
   H     99.15000000    68.16000000    -0.22000000
   H     97.13000000    70.14000000    -2.28000000
   H     97.68000000    69.64000000    -3.90000000
   N     98.14000000    71.28000000     1.57000000
   C     97.61000000    71.42000000     2.91000000
   C     96.20000000    71.99000000     2.83000000
   O     95.58000000    72.29000000     1.82000000
   H     97.65000000    71.68000000     0.79000000
   H     98.27000000    72.14000000     3.40000000
   H     97.66000000    70.50000000     3.48000000
   N     95.54000000    71.89000000     3.98000000
   C     96.06000000    71.54000000     5.29000000
   C     95.89000000    70.04000000     5.50000000
   O     96.51000000    69.55000000     6.45000000
   C     95.50000000    72.50000000     6.33000000
   C     96.27000000    72.63000000     7.65000000
   O     95.46000000    73.82000000     5.85000000
   H     94.65000000    72.36000000     3.96000000
   H     97.11000000    71.83000000     5.33000000
   H     94.52000000    72.11000000     6.61000000
   H     95.43000000    74.27000000     6.70000000
   H     95.67000000    73.21000000     8.35000000
   H     96.41000000    71.61000000     7.99000000
   H     97.21000000    73.16000000     7.46000000
   N     95.21000000    69.35000000     4.59000000
   C     94.90000000    67.94000000     4.73000000
   C     94.08000000    67.57000000     5.96000000
   O     94.61000000    67.35000000     7.05000000
   C     96.11000000    67.02000000     4.65000000
   C     96.91000000    67.32000000     3.38000000
   C     95.80000000    65.53000000     4.60000000
   C     96.22000000    67.21000000     2.03000000
   H     94.82000000    69.93000000     3.85000000
   H     94.20000000    67.66000000     3.95000000
   H     96.62000000    67.29000000     5.58000000
   H     97.69000000    66.56000000     3.30000000
   H     97.36000000    68.30000000     3.51000000
   H     95.54000000    65.20000000     5.61000000
   H     94.90000000    65.48000000     3.99000000
   H     96.63000000    64.90000000     4.26000000
   H     96.96000000    67.24000000     1.23000000
   H     95.78000000    66.21000000     2.04000000
   H     95.55000000    68.07000000     1.96000000
   N     92.76000000    67.42000000     5.86000000
   C     91.86000000    67.44000000     4.73000000
   C     91.95000000    66.12000000     3.96000000
   O     92.37000000    66.11000000     2.80000000
   C     90.43000000    67.88000000     5.06000000
   C     89.80000000    67.17000000     6.25000000
   O     90.45000000    66.38000000     6.96000000
   O     88.57000000    67.26000000     6.47000000
   H     92.35000000    67.08000000     6.71000000
   H     92.23000000    68.17000000     4.01000000
   H     89.71000000    67.72000000     4.26000000
   H     90.46000000    68.91000000     5.39000000
   N     91.69000000    65.09000000     4.76000000
   C     91.88000000    63.68000000     4.46000000
   C     90.63000000    62.81000000     4.43000000
   O     89.64000000    63.21000000     5.05000000
   C     92.86000000    63.06000000     5.46000000
   C     92.36000000    62.77000000     6.85000000
   C     92.49000000    63.68000000     7.91000000
   C     91.86000000    61.49000000     7.09000000
   C     91.77000000    63.45000000     9.09000000
   C     91.21000000    61.20000000     8.30000000
   C     91.21000000    62.19000000     9.30000000
   H     91.26000000    65.40000000     5.61000000
   H     92.40000000    63.63000000     3.51000000
   H     93.76000000    63.68000000     5.54000000
   H     93.28000000    62.15000000     5.04000000
   H     93.01000000    64.63000000     7.91000000
   H     91.83000000    60.75000000     6.31000000
   H     91.72000000    64.25000000     9.82000000
   H     90.85000000    60.19000000     8.41000000
   H     90.82000000    61.93000000    10.27000000
   N     90.62000000    61.66000000     3.74000000
   C     91.56000000    60.86000000     2.99000000
   C     91.80000000    61.46000000     1.61000000
   O     91.10000000    62.42000000     1.29000000
   C     90.97000000    59.45000000     2.92000000
   C     89.52000000    59.83000000     2.62000000
   C     89.35000000    60.97000000     3.62000000
   H     92.52000000    60.84000000     3.51000000
   H     91.36000000    58.79000000     2.15000000
   H     90.96000000    58.98000000     3.90000000
   H     89.34000000    60.24000000     1.63000000
   H     88.78000000    59.04000000     2.77000000
   H     88.60000000    61.64000000     3.20000000
   H     89.12000000    60.54000000     4.59000000
   N     92.79000000    60.95000000     0.88000000
   C     93.20000000    61.26000000    -0.48000000
   C     94.67000000    60.92000000    -0.68000000
   O     95.12000000    60.53000000    -1.75000000
   C     92.30000000    60.52000000    -1.47000000
   C     90.92000000    61.14000000    -1.63000000
   C     90.99000000    62.54000000    -2.21000000
   O     90.11000000    63.39000000    -1.93000000
   O     91.87000000    62.76000000    -3.07000000
   H     93.31000000    60.13000000     1.15000000
   H     93.21000000    62.35000000    -0.52000000
   H     92.25000000    59.46000000    -1.22000000
   H     92.74000000    60.58000000    -2.46000000
   H     90.39000000    61.12000000    -0.68000000
   H     90.34000000    60.52000000    -2.32000000
   N     95.61000000    61.08000000     0.25000000
   C     95.66000000    61.56000000     1.62000000
   H     95.77400000    62.64400000     1.62100000
   H     94.73700000    61.29200000     2.13300000
   H     96.50700000    61.10600000     2.13400000
   H     96.52000000    61.01000000    -0.19000000
  Ca    103.27100000    68.07000000    -5.24100000
   O    101.20100000    67.42000000    -6.86100000
   H    100.29100000    67.56000000    -7.11100000
   H    101.37100000    66.51000000    -7.07100000
   O    101.07100000    69.54000000    -4.65100000
   H    100.64100000    69.15000000    -3.89100000
   H    100.55100000    70.30000000    -4.87100000
   O    101.55100000    66.69000000    -3.70100000
   H    101.79100000    66.10000000    -2.99100000
   H    100.67100000    67.00000000    -3.46100000
   O    104.05100000    67.98000000    -7.82100000
   H    104.07100000    68.93000000    -7.95100000
   H    104.27100000    67.61000000    -8.68100000
   O    103.50100000    65.63000000    -6.15100000
   H    103.90100000    65.75000000    -7.01100000
   H    103.12100000    64.75000000    -6.18100000

Ca 1.70



