%chk=loop2.cluster130.chk
%nprocshared=48
%mem=10GB
%nosave
#b3lyp/svp scf=(tight,noincore) Test 
#IOP(5/87=12) Density=Current Pop=(MK,readradii) iop(6/33=2) iop(6/42=6)

loop2.cluster130 

   -2  1 
   C     84.29000000    78.06000000     3.09000000
   C     84.24000000    76.63000000     3.59000000
   O     84.84000000    76.28000000     4.61000000
   H     85.32800000    78.35700000     2.94300000
   H     83.75500000    78.13300000     2.14300000
   H     83.82400000    78.71800000     3.82300000
   N     83.45000000    75.67000000     3.10000000
   C     82.31000000    75.78000000     2.21000000
   C     82.48000000    74.75000000     1.11000000
   O     82.60000000    73.56000000     1.42000000
   C     80.95000000    75.71000000     2.90000000
   C     80.80000000    74.61000000     3.94000000
   O     81.74000000    73.80000000     4.09000000
   O     79.81000000    74.55000000     4.71000000
   H     83.64000000    74.81000000     3.58000000
   H     82.40000000    76.80000000     1.84000000
   H     80.16000000    75.56000000     2.17000000
   H     80.69000000    76.65000000     3.38000000
   N     82.35000000    75.17000000    -0.15000000
   C     81.85000000    74.43000000    -1.29000000
   C     80.41000000    73.94000000    -1.18000000
   O     79.48000000    74.73000000    -1.06000000
   C     82.89000000    73.37000000    -1.66000000
   H     82.44000000    76.17000000    -0.30000000
   H     81.89000000    75.12000000    -2.13000000
   H     83.00000000    72.63000000    -0.86000000
   H     82.55000000    72.99000000    -2.62000000
   H     83.82000000    73.92000000    -1.78000000
   N     80.17000000    72.63000000    -1.13000000
   C     78.93000000    72.05000000    -0.67000000
   C     78.85000000    72.20000000     0.84000000
   O     79.86000000    72.23000000     1.53000000
   C     78.79000000    70.60000000    -1.14000000
   C     79.96000000    69.70000000    -0.77000000
   O     79.98000000    69.14000000     0.34000000
   O     80.94000000    69.65000000    -1.54000000
   H     80.86000000    71.95000000    -1.39000000
   H     78.09000000    72.56000000    -1.15000000
   H     78.57000000    70.58000000    -2.21000000
   H     77.89000000    70.20000000    -0.68000000
   N     77.63000000    72.13000000     1.38000000
   C     77.37000000    71.94000000     2.80000000
   C     75.94000000    71.42000000     2.94000000
   O     75.02000000    71.77000000     2.20000000
   H     76.78000000    72.27000000     0.85000000
   H     77.49000000    72.86000000     3.36000000
   H     78.07000000    71.15000000     3.06000000
   N     75.74000000    70.53000000     3.91000000
   C     74.49000000    69.89000000     4.28000000
   C     74.13000000    70.05000000     5.75000000
   O     75.06000000    69.84000000     6.51000000
   C     74.52000000    68.38000000     4.05000000
   C     74.99000000    68.06000000     2.64000000
   N     74.21000000    68.50000000     1.64000000
   O     76.02000000    67.45000000     2.37000000
   H     76.47000000    70.21000000     4.52000000
   H     73.72000000    70.36000000     3.66000000
   H     73.55000000    67.94000000     4.29000000
   H     75.27000000    67.92000000     4.69000000
   H     73.36000000    68.97000000     1.91000000
   H     74.35000000    68.12000000     0.72000000
   N     72.87000000    70.30000000     6.13000000
   C     72.32000000    70.25000000     7.46000000
   C     72.08000000    68.84000000     8.00000000
   O     72.13000000    67.81000000     7.34000000
   H     72.16000000    70.52000000     5.45000000
   H     71.33000000    70.70000000     7.44000000
   H     72.98000000    70.83000000     8.11000000
   N     71.75000000    68.73000000     9.29000000
   C     71.53000000    69.76000000    10.28000000
   C     72.58000000    69.89000000    11.37000000
   O     72.48000000    70.77000000    12.23000000
   C     70.13000000    69.77000000    10.91000000
   C     69.16000000    70.35000000     9.89000000
   O     69.85000000    68.43000000    11.24000000
   H     71.46000000    67.83000000     9.65000000
   H     71.50000000    70.76000000     9.84000000
   H     70.18000000    70.51000000    11.71000000
   H     69.37000000    68.49000000    12.07000000
   H     69.14000000    71.44000000     9.93000000
   H     69.46000000    70.04000000     8.89000000
   H     68.14000000    69.98000000    10.04000000
   N     73.65000000    69.10000000    11.31000000
   C     74.85000000    69.01000000    12.12000000
   C     74.58000000    69.16000000    13.61000000
   O     74.61000000    70.28000000    14.13000000
   C     75.88000000    70.00000000    11.59000000
   C     76.22000000    69.86000000    10.11000000
   C     77.13000000    69.59000000    12.37000000
   C     76.52000000    68.47000000     9.58000000
   H     73.58000000    68.48000000    10.52000000
   H     75.25000000    68.01000000    12.00000000
   H     75.58000000    71.02000000    11.81000000
   H     77.03000000    70.58000000     9.97000000
   H     75.36000000    70.14000000     9.48000000
   H     77.03000000    69.93000000    13.41000000
   H     77.35000000    68.53000000    12.27000000
   H     77.99000000    70.15000000    12.03000000
   H     77.60000000    68.30000000     9.60000000
   H     75.92000000    67.70000000    10.08000000
   H     76.28000000    68.51000000     8.52000000
   N     74.33000000    68.10000000    14.39000000
   C     74.50000000    66.73000000    13.98000000
   C     75.97000000    66.42000000    13.73000000
   O     76.37000000    66.21000000    12.59000000
   C     73.90000000    65.74000000    14.97000000
   C     73.96000000    66.12000000    16.44000000
   O     73.25000000    65.59000000    17.32000000
   O     74.90000000    66.80000000    16.92000000
   H     74.23000000    68.33000000    15.37000000
   H     74.00000000    66.52000000    13.03000000
   H     74.28000000    64.72000000    14.87000000
   H     72.83000000    65.62000000    14.82000000
   N     76.79000000    66.57000000    14.77000000
   C     78.16000000    66.10000000    14.82000000
   C     78.21000000    64.70000000    15.39000000
   O     77.16000000    64.22000000    15.80000000
   C     79.09000000    67.04000000    15.58000000
   C     78.95000000    67.16000000    17.07000000
   C     78.23000000    68.27000000    17.54000000
   C     79.68000000    66.35000000    17.96000000
   C     78.08000000    68.46000000    18.92000000
   C     79.45000000    66.52000000    19.33000000
   C     78.69000000    67.59000000    19.83000000
   H     76.36000000    66.81000000    15.66000000
   H     78.58000000    66.10000000    13.81000000
   H     79.03000000    68.01000000    15.08000000
   H     80.12000000    66.69000000    15.51000000
   H     77.77000000    68.96000000    16.86000000
   H     80.33000000    65.58000000    17.58000000
   H     77.39000000    69.24000000    19.20000000
   H     79.96000000    65.85000000    20.01000000
   H     78.51000000    67.63000000    20.89000000
   N     79.30000000    63.93000000    15.29000000
   C     80.46000000    64.22000000    14.47000000
   C     80.14000000    64.31000000    12.98000000
   O     79.07000000    63.98000000    12.48000000
   C     81.20000000    62.89000000    14.54000000
   C     80.87000000    62.29000000    15.90000000
   C     79.39000000    62.64000000    15.95000000
   H     81.05000000    65.06000000    14.82000000
   H     80.91000000    62.08000000    13.86000000
   H     82.27000000    63.12000000    14.50000000
   H     81.13000000    61.24000000    16.00000000
   H     81.35000000    62.74000000    16.77000000
   H     78.81000000    61.88000000    15.43000000
   H     79.08000000    62.67000000    17.00000000
   N     81.19000000    64.74000000    12.28000000
   C     81.27000000    64.93000000    10.84000000
   C     82.09000000    66.09000000    10.30000000
   O     82.54000000    66.11000000     9.16000000
   C     81.76000000    63.68000000    10.11000000
   C     80.85000000    62.48000000    10.35000000
   C     81.43000000    61.30000000     9.58000000
   O     82.29000000    60.62000000    10.18000000
   O     81.28000000    61.31000000     8.34000000
   H     82.04000000    64.93000000    12.80000000
   H     80.28000000    65.18000000    10.45000000
   H     82.73000000    63.41000000    10.51000000
   H     81.76000000    63.90000000     9.04000000
   H     79.87000000    62.75000000     9.95000000
   H     80.83000000    62.21000000    11.40000000
   N     82.42000000    67.15000000    11.04000000
   C     81.93000000    67.73000000    12.28000000
   H     80.90800000    67.39500000    12.45800000
   H     82.56600000    67.41200000    13.10700000
   H     81.94700000    68.81700000    12.20500000
   H     83.02000000    67.77000000    10.51000000
  Ca     82.21000000    71.49000000     2.92000000
   O     80.22000000    69.58000000     2.93000000
   H     80.14000000    69.28000000     2.03000000
   H     79.62000000    69.02000000     3.42000000
   O     83.40000000    68.88000000     3.02000000
   H     84.01000000    68.37000000     2.48000000
   H     82.77000000    68.23000000     3.35000000
   O     80.19000000    71.55000000     5.13000000
   H     79.37000000    71.11000000     5.37000000
   H     80.08000000    72.44000000     5.45000000
   O     84.72000000    72.12000000     2.94000000
   H     85.42000000    71.92000000     3.56000000
   H     85.15000000    72.68000000     2.28000000
   O     83.13000000    71.45000000     5.51000000
   H     83.01000000    70.74000000     6.15000000
   H     83.90000000    71.92000000     5.81000000
   O     82.79000000    70.33000000     0.64000000
   H     82.13000000    69.91000000     0.09000000
   H     83.63000000    70.03000000     0.28000000

Ca 1.70



