%chk=loop2.cluster188.chk
%nprocshared=48
%mem=10GB
%nosave
#b3lyp/svp scf=(tight,noincore) Test 
#IOP(5/87=12) Density=Current Pop=(MK,readradii) iop(6/33=2) iop(6/42=6)

loop2.cluster188 

   -2  1 
   C    105.21000000    68.65000000    -1.78000000
   C    103.69000000    68.65000000    -1.75000000
   O    103.05000000    67.67000000    -1.38000000
   H    105.58900000    69.29000000    -0.98300000
   H    105.57700000    67.63400000    -1.63500000
   H    105.55500000    69.02700000    -2.74300000
   N    102.92000000    69.71000000    -2.02000000
   C    103.17000000    71.13000000    -1.87000000
   C    102.57000000    72.05000000    -2.93000000
   O    101.42000000    71.79000000    -3.28000000
   C    102.86000000    71.43000000    -0.41000000
   C    101.49000000    71.00000000     0.09000000
   O    100.52000000    70.79000000    -0.68000000
   O    101.35000000    70.85000000     1.32000000
   H    101.95000000    69.53000000    -1.80000000
   H    104.21000000    71.32000000    -2.14000000
   H    102.86000000    72.52000000    -0.39000000
   H    103.54000000    70.91000000     0.26000000
   N    103.29000000    73.06000000    -3.41000000
   C    102.91000000    74.18000000    -4.25000000
   C    101.80000000    75.05000000    -3.70000000
   O    101.73000000    76.22000000    -4.08000000
   C    102.45000000    73.48000000    -5.52000000
   H    104.17000000    73.17000000    -2.91000000
   H    103.83000000    74.73000000    -4.45000000
   H    102.32000000    74.12000000    -6.39000000
   H    103.24000000    72.82000000    -5.88000000
   H    101.46000000    73.03000000    -5.43000000
   N    100.91000000    74.58000000    -2.82000000
   C     99.89000000    75.34000000    -2.11000000
   C     99.33000000    74.57000000    -0.92000000
   O     98.82000000    73.45000000    -0.99000000
   C     98.72000000    75.60000000    -3.04000000
   C     98.24000000    74.65000000    -4.14000000
   O     98.32000000    73.41000000    -3.99000000
   O     97.98000000    75.10000000    -5.27000000
   H    100.98000000    73.61000000    -2.56000000
   H    100.31000000    76.31000000    -1.84000000
   H     99.03000000    76.48000000    -3.61000000
   H     97.91000000    76.03000000    -2.46000000
   N     99.49000000    75.17000000     0.26000000
   C     99.33000000    74.64000000     1.60000000
   C     97.92000000    74.80000000     2.17000000
   O     97.29000000    75.85000000     2.04000000
   H     99.70000000    76.16000000     0.21000000
   H    100.12000000    74.96000000     2.28000000
   H     99.61000000    73.60000000     1.46000000
   N     97.34000000    73.77000000     2.79000000
   C     95.99000000    73.81000000     3.33000000
   C     96.01000000    73.69000000     4.85000000
   O     97.00000000    73.41000000     5.51000000
   C     95.21000000    72.69000000     2.64000000
   C     94.81000000    73.00000000     1.21000000
   N     93.73000000    73.75000000     1.00000000
   O     95.47000000    72.61000000     0.25000000
   H     97.82000000    72.90000000     2.89000000
   H     95.57000000    74.78000000     3.10000000
   H     94.28000000    72.57000000     3.18000000
   H     95.77000000    71.75000000     2.64000000
   H     93.13000000    73.93000000     1.80000000
   H     93.34000000    73.79000000     0.07000000
   N     94.84000000    73.92000000     5.46000000
   C     94.64000000    73.83000000     6.89000000
   C     93.23000000    74.19000000     7.33000000
   O     92.55000000    74.90000000     6.60000000
   H     94.02000000    74.07000000     4.89000000
   H     95.33000000    74.47000000     7.44000000
   H     94.77000000    72.76000000     7.07000000
   N     92.79000000    73.64000000     8.47000000
   C     93.56000000    73.02000000     9.53000000
   C     93.54000000    71.50000000     9.41000000
   O     94.18000000    70.87000000    10.25000000
   C     93.05000000    73.49000000    10.89000000
   C     93.36000000    74.94000000    11.25000000
   O     91.64000000    73.39000000    10.93000000
   H     91.86000000    73.85000000     8.80000000
   H     94.60000000    73.32000000     9.49000000
   H     93.51000000    72.78000000    11.58000000
   H     91.41000000    72.55000000    11.34000000
   H     94.45000000    75.02000000    11.34000000
   H     93.00000000    75.65000000    10.50000000
   H     92.95000000    75.21000000    12.22000000
   N     93.00000000    70.88000000     8.36000000
   C     92.92000000    69.48000000     7.97000000
   C     92.28000000    68.58000000     9.01000000
   O     92.75000000    68.48000000    10.14000000
   C     94.30000000    68.94000000     7.60000000
   C     95.02000000    69.81000000     6.57000000
   C     94.23000000    67.53000000     7.01000000
   C     94.21000000    70.16000000     5.32000000
   H     92.39000000    71.45000000     7.79000000
   H     92.28000000    69.42000000     7.09000000
   H     94.89000000    68.91000000     8.51000000
   H     95.91000000    69.30000000     6.19000000
   H     95.29000000    70.75000000     7.04000000
   H     93.81000000    66.89000000     7.79000000
   H     93.60000000    67.48000000     6.12000000
   H     95.20000000    67.20000000     6.66000000
   H     93.89000000    69.31000000     4.73000000
   H     93.45000000    70.90000000     5.58000000
   H     94.98000000    70.63000000     4.70000000
   N     91.12000000    67.94000000     8.82000000
   C     90.25000000    67.89000000     7.66000000
   C     90.75000000    66.86000000     6.66000000
   O     90.86000000    67.14000000     5.47000000
   C     88.80000000    67.66000000     8.09000000
   C     88.54000000    66.60000000     9.15000000
   O     89.43000000    65.98000000     9.76000000
   O     87.35000000    66.33000000     9.45000000
   H     90.83000000    67.29000000     9.54000000
   H     90.24000000    68.88000000     7.21000000
   H     88.23000000    67.45000000     7.18000000
   H     88.41000000    68.60000000     8.47000000
   N     90.95000000    65.63000000     7.14000000
   C     91.13000000    64.40000000     6.39000000
   C     89.80000000    63.71000000     6.10000000
   O     88.84000000    64.13000000     6.74000000
   C     92.13000000    63.46000000     7.06000000
   C     91.61000000    62.75000000     8.28000000
   C     91.59000000    63.29000000     9.57000000
   C     91.26000000    61.39000000     8.18000000
   C     91.20000000    62.54000000    10.68000000
   C     90.67000000    60.69000000     9.24000000
   C     90.75000000    61.22000000    10.54000000
   H     90.77000000    65.56000000     8.13000000
   H     91.56000000    64.70000000     5.44000000
   H     93.05000000    64.02000000     7.23000000
   H     92.45000000    62.71000000     6.34000000
   H     91.89000000    64.31000000     9.75000000
   H     91.28000000    60.88000000     7.24000000
   H     91.21000000    63.04000000    11.64000000
   H     90.30000000    59.69000000     9.10000000
   H     90.42000000    60.60000000    11.35000000
   N     89.67000000    62.80000000     5.13000000
   C     90.62000000    62.49000000     4.09000000
   C     90.76000000    63.62000000     3.08000000
   O     90.15000000    64.68000000     3.17000000
   C     90.06000000    61.24000000     3.41000000
   C     89.01000000    60.67000000     4.36000000
   C     88.50000000    61.95000000     5.03000000
   H     91.58000000    62.31000000     4.58000000
   H     89.47000000    61.54000000     2.55000000
   H     90.84000000    60.54000000     3.12000000
   H     88.16000000    60.23000000     3.83000000
   H     89.37000000    59.90000000     5.05000000
   H     87.82000000    62.47000000     4.36000000
   H     88.09000000    61.79000000     6.03000000
   N     91.66000000    63.41000000     2.12000000
   C     92.08000000    64.37000000     1.12000000
   C     93.56000000    64.66000000     0.96000000
   O     93.93000000    65.24000000    -0.06000000
   C     91.52000000    63.93000000    -0.23000000
   C     90.01000000    64.01000000    -0.47000000
   C     89.56000000    65.35000000    -1.05000000
   O     89.99000000    66.38000000    -0.48000000
   O     88.90000000    65.37000000    -2.11000000
   H     92.10000000    62.51000000     1.94000000
   H     91.72000000    65.38000000     1.29000000
   H     91.61000000    62.84000000    -0.22000000
   H     92.02000000    64.41000000    -1.07000000
   H     89.51000000    63.94000000     0.49000000
   H     89.73000000    63.16000000    -1.09000000
   N     94.56000000    64.38000000     1.80000000
   C     94.60000000    64.03000000     3.21000000
   H     94.60800000    64.94000000     3.81000000
   H     93.72100000    63.43700000     3.46300000
   H     95.50100000    63.45200000     3.41600000
   H     95.45000000    64.59000000     1.37000000
  Ca     98.75000000    71.19000000    -2.57300000
   O     96.59000000    69.79000000    -3.18300000
   H     95.97000000    69.50000000    -2.51300000
   H     96.70000000    69.02000000    -3.75300000
   O     97.54000000    70.84000000    -0.21300000
   H     97.93000000    70.83000000     0.65700000
   H     96.87000000    71.53000000    -0.17300000
   O     99.37000000    70.20000000    -5.04300000
   H     99.40000000    69.26000000    -5.20300000
   H     99.77000000    70.59000000    -5.81300000
   O     99.93300000    68.55000000    -2.55300000
   H    100.09300000    68.21000000    -3.43300000
   H    100.37300000    67.92000000    -1.97300000

Ca 1.70



