%chk=loop2.cluster160.chk
%nprocshared=48
%mem=10GB
%nosave
#b3lyp/svp scf=(tight,noincore) Test 
#IOP(5/87=12) Density=Current Pop=(MK,readradii) iop(6/33=2) iop(6/42=6)

loop2.cluster160 

   -2  1 
   C     58.77000000    47.38000000    11.97000000
   C     60.00000000    46.70000000    11.39000000
   O     60.03000000    45.51000000    11.09000000
   H     57.93200000    46.68200000    11.96300000
   H     58.97500000    47.69000000    12.99500000
   H     58.52000000    48.25400000    11.36800000
   N     61.08000000    47.46000000    11.17000000
   C     62.39000000    47.04000000    10.72000000
   C     62.49000000    46.92000000     9.21000000
   O     63.53000000    47.08000000     8.57000000
   C     63.53000000    47.78000000    11.41000000
   C     63.58000000    49.28000000    11.20000000
   O     64.61000000    49.87000000    11.61000000
   O     62.68000000    49.87000000    10.58000000
   H     61.09000000    48.44000000    11.44000000
   H     62.58000000    46.02000000    11.08000000
   H     64.48000000    47.27000000    11.24000000
   H     63.29000000    47.61000000    12.46000000
   N     61.36000000    46.52000000     8.63000000
   C     61.11000000    46.60000000     7.20000000
   C     59.62000000    46.58000000     6.89000000
   O     58.83000000    45.90000000     7.53000000
   C     61.79000000    45.48000000     6.41000000
   H     60.61000000    46.19000000     9.22000000
   H     61.53000000    47.52000000     6.80000000
   H     61.27000000    44.55000000     6.66000000
   H     61.75000000    45.62000000     5.33000000
   H     62.83000000    45.48000000     6.74000000
   N     59.18000000    47.52000000     6.05000000
   C     59.93000000    48.43000000     5.20000000
   C     60.09000000    49.74000000     5.96000000
   O     59.54000000    49.97000000     7.03000000
   C     59.08000000    48.65000000     3.95000000
   C     57.60000000    48.95000000     4.18000000
   O     56.90000000    49.22000000     3.18000000
   O     57.04000000    49.21000000     5.26000000
   H     58.19000000    47.65000000     6.17000000
   H     60.88000000    48.01000000     4.87000000
   H     59.17000000    47.74000000     3.35000000
   H     59.51000000    49.47000000     3.38000000
   N     60.95000000    50.66000000     5.51000000
   C     61.14000000    51.93000000     6.19000000
   C     60.87000000    53.20000000     5.39000000
   O     61.76000000    54.04000000     5.30000000
   H     61.60000000    50.52000000     4.75000000
   H     62.21000000    51.91000000     6.37000000
   H     60.60000000    51.96000000     7.14000000
   N     59.68000000    53.42000000     4.82000000
   C     58.47000000    52.63000000     4.95000000
   C     57.71000000    53.01000000     6.21000000
   O     57.54000000    54.18000000     6.54000000
   C     57.52000000    52.83000000     3.77000000
   C     58.27000000    52.51000000     2.48000000
   N     58.29000000    51.29000000     1.94000000
   O     59.03000000    53.35000000     1.99000000
   H     59.48000000    54.36000000     4.51000000
   H     58.69000000    51.57000000     4.99000000
   H     57.16000000    53.86000000     3.69000000
   H     56.70000000    52.11000000     3.82000000
   H     57.76000000    50.55000000     2.36000000
   H     58.88000000    51.14000000     1.13000000
   N     57.32000000    52.09000000     7.10000000
   C     56.75000000    52.35000000     8.40000000
   C     55.29000000    52.76000000     8.31000000
   O     54.92000000    53.49000000     9.23000000
   H     57.53000000    51.11000000     7.00000000
   H     57.35000000    53.14000000     8.85000000
   H     56.83000000    51.49000000     9.06000000
   N     54.57000000    52.33000000     7.27000000
   C     53.13000000    52.49000000     7.15000000
   C     52.52000000    51.14000000     6.79000000
   O     53.00000000    50.45000000     5.90000000
   C     52.83000000    53.60000000     6.15000000
   C     53.58000000    54.91000000     6.36000000
   O     53.04000000    53.20000000     4.81000000
   H     55.06000000    51.72000000     6.64000000
   H     52.76000000    52.79000000     8.13000000
   H     51.78000000    53.87000000     6.27000000
   H     53.70000000    53.75000000     4.38000000
   H     53.60000000    55.14000000     7.43000000
   H     54.60000000    54.86000000     5.98000000
   H     53.07000000    55.66000000     5.76000000
   N     51.52000000    50.72000000     7.56000000
   C     51.04000000    49.38000000     7.81000000
   C     50.21000000    49.05000000     6.58000000
   O     49.31000000    49.83000000     6.25000000
   C     50.23000000    49.28000000     9.10000000
   C     51.02000000    49.36000000    10.40000000
   C     48.98000000    50.15000000     9.13000000
   C     51.53000000    50.70000000    10.93000000
   H     51.20000000    51.44000000     8.21000000
   H     51.85000000    48.65000000     7.85000000
   H     49.83000000    48.26000000     9.04000000
   H     51.91000000    48.74000000    10.29000000
   H     50.36000000    48.94000000    11.16000000
   H     48.36000000    50.08000000    10.03000000
   H     49.22000000    51.18000000     8.88000000
   H     48.27000000    49.80000000     8.39000000
   H     52.01000000    50.58000000    11.90000000
   H     52.31000000    51.12000000    10.30000000
   H     50.71000000    51.42000000    10.95000000
   N     50.35000000    47.81000000     6.11000000
   C     49.54000000    46.98000000     5.24000000
   C     49.16000000    45.63000000     5.84000000
   O     49.71000000    45.23000000     6.86000000
   C     50.20000000    46.92000000     3.86000000
   C     51.54000000    46.21000000     3.92000000
   O     52.60000000    46.87000000     4.01000000
   O     51.53000000    44.99000000     3.64000000
   H     51.17000000    47.33000000     6.44000000
   H     48.53000000    47.37000000     5.10000000
   H     50.48000000    47.89000000     3.45000000
   H     49.56000000    46.51000000     3.08000000
   N     48.15000000    44.98000000     5.25000000
   C     47.45000000    43.84000000     5.78000000
   C     48.25000000    42.94000000     6.72000000
   O     48.05000000    42.96000000     7.93000000
   C     46.13000000    44.37000000     6.34000000
   C     45.26000000    43.28000000     6.91000000
   C     44.72000000    43.35000000     8.20000000
   C     44.79000000    42.26000000     6.07000000
   C     43.69000000    42.49000000     8.61000000
   C     43.86000000    41.29000000     6.47000000
   C     43.27000000    41.49000000     7.72000000
   H     47.84000000    45.39000000     4.38000000
   H     47.16000000    43.22000000     4.92000000
   H     45.62000000    44.93000000     5.56000000
   H     46.41000000    45.05000000     7.14000000
   H     45.07000000    44.17000000     8.81000000
   H     45.16000000    42.22000000     5.06000000
   H     43.22000000    42.64000000     9.57000000
   H     43.50000000    40.54000000     5.77000000
   H     42.46000000    40.87000000     8.07000000
   N     49.24000000    42.20000000     6.21000000
   C     50.08000000    41.35000000     7.01000000
   C     51.05000000    42.01000000     7.98000000
   O     51.26000000    41.46000000     9.06000000
   C     50.85000000    40.36000000     6.13000000
   C     50.18000000    40.54000000     4.77000000
   C     49.57000000    41.93000000     4.82000000
   H     49.48000000    40.66000000     7.61000000
   H     51.91000000    40.61000000     6.12000000
   H     50.66000000    39.36000000     6.51000000
   H     50.97000000    40.49000000     4.02000000
   H     49.39000000    39.79000000     4.80000000
   H     50.33000000    42.68000000     4.61000000
   H     48.74000000    42.07000000     4.13000000
   N     51.46000000    43.27000000     7.81000000
   C     52.21000000    44.02000000     8.80000000
   C     51.28000000    44.39000000     9.95000000
   O     51.76000000    44.38000000    11.08000000
   C     52.79000000    45.30000000     8.20000000
   C     53.83000000    45.17000000     7.09000000
   C     54.38000000    46.51000000     6.62000000
   O     55.42000000    46.50000000     5.94000000
   O     53.71000000    47.56000000     6.72000000
   H     51.13000000    43.85000000     7.05000000
   H     53.03000000    43.37000000     9.09000000
   H     53.38000000    45.79000000     8.98000000
   H     51.99000000    45.96000000     7.86000000
   H     53.32000000    44.61000000     6.30000000
   H     54.71000000    44.64000000     7.43000000
   N     49.99000000    44.65000000     9.75000000
   C     49.00000000    44.88000000    10.79000000
   H     48.06700000    44.38700000    10.51800000
   H     49.36300000    44.47400000    11.73400000
   H     48.82700000    45.95100000    10.89700000
   H     49.65000000    44.52000000     8.81000000
  Ca     54.47000000    48.59000000     4.43000000
   O     54.29000000    51.12000000     3.67000000
   H     54.61000000    51.70000000     2.98000000
   H     53.65000000    51.65000000     4.14000000
   O     55.64000000    46.55000000     2.86000000
   H     55.16000000    45.72000000     2.88000000
   H     56.26000000    46.45000000     2.14000000
   O     53.30000000    48.94000000     2.05000000
   H     52.37000000    49.07000000     2.24000000
   H     53.59000000    49.76000000     1.66000000

Ca 1.70



