%chk=loop2.cluster178.chk
%nprocshared=48
%mem=10GB
%nosave
#b3lyp/svp scf=(tight,noincore) Test 
#IOP(5/87=12) Density=Current Pop=(MK,readradii) iop(6/33=2) iop(6/42=6)

loop2.cluster178 

   -2  1 
   C     51.76000000   -12.26000000    27.25000000
   C     51.34000000   -13.33000000    28.25000000
   O     50.31000000   -13.28000000    28.92000000
   H     52.77400000   -12.46300000    26.90600000
   H     51.07900000   -12.27000000    26.39900000
   H     51.72900000   -11.28200000    27.72900000
   N     52.11000000   -14.42000000    28.32000000
   C     51.87000000   -15.49000000    29.26000000
   C     52.26000000   -15.12000000    30.69000000
   O     51.53000000   -15.41000000    31.63000000
   C     52.54000000   -16.68000000    28.57000000
   C     52.64000000   -17.91000000    29.45000000
   O     53.66000000   -18.07000000    30.16000000
   O     51.74000000   -18.74000000    29.70000000
   H     52.80000000   -14.54000000    27.60000000
   H     50.79000000   -15.61000000    29.24000000
   H     53.56000000   -16.38000000    28.33000000
   H     51.92000000   -16.87000000    27.69000000
   N     53.49000000   -14.63000000    30.86000000
   C     54.08000000   -14.31000000    32.14000000
   C     53.25000000   -13.47000000    33.11000000
   O     53.16000000   -13.77000000    34.29000000
   C     54.62000000   -15.58000000    32.80000000
   H     53.96000000   -14.40000000    29.99000000
   H     54.86000000   -13.59000000    31.89000000
   H     55.18000000   -15.30000000    33.70000000
   H     53.70000000   -16.11000000    33.05000000
   H     55.21000000   -16.20000000    32.14000000
   N     52.57000000   -12.45000000    32.58000000
   C     51.82000000   -11.52000000    33.40000000
   C     50.69000000   -12.10000000    34.23000000
   O     50.24000000   -11.54000000    35.23000000
   C     52.83000000   -10.61000000    34.10000000
   C     53.66000000    -9.71000000    33.20000000
   O     54.87000000    -9.58000000    33.49000000
   O     53.10000000    -8.97000000    32.37000000
   H     52.64000000   -12.26000000    31.59000000
   H     51.30000000   -10.93000000    32.65000000
   H     53.52000000   -11.16000000    34.74000000
   H     52.32000000   -10.03000000    34.87000000
   N     50.16000000   -13.27000000    33.91000000
   C     48.98000000   -13.88000000    34.49000000
   C     47.66000000   -13.17000000    34.19000000
   O     47.36000000   -12.84000000    33.05000000
   H     50.79000000   -13.73000000    33.26000000
   H     49.20000000   -13.96000000    35.55000000
   H     48.89000000   -14.91000000    34.13000000
   N     46.92000000   -12.97000000    35.28000000
   C     45.59000000   -12.41000000    35.23000000
   C     44.59000000   -13.09000000    34.31000000
   O     43.73000000   -12.44000000    33.71000000
   C     45.62000000   -10.91000000    34.95000000
   C     46.64000000   -10.11000000    35.76000000
   N     47.80000000    -9.87000000    35.14000000
   O     46.49000000    -9.90000000    36.96000000
   H     47.11000000   -13.44000000    36.16000000
   H     45.17000000   -12.55000000    36.23000000
   H     44.62000000   -10.56000000    35.18000000
   H     45.68000000   -10.72000000    33.88000000
   H     47.87000000   -10.13000000    34.17000000
   H     48.52000000    -9.43000000    35.69000000
   N     44.80000000   -14.39000000    34.09000000
   C     44.07000000   -15.26000000    33.20000000
   C     44.58000000   -15.25000000    31.76000000
   O     44.34000000   -16.12000000    30.93000000
   H     45.47000000   -14.88000000    34.66000000
   H     43.02000000   -14.95000000    33.16000000
   H     44.05000000   -16.30000000    33.52000000
   N     45.37000000   -14.23000000    31.39000000
   C     45.97000000   -14.01000000    30.10000000
   C     45.70000000   -12.63000000    29.51000000
   O     45.44000000   -11.68000000    30.24000000
   C     47.46000000   -14.32000000    30.10000000
   C     47.97000000   -15.50000000    30.93000000
   O     47.95000000   -14.53000000    28.79000000
   H     45.40000000   -13.48000000    32.07000000
   H     45.49000000   -14.67000000    29.37000000
   H     47.86000000   -13.35000000    30.39000000
   H     48.85000000   -14.22000000    28.68000000
   H     47.46000000   -16.38000000    30.55000000
   H     49.06000000   -15.49000000    30.93000000
   H     47.58000000   -15.43000000    31.94000000
   N     45.75000000   -12.45000000    28.19000000
   C     45.61000000   -11.20000000    27.47000000
   C     46.72000000   -10.22000000    27.84000000
   O     47.83000000   -10.58000000    28.21000000
   C     45.56000000   -11.33000000    25.95000000
   C     46.74000000   -12.10000000    25.37000000
   C     44.25000000   -11.88000000    25.40000000
   C     46.76000000   -11.90000000    23.86000000
   H     45.70000000   -13.33000000    27.68000000
   H     44.67000000   -10.74000000    27.78000000
   H     45.48000000   -10.33000000    25.53000000
   H     46.67000000   -13.16000000    25.62000000
   H     47.67000000   -11.62000000    25.65000000
   H     43.37000000   -11.57000000    25.97000000
   H     44.04000000   -11.61000000    24.36000000
   H     44.37000000   -12.96000000    25.39000000
   H     45.87000000   -12.21000000    23.30000000
   H     47.03000000   -10.88000000    23.60000000
   H     47.59000000   -12.52000000    23.53000000
   N     46.40000000    -8.93000000    27.79000000
   C     47.34000000    -7.87000000    28.09000000
   C     46.80000000    -6.99000000    29.21000000
   O     47.10000000    -5.80000000    29.22000000
   C     47.62000000    -7.10000000    26.80000000
   C     48.95000000    -6.38000000    26.92000000
   O     49.66000000    -6.55000000    27.94000000
   O     49.28000000    -5.61000000    25.99000000
   H     45.55000000    -8.63000000    27.33000000
   H     48.27000000    -8.37000000    28.35000000
   H     46.75000000    -6.46000000    26.62000000
   H     47.76000000    -7.87000000    26.03000000
   N     46.15000000    -7.51000000    30.26000000
   C     45.91000000    -6.82000000    31.51000000
   C     44.78000000    -5.81000000    31.35000000
   O     44.97000000    -4.68000000    31.79000000
   C     45.73000000    -7.82000000    32.65000000
   C     45.17000000    -7.30000000    33.95000000
   C     43.89000000    -7.74000000    34.33000000
   C     45.93000000    -6.54000000    34.84000000
   C     43.27000000    -7.26000000    35.49000000
   C     45.38000000    -6.12000000    36.05000000
   C     44.06000000    -6.48000000    36.34000000
   H     45.98000000    -8.50000000    30.22000000
   H     46.78000000    -6.19000000    31.72000000
   H     46.74000000    -8.19000000    32.79000000
   H     45.05000000    -8.62000000    32.34000000
   H     43.33000000    -8.41000000    33.68000000
   H     46.93000000    -6.23000000    34.55000000
   H     42.28000000    -7.63000000    35.70000000
   H     45.99000000    -5.60000000    36.77000000
   H     43.57000000    -6.15000000    37.25000000
   N     43.56000000    -6.12000000    30.90000000
   C     43.10000000    -7.27000000    30.15000000
   C     43.09000000    -7.09000000    28.64000000
   O     43.31000000    -8.05000000    27.90000000
   C     41.65000000    -7.54000000    30.55000000
   C     41.36000000    -6.50000000    31.63000000
   C     42.42000000    -5.42000000    31.46000000
   H     43.69000000    -8.17000000    30.32000000
   H     40.94000000    -7.34000000    29.74000000
   H     41.46000000    -8.57000000    30.87000000
   H     40.34000000    -6.12000000    31.66000000
   H     41.47000000    -6.98000000    32.60000000
   H     42.11000000    -4.78000000    30.64000000
   H     42.67000000    -4.96000000    32.42000000
   N     42.91000000    -5.86000000    28.15000000
   C     42.57000000    -5.31000000    26.85000000
   C     43.49000000    -5.63000000    25.68000000
   O     44.67000000    -5.34000000    25.56000000
   C     42.39000000    -3.81000000    27.05000000
   C     42.11000000    -3.08000000    25.74000000
   C     42.05000000    -1.60000000    26.07000000
   O     43.09000000    -0.92000000    26.19000000
   O     40.91000000    -1.10000000    26.18000000
   H     42.83000000    -5.13000000    28.85000000
   H     41.61000000    -5.69000000    26.50000000
   H     43.34000000    -3.41000000    27.41000000
   H     41.63000000    -3.56000000    27.79000000
   H     41.17000000    -3.38000000    25.26000000
   H     42.90000000    -3.29000000    25.02000000
   N     42.83000000    -6.26000000    24.69000000
   C     43.47000000    -6.84000000    23.53000000
   H     44.47500000    -7.16900000    23.79600000
   H     42.88900000    -7.69400000    23.18300000
   H     43.53000000    -6.09500000    22.73700000
   H     41.84000000    -6.43000000    24.76000000
  Ca     51.82000000    -6.08300000    29.39000000
   O     52.07000000    -3.86300000    30.81000000
   H     52.00000000    -3.84300000    31.76000000
   H     51.88000000    -2.96300000    30.53000000
   O     52.04000000    -8.60300000    29.77000000
   H     52.54000000    -8.90300000    30.53000000
   H     51.33000000    -9.24300000    29.68000000
   O     53.08000000    -7.12300000    27.26000000
   H     53.60000000    -7.92300000    27.21000000
   H     52.87000000    -6.92300000    26.35000000
   O     49.41000000    -5.45300000    30.42000000
   H     49.01000000    -5.27300000    31.28000000
   H     48.66000000    -5.61300000    29.84000000
   O     54.36000000    -5.71300000    29.68000000
   H     54.99000000    -5.11300000    30.08000000
   H     54.86000000    -6.18300000    29.02000000
   O     51.62000000    -6.69300000    31.96000000
   H     52.12000000    -7.50300000    32.08000000
   H     50.97000000    -6.72300000    32.66000000
   O     52.03000000    -3.81300000    27.82000000
   H     52.68000000    -3.11300000    27.90000000
   H     51.80000000    -3.81300000    26.89000000

Ca 1.70



