%Nproc=28
%chk=holo0.1.chk
%mem=80GB
%NoSave
#MP2(semidirect)/Gen scf=(tight,noincore) Test
#IOP(5/87=12) Density=Current Pop=(MK,readradii) iop(6/33=2) iop(6/42=6)

holo_loop_3_model_0.1 

   0   1
   C     51.18000000    51.81800000    47.01100000
   C     52.17700000    50.68400000    46.79200000
   C     52.98600000    50.31900000    48.02900000
   O     52.78300000    50.86200000    49.11200000
   O     54.00100000    49.41600000    47.90300000
   H     50.70700000    52.07200000    46.06200000
   H     51.70300000    52.69100000    47.40300000
   H     50.41700000    51.50200000    47.72200000
   H     52.86900000    50.97500000    46.00200000
   H     51.64800000    49.77400000    46.51000000
   H     54.13500000    49.37900000    46.95300000
   C     54.30000000    54.04300000    51.48400000
   C     54.07300000    53.53500000    52.90600000
   C     53.36400000    52.18800000    52.89500000
   O     53.07600000    51.54300000    51.86300000
   O     52.92200000    51.82100000    54.00500000
   H     53.43100000    53.94700000    50.83300000
   H     55.08300000    53.47800000    50.97900000
   H     54.60600000    55.07300000    51.66900000
   H     53.33400000    54.18000000    53.38300000
   H     54.96900000    53.44700000    53.51900000
   C     45.10900000    52.67700000    49.90300000
   C     46.43200000    51.99000000    49.57700000
   C     47.45300000    52.22700000    50.68600000
   C     48.66700000    51.34700000    50.42200000
   O     48.71000000    50.19100000    50.89600000
   O     49.73700000    51.89500000    50.08200000
   H     44.63300000    52.23200000    50.77700000
   H     44.41300000    52.57500000    49.07000000
   H     45.34900000    53.72700000    50.07000000
   H     46.77100000    52.29500000    48.58700000
   H     46.21100000    50.92600000    49.48400000
   H     47.06100000    52.03700000    51.68500000
   H     47.89200000    53.22500000    50.68000000
  Ca     51.32900000    49.91800000    50.99500000
   O     50.36500000    51.25600000    53.25100000
   H     49.88200000    52.07600000    53.34600000
   H     51.25600000    51.46800000    53.53000000

C O H 0
aug-cc-pVTZ 
****
@/home/pzhang5/ca_ccpvtz_basisset.gbs/N

Ca 1.70




