%Nproc=28
%chk=holo7.0.chk
%mem=80GB
%NoSave
#MP2(semidirect)/Gen scf=(tight,noincore) Test
#IOP(5/87=12) Density=Current Pop=(MK,readradii) iop(6/33=2) iop(6/42=6)

holo_loop_3_model_7.0 

   0   1
   C     29.70200000    24.92300000    43.23300000
   C     31.15900000    25.16800000    43.61600000
   C     31.52900000    25.74100000    44.97600000
   O     30.81200000    25.87200000    45.96500000
   O     32.75100000    26.34800000    44.98900000
   H     29.58300000    24.69400000    42.17400000
   H     29.09800000    25.81000000    43.42100000
   H     29.39000000    24.09900000    43.87500000
   H     31.53400000    25.80800000    42.81700000
   H     31.69400000    24.22100000    43.53900000
   H     33.22900000    26.26300000    44.16200000
   C     28.35500000    28.51500000    47.89900000
   C     27.98300000    27.78200000    49.18500000
   C     28.62800000    26.40400000    49.16300000
   O     27.94000000    25.43600000    48.77200000
   O     29.85100000    26.24100000    49.36500000
   H     27.98800000    27.94700000    47.04400000
   H     29.43900000    28.61200000    47.83800000
   H     27.90200000    29.50600000    47.89200000
   H     26.90400000    27.70000000    49.31300000
   H     28.41600000    28.38200000    49.98500000
   C     25.07200000    20.98700000    44.64800000
   C     26.51000000    21.42200000    44.91300000
   C     26.51000000    22.55500000    45.93500000
   C     27.90600000    22.95400000    46.39200000
   O     28.43900000    23.95800000    45.87200000
   O     28.51500000    22.19100000    47.17400000
   H     24.68600000    20.46900000    45.52600000
   H     25.04800000    20.31800000    43.78800000
   H     24.45300000    21.86100000    44.44500000
   H     27.11200000    21.55800000    44.01500000
   H     27.06500000    20.57900000    45.32600000
   H     25.89100000    22.28200000    46.79000000
   H     26.02900000    23.42300000    45.48500000
  Ca     30.23100000    24.10500000    48.08100000
   O     29.69600000    22.63100000    50.49900000
   H     28.76300000    22.77200000    50.66100000
   H     29.95900000    21.98500000    51.15500000

C O H 0
aug-cc-pVTZ 
****
@/home/pzhang5/ca_ccpvtz_basisset.gbs/N

Ca 1.70




