%chk=loop3.cluster80.chk
%nprocshared=20
%mem=10GB
%nosave
#b3lyp/svp scf=(tight,noincore,xqc) Test 
#IOP(5/87=12) Density=Current Pop=(MK,readradii) iop(6/33=2) iop(6/42=6)

loop3.cluster80 

   0  1 
   C    105.12000000    47.79000000    12.19000000
   C    106.35000000    47.84000000    11.29000000
   O    106.51000000    47.05000000    10.37000000
   H    104.27200000    47.40300000    11.62500000
   H    105.31800000    47.13700000    13.04000000
   H    104.88900000    48.79400000    12.54700000
   N    107.13000000    48.93000000    11.34000000
   C    108.29000000    49.22000000    10.52000000
   C    109.54000000    48.45000000    10.90000000
   O    109.91000000    48.23000000    12.05000000
   C    108.55000000    50.70000000    10.27000000
   C    108.67000000    51.57000000    11.51000000
   O    107.73000000    51.60000000    12.33000000
   O    109.66000000    52.32000000    11.68000000
   H    107.04000000    49.58000000    12.10000000
   H    107.95000000    48.91000000     9.53000000
   H    107.80000000    51.14000000     9.62000000
   H    109.49000000    50.77000000     9.72000000
   N    110.28000000    48.09000000     9.85000000
   C    111.64000000    47.60000000     9.95000000
   C    111.80000000    46.09000000     9.79000000
   O    112.89000000    45.59000000    10.08000000
   C    112.53000000    48.30000000     8.93000000
   C    112.55000000    49.82000000     8.92000000
   C    112.85000000    50.43000000    10.29000000
   C    112.96000000    51.95000000    10.17000000
   N    113.62000000    52.54000000    11.34000000
   H    109.92000000    48.20000000     8.91000000
   H    111.99000000    47.79000000    10.96000000
   H    112.21000000    48.00000000     7.94000000
   H    113.55000000    47.93000000     9.07000000
   H    111.63000000    50.14000000     8.43000000
   H    113.34000000    50.18000000     8.26000000
   H    113.83000000    50.08000000    10.62000000
   H    112.16000000    50.22000000    11.10000000
   H    111.94000000    52.34000000    10.18000000
   H    113.53000000    52.23000000     9.28000000
   H    113.81000000    53.53000000    11.39000000
   H    113.06000000    52.27000000    12.13000000
   H    114.55000000    52.13000000    11.33000000
   N    110.75000000    45.28000000     9.63000000
   C    110.76000000    43.85000000     9.82000000
   C    110.09000000    43.15000000     8.64000000
   O    109.36000000    42.17000000     8.78000000
   C    110.03000000    43.48000000    11.11000000
   C    108.75000000    44.26000000    11.33000000
   O    107.89000000    44.26000000    10.43000000
   O    108.60000000    44.82000000    12.44000000
   H    109.93000000    45.84000000     9.45000000
   H    111.79000000    43.51000000     9.86000000
   H    110.62000000    43.76000000    11.99000000
   H    109.79000000    42.42000000    11.16000000
   N    110.24000000    43.72000000     7.44000000
   C    109.52000000    43.27000000     6.27000000
   C    108.07000000    43.74000000     6.22000000
   O    107.48000000    43.96000000     7.28000000
   H    110.61000000    44.65000000     7.49000000
   H    109.64000000    42.19000000     6.18000000
   H    109.99000000    43.78000000     5.43000000
   N    107.43000000    44.04000000     5.09000000
   C    107.62000000    43.39000000     3.80000000
   C    106.35000000    42.66000000     3.38000000
   O    105.26000000    43.17000000     3.57000000
   C    108.12000000    44.45000000     2.83000000
   C    108.12000000    44.03000000     1.37000000
   N    107.06000000    44.21000000     0.59000000
   O    109.13000000    43.52000000     0.88000000
   H    106.55000000    44.51000000     5.20000000
   H    108.44000000    42.70000000     4.01000000
   H    109.10000000    44.74000000     3.22000000
   H    107.45000000    45.31000000     2.89000000
   H    106.30000000    44.80000000     0.90000000
   H    107.13000000    43.84000000    -0.34000000
   N    106.41000000    41.44000000     2.83000000
   C    107.50000000    40.48000000     2.86000000
   C    107.62000000    39.77000000     4.20000000
   O    107.27000000    40.30000000     5.26000000
   H    105.46000000    41.14000000     2.69000000
   H    108.42000000    41.07000000     2.79000000
   H    107.49000000    39.91000000     1.93000000
   N    107.94000000    38.48000000     4.27000000
   C    107.73000000    37.56000000     5.37000000
   C    108.86000000    36.54000000     5.50000000
   O    109.27000000    35.97000000     4.49000000
   C    106.37000000    36.96000000     5.05000000
   C    105.19000000    37.89000000     4.86000000
   C    104.57000000    38.43000000     5.99000000
   C    104.74000000    38.28000000     3.59000000
   C    103.44000000    39.24000000     5.88000000
   C    103.63000000    39.13000000     3.45000000
   C    102.96000000    39.59000000     4.60000000
   O    101.92000000    40.47000000     4.49000000
   H    108.28000000    38.03000000     3.43000000
   H    107.67000000    38.17000000     6.27000000
   H    106.14000000    36.44000000     5.98000000
   H    106.40000000    36.28000000     4.20000000
   H    105.05000000    38.18000000     6.93000000
   H    105.28000000    37.95000000     2.72000000
   H    102.96000000    39.61000000     6.77000000
   H    103.34000000    39.35000000     2.44000000
   H    101.59000000    40.54000000     3.59000000
   N    109.29000000    36.27000000     6.73000000
   C    110.31000000    35.29000000     7.05000000
   C    109.78000000    33.86000000     6.96000000
   O    110.58000000    32.97000000     6.70000000
   C    111.03000000    35.63000000     8.35000000
   C    110.69000000    34.67000000     9.48000000
   C    112.53000000    35.61000000     8.03000000
   C    111.15000000    35.20000000    10.84000000
   H    108.98000000    36.89000000     7.47000000
   H    110.98000000    35.43000000     6.20000000
   H    110.79000000    36.65000000     8.63000000
   H    111.08000000    33.66000000     9.37000000
   H    109.60000000    34.63000000     9.47000000
   H    113.12000000    36.20000000     8.72000000
   H    112.96000000    34.62000000     8.17000000
   H    112.85000000    36.10000000     7.11000000
   H    110.49000000    36.04000000    11.08000000
   H    110.84000000    34.45000000    11.56000000
   H    112.21000000    35.48000000    10.89000000
   N    108.49000000    33.70000000     7.23000000
   C    107.71000000    32.48000000     7.19000000
   C    107.28000000    31.78000000     8.47000000
   O    106.57000000    30.78000000     8.35000000
   C    106.54000000    32.65000000     6.24000000
   O    105.62000000    33.59000000     6.75000000
   H    107.95000000    34.55000000     7.38000000
   H    108.36000000    31.73000000     6.73000000
   H    106.10000000    31.68000000     6.01000000
   H    106.91000000    33.06000000     5.30000000
   H    104.91000000    33.64000000     6.10000000
   N    107.72000000    32.17000000     9.67000000
   C    107.22000000    31.80000000    10.99000000
   C    106.80000000    33.07000000    11.71000000
   O    107.57000000    34.02000000    11.85000000
   C    108.35000000    31.08000000    11.72000000
   H    108.32000000    32.98000000     9.73000000
   H    106.36000000    31.19000000    10.74000000
   H    108.39000000    30.07000000    11.32000000
   H    109.24000000    31.69000000    11.61000000
   H    108.16000000    30.97000000    12.79000000
   N    105.56000000    32.97000000    12.20000000
   C    104.92000000    33.79000000    13.21000000
   C    104.85000000    35.26000000    12.82000000
   O    105.12000000    36.16000000    13.61000000
   C    105.63000000    33.44000000    14.51000000
   H    105.13000000    32.07000000    12.03000000
   H    103.87000000    33.48000000    13.29000000
   H    105.05000000    33.73000000    15.38000000
   H    105.50000000    32.35000000    14.58000000
   H    106.61000000    33.89000000    14.60000000
   N    104.57000000    35.53000000    11.54000000
   C    104.80000000    36.82000000    10.93000000
   C    103.54000000    37.67000000    10.85000000
   O    103.55000000    38.88000000    11.08000000
   C    105.37000000    36.68000000     9.52000000
   C    106.85000000    36.37000000     9.34000000
   C    107.75000000    37.58000000     9.53000000
   O    108.07000000    38.01000000    10.65000000
   O    108.29000000    38.15000000     8.55000000
   H    104.47000000    34.71000000    10.95000000
   H    105.60000000    37.27000000    11.53000000
   H    105.28000000    37.63000000     8.99000000
   H    104.83000000    35.87000000     9.02000000
   H    107.02000000    35.98000000     8.33000000
   H    107.09000000    35.63000000    10.11000000
   N    102.36000000    37.07000000    10.79000000
   C    101.06000000    37.69000000    10.97000000
   H    100.33000000    36.92900000    11.24700000
   H    101.12000000    38.43900000    11.76000000
   H    100.75200000    38.16600000    10.03900000
   H    102.30000000    36.06000000    10.90000000
  Ca    106.41400000    42.48000000     9.46000000
   O    104.00400000    41.37000000    10.01000000
   H    103.91400000    40.56000000    10.53000000
   H    103.11400000    41.71000000     9.94000000
   O    107.14400000    40.54000000    10.86000000
   H    107.54400000    39.68000000    10.74000000
   H    106.56400000    40.44000000    11.61000000
   O    105.08400000    44.85000000     9.38000000
   H    105.74400000    45.54000000     9.48000000
   H    104.28400000    45.31000000     9.15000000
   O    106.84400000    40.31000000     8.04000000
   H    106.94400000    40.36000000     7.09000000
   H    107.40400000    39.58000000     8.30000000
   O    105.21400000    42.87000000     7.12000000
   H    104.72400000    42.51000000     6.38000000
   H    105.38400000    43.78000000     6.87000000
   O    105.66400000    42.79000000    11.92000000
   H    105.48400000    43.46000000    12.57000000
   H    105.38400000    41.97000000    12.33000000

Ca 1.00



