%chk=loop2.cluster96.chk
%nprocshared=20
%mem=10GB
%nosave
#b3lyp/svp scf=(tight,noincore,xqc) Test 
#IOP(5/87=12) Density=Current Pop=(MK,readradii) iop(6/33=2) iop(6/42=6)

loop2.cluster96 

   -2  1 
   C     69.58000000    95.12000000    94.87000000
   C     70.84000000    94.63000000    95.58000000
   O     70.80000000    93.67000000    96.36000000
   H     68.80700000    95.33200000    95.60800000
   H     69.80700000    96.02800000    94.31200000
   H     69.22600000    94.35000000    94.18400000
   N     71.97000000    95.28000000    95.32000000
   C     73.24000000    94.84000000    95.87000000
   C     73.53000000    95.27000000    97.30000000
   O     73.78000000    94.44000000    98.17000000
   C     74.40000000    95.26000000    94.98000000
   C     75.76000000    94.67000000    95.32000000
   O     76.72000000    95.42000000    95.60000000
   O     75.82000000    93.43000000    95.46000000
   H     71.89000000    95.91000000    94.54000000
   H     73.20000000    93.75000000    95.95000000
   H     74.45000000    96.34000000    94.83000000
   H     74.20000000    94.87000000    93.98000000
   N     73.13000000    96.50000000    97.63000000
   C     72.88000000    96.98000000    98.97000000
   C     71.84000000    96.26000000    99.81000000
   O     71.66000000    96.55000000   100.99000000
   C     74.21000000    97.23000000    99.69000000
   H     72.71000000    96.99000000    96.85000000
   H     72.35000000    97.92000000    98.82000000
   H     74.72000000    98.10000000    99.28000000
   H     74.15000000    97.38000000   100.77000000
   H     74.84000000    96.38000000    99.45000000
   N     71.12000000    95.35000000    99.15000000
   C     69.94000000    94.69000000    99.68000000
   C     70.30000000    93.79000000   100.84000000
   O     69.54000000    93.58000000   101.79000000
   C     68.77000000    95.62000000    99.96000000
   C     68.61000000    96.76000000    98.95000000
   O     69.05000000    97.88000000    99.30000000
   O     67.93000000    96.64000000    97.91000000
   H     71.32000000    95.16000000    98.18000000
   H     69.67000000    94.04000000    98.85000000
   H     68.98000000    96.14000000   100.90000000
   H     67.81000000    95.12000000   100.10000000
   N     71.54000000    93.29000000   100.90000000
   C     72.11000000    92.49000000   101.97000000
   C     71.52000000    91.09000000   102.08000000
   O     70.67000000    90.69000000   101.28000000
   H     72.19000000    93.55000000   100.17000000
   H     71.90000000    92.98000000   102.92000000
   H     73.19000000    92.40000000   101.87000000
   N     71.90000000    90.34000000   103.12000000
   C     71.32000000    89.08000000   103.54000000
   C     71.32000000    87.96000000   102.51000000
   O     70.53000000    87.06000000   102.80000000
   C     69.96000000    89.39000000   104.14000000
   C     69.98000000    90.55000000   105.12000000
   N     69.37000000    91.71000000   104.83000000
   O     70.44000000    90.39000000   106.25000000
   H     72.54000000    90.75000000   103.79000000
   H     71.93000000    88.77000000   104.40000000
   H     69.58000000    88.52000000   104.67000000
   H     69.28000000    89.62000000   103.32000000
   H     68.65000000    91.72000000   104.13000000
   H     69.55000000    92.49000000   105.45000000
   N     72.10000000    87.95000000   101.42000000
   C     72.00000000    86.92000000   100.41000000
   C     71.28000000    87.32000000    99.13000000
   O     71.33000000    86.58000000    98.15000000
   H     72.76000000    88.69000000   101.24000000
   H     71.49000000    86.05000000   100.83000000
   H     73.04000000    86.65000000   100.22000000
   N     70.71000000    88.52000000    99.05000000
   C     70.18000000    89.15000000    97.86000000
   C     68.68000000    88.89000000    97.78000000
   O     67.96000000    88.85000000    98.77000000
   C     70.32000000    90.66000000    97.95000000
   C     71.76000000    91.17000000    98.06000000
   O     69.91000000    91.21000000    96.72000000
   H     70.68000000    89.14000000    99.85000000
   H     70.58000000    88.79000000    96.91000000
   H     69.74000000    91.06000000    98.79000000
   H     70.46000000    91.99000000    96.62000000
   H     72.41000000    90.68000000    97.34000000
   H     71.79000000    92.26000000    97.97000000
   H     72.23000000    90.87000000    99.00000000
   N     68.18000000    88.71000000    96.55000000
   C     66.83000000    88.54000000    96.05000000
   C     65.94000000    89.55000000    96.77000000
   O     66.24000000    90.74000000    96.81000000
   C     66.74000000    88.52000000    94.53000000
   C     67.53000000    89.61000000    93.82000000
   C     67.04000000    87.13000000    93.98000000
   C     67.06000000    89.75000000    92.37000000
   H     68.89000000    88.82000000    95.84000000
   H     66.48000000    87.58000000    96.43000000
   H     65.72000000    88.70000000    94.20000000
   H     68.56000000    89.27000000    93.71000000
   H     67.38000000    90.54000000    94.36000000
   H     68.09000000    87.08000000    94.25000000
   H     66.41000000    86.34000000    94.41000000
   H     66.97000000    87.04000000    92.90000000
   H     65.99000000    89.59000000    92.32000000
   H     67.32000000    90.71000000    91.93000000
   H     67.62000000    88.99000000    91.82000000
   N     64.84000000    89.04000000    97.32000000
   C     64.01000000    89.78000000    98.25000000
   C     63.93000000    88.94000000    99.52000000
   O     62.90000000    88.38000000    99.88000000
   C     62.65000000    89.90000000    97.57000000
   C     61.51000000    90.30000000    98.49000000
   O     61.60000000    91.42000000    99.04000000
   O     60.48000000    89.59000000    98.53000000
   H     64.60000000    88.09000000    97.10000000
   H     64.49000000    90.74000000    98.44000000
   H     62.29000000    88.99000000    97.11000000
   H     62.74000000    90.65000000    96.78000000
   N     65.06000000    88.78000000   100.21000000
   C     65.01000000    88.28000000   101.57000000
   C     64.85000000    86.77000000   101.72000000
   O     63.92000000    86.37000000   102.41000000
   C     66.20000000    88.73000000   102.42000000
   C     66.15000000    88.49000000   103.91000000
   C     66.88000000    87.46000000   104.52000000
   C     65.22000000    89.20000000   104.67000000
   C     66.76000000    87.12000000   105.88000000
   C     65.11000000    88.97000000   106.05000000
   C     65.86000000    87.91000000   106.59000000
   H     65.95000000    89.06000000    99.83000000
   H     64.13000000    88.76000000   102.00000000
   H     66.35000000    89.79000000   102.20000000
   H     67.12000000    88.33000000   101.99000000
   H     67.56000000    86.87000000   103.93000000
   H     64.51000000    89.89000000   104.23000000
   H     67.38000000    86.34000000   106.30000000
   H     64.40000000    89.53000000   106.64000000
   H     65.64000000    87.76000000   107.63000000
   N     65.81000000    85.92000000   101.33000000
   C     66.76000000    86.15000000   100.26000000
   C     66.26000000    85.50000000    98.98000000
   O     67.02000000    85.39000000    98.01000000
   C     68.06000000    85.56000000   100.80000000
   C     67.59000000    84.30000000   101.53000000
   C     66.18000000    84.68000000   101.98000000
   H     67.02000000    87.20000000   100.14000000
   H     68.78000000    85.29000000   100.01000000
   H     68.46000000    86.25000000   101.54000000
   H     67.59000000    83.40000000   100.92000000
   H     68.23000000    84.04000000   102.38000000
   H     65.48000000    83.91000000   101.65000000
   H     66.19000000    84.87000000   103.05000000
   N     64.99000000    85.13000000    98.86000000
   C     64.29000000    84.50000000    97.76000000
   C     63.83000000    85.37000000    96.59000000
   O     63.35000000    86.46000000    96.90000000
   C     63.11000000    83.74000000    98.36000000
   C     63.51000000    82.80000000    99.49000000
   C     64.49000000    81.73000000    99.02000000
   O     64.03000000    80.61000000    98.71000000
   O     65.72000000    81.93000000    99.15000000
   H     64.45000000    85.16000000    99.71000000
   H     64.96000000    83.77000000    97.33000000
   H     62.53000000    83.18000000    97.63000000
   H     62.45000000    84.52000000    98.74000000
   H     62.57000000    82.34000000    99.78000000
   H     64.01000000    83.31000000   100.32000000
   N     63.81000000    84.87000000    95.35000000
   C     63.22000000    85.56000000    94.22000000
   H     62.32000000    86.08200000    94.54400000
   H     63.93400000    86.28100000    93.82100000
   H     62.96200000    84.83700000    93.44600000
   H     64.01000000    83.90000000    95.16000000
  Ca     65.68000000    97.36000000    96.88000000
   O     62.75000000    96.87000000    97.08000000
   H     62.26000000    97.51000000    96.58000000
   H     62.29000000    96.04000000    96.93000000
   O     65.21000000    94.75000000    97.54000000
   H     66.00000000    94.24000000    97.72000000
   H     64.49000000    94.19000000    97.82000000
   O     64.46000000    96.33000000    94.88000000
   H     63.65000000    95.83000000    94.86000000
   H     64.80000000    96.28000000    93.99000000
   O     67.08000000    99.34000000    97.93000000
   H     67.56000000   100.07000000    97.54000000
   H     67.76000000    98.83000000    98.38000000
   O     65.10000000    97.37000000    99.55000000
   H     64.29000000    96.86000000    99.67000000
   H     65.50000000    97.38000000   100.42000000
   O     64.82000000    99.86300000    96.38000000
   H     64.84000000   100.76300000    96.70000000
   H     64.09000000    99.84300000    95.76000000

Ca 1.00



