%chk=loop1.cluster80.chk
%nprocshared=20
%mem=10GB
%nosave
#b3lyp/svp scf=(tight,noincore,xqc) Test 
#IOP(5/87=12) Density=Current Pop=(MK,readradii) iop(6/33=2) iop(6/42=6)

loop1.cluster80 

   0  1 
   C     45.93000000    79.27000000   120.06000000
   C     46.12000000    78.82000000   121.50000000
   O     47.14000000    78.25000000   121.89000000
   H     45.24700000    80.11900000   120.03200000
   H     46.89200000    79.56400000   119.64100000
   H     45.51300000    78.45000000   119.47500000
   N     45.16000000    79.12000000   122.37000000
   C     45.19000000    78.56000000   123.71000000
   C     44.77000000    77.11000000   123.91000000
   O     44.76000000    76.77000000   125.09000000
   C     44.42000000    79.48000000   124.65000000
   C     42.93000000    79.52000000   124.32000000
   O     42.52000000    79.47000000   123.14000000
   O     42.06000000    79.52000000   125.22000000
   H     44.36000000    79.66000000   122.10000000
   H     46.21000000    78.65000000   124.10000000
   H     44.77000000    80.51000000   124.58000000
   H     44.63000000    79.14000000   125.66000000
   N     44.33000000    76.42000000   122.86000000
   C     43.83000000    75.06000000   122.94000000
   C     45.00000000    74.11000000   123.14000000
   O     45.84000000    73.88000000   122.27000000
   C     43.11000000    74.67000000   121.65000000
   C     42.76000000    73.20000000   121.45000000
   C     42.10000000    72.93000000   120.10000000
   C     41.60000000    71.52000000   119.83000000
   N     41.37000000    71.27000000   118.40000000
   H     44.39000000    76.88000000   121.96000000
   H     43.11000000    74.99000000   123.75000000
   H     43.73000000    75.12000000   120.86000000
   H     42.19000000    75.24000000   121.55000000
   H     42.09000000    72.99000000   122.28000000
   H     43.64000000    72.55000000   121.49000000
   H     42.80000000    73.21000000   119.31000000
   H     41.28000000    73.66000000   120.08000000
   H     40.67000000    71.33000000   120.38000000
   H     42.28000000    70.74000000   120.18000000
   H     40.80000000    70.43000000   118.36000000
   H     40.87000000    72.08000000   118.06000000
   H     42.14000000    71.11000000   117.77000000
   N     45.06000000    73.47000000   124.31000000
   C     44.39000000    73.53000000   125.59000000
   C     45.18000000    73.08000000   126.81000000
   O     44.67000000    72.47000000   127.75000000
   C     43.07000000    72.77000000   125.49000000
   C     43.08000000    71.33000000   125.02000000
   O     44.19000000    70.75000000   125.05000000
   O     41.98000000    70.82000000   124.69000000
   H     45.82000000    72.81000000   124.28000000
   H     44.23000000    74.59000000   125.80000000
   H     42.38000000    73.36000000   124.89000000
   H     42.52000000    72.81000000   126.43000000
   N     46.46000000    73.44000000   126.92000000
   C     47.34000000    74.14000000   126.01000000
   C     48.06000000    73.23000000   125.03000000
   O     47.92000000    72.01000000   125.12000000
   H     46.83000000    73.40000000   127.86000000
   H     48.02000000    74.78000000   126.57000000
   H     46.71000000    74.88000000   125.49000000
   N     48.63000000    73.78000000   123.96000000
   C     48.50000000    75.11000000   123.40000000
   C     49.21000000    76.18000000   124.22000000
   O     50.23000000    75.98000000   124.88000000
   C     48.82000000    75.20000000   121.92000000
   C     50.15000000    74.62000000   121.47000000
   O     50.21000000    74.17000000   120.30000000
   O     51.14000000    74.39000000   122.20000000
   H     49.05000000    73.10000000   123.34000000
   H     47.43000000    75.30000000   123.50000000
   H     48.81000000    76.24000000   121.58000000
   H     47.96000000    74.70000000   121.47000000
   N     48.61000000    77.37000000   124.23000000
   C     48.90000000    78.54000000   125.03000000
   C     49.92000000    79.55000000   124.53000000
   O     49.80000000    80.76000000   124.74000000
   H     47.85000000    77.48000000   123.57000000
   H     49.25000000    78.20000000   126.01000000
   H     48.00000000    79.07000000   125.34000000
   N     50.94000000    79.10000000   123.81000000
   C     52.06000000    79.88000000   123.32000000
   C     52.27000000    79.34000000   121.91000000
   O     52.23000000    78.15000000   121.59000000
   C     53.36000000    79.57000000   124.06000000
   C     53.15000000    79.81000000   125.56000000
   O     54.39000000    80.44000000   123.67000000
   H     50.99000000    78.12000000   123.54000000
   H     51.82000000    80.94000000   123.32000000
   H     53.72000000    78.55000000   123.92000000
   H     55.22000000    80.19000000   124.07000000
   H     52.29000000    79.26000000   125.93000000
   H     54.06000000    79.51000000   126.08000000
   H     53.00000000    80.87000000   125.76000000
   N     52.77000000    80.20000000   121.02000000
   C     53.05000000    79.94000000   119.62000000
   C     54.23000000    80.69000000   119.02000000
   O     54.09000000    81.91000000   118.89000000
   C     51.74000000    80.06000000   118.86000000
   C     51.96000000    79.35000000   117.52000000
   C     51.12000000    81.45000000   118.78000000
   C     50.76000000    79.28000000   116.58000000
   H     52.90000000    81.14000000   121.35000000
   H     53.42000000    78.91000000   119.63000000
   H     50.92000000    79.51000000   119.34000000
   H     52.25000000    78.31000000   117.66000000
   H     52.72000000    79.88000000   116.95000000
   H     50.11000000    81.35000000   118.37000000
   H     51.11000000    81.87000000   119.79000000
   H     51.69000000    82.09000000   118.11000000
   H     49.88000000    78.85000000   117.06000000
   H     50.54000000    80.27000000   116.20000000
   H     51.03000000    78.72000000   115.68000000
   N     55.33000000    80.00000000   118.74000000
   C     56.44000000    80.59000000   118.01000000
   C     56.31000000    80.33000000   116.51000000
   O     56.89000000    81.09000000   115.74000000
   C     57.85000000    80.23000000   118.45000000
   C     58.13000000    78.73000000   118.35000000
   O     57.99000000    80.63000000   119.80000000
   H     55.35000000    78.99000000   118.83000000
   H     56.36000000    81.67000000   118.07000000
   H     58.53000000    80.78000000   117.80000000
   H     57.63000000    81.52000000   119.81000000
   H     58.14000000    78.32000000   117.34000000
   H     59.13000000    78.60000000   118.77000000
   H     57.39000000    78.13000000   118.87000000
   N     55.52000000    79.34000000   116.09000000
   C     55.41000000    78.75000000   114.77000000
   C     56.67000000    77.98000000   114.40000000
   O     57.78000000    78.43000000   114.67000000
   C     54.94000000    79.71000000   113.69000000
   C     53.70000000    80.47000000   114.14000000
   O     54.59000000    78.99000000   112.53000000
   H     55.03000000    78.83000000   116.81000000
   H     54.56000000    78.08000000   114.89000000
   H     55.70000000    80.44000000   113.40000000
   H     54.77000000    79.61000000   111.82000000
   H     54.04000000    81.32000000   114.75000000
   H     53.16000000    80.94000000   113.32000000
   H     53.03000000    79.78000000   114.66000000
   N     56.52000000    76.84000000   113.72000000
   C     57.61000000    75.91000000   113.49000000
   C     57.53000000    74.51000000   114.07000000
   O     58.54000000    74.03000000   114.58000000
   C     58.13000000    75.97000000   112.06000000
   C     59.53000000    76.56000000   111.91000000
   C     59.94000000    76.84000000   110.47000000
   C     61.38000000    77.35000000   110.35000000
   N     61.48000000    78.64000000   109.66000000
   H     55.59000000    76.67000000   113.35000000
   H     58.49000000    76.30000000   114.00000000
   H     57.49000000    76.61000000   111.45000000
   H     58.19000000    74.99000000   111.58000000
   H     60.21000000    75.89000000   112.45000000
   H     59.50000000    77.51000000   112.44000000
   H     59.28000000    77.61000000   110.08000000
   H     59.87000000    75.92000000   109.89000000
   H     61.83000000    76.61000000   109.68000000
   H     61.86000000    77.28000000   111.32000000
   H     60.79000000    78.71000000   108.93000000
   H     61.50000000    79.38000000   110.35000000
   H     62.38000000    78.66000000   109.20000000
   N     56.45000000    73.73000000   114.09000000
   C     55.05000000    73.83000000   113.72000000
   C     54.73000000    74.49000000   112.39000000
   O     54.05000000    75.51000000   112.34000000
   C     54.28000000    74.27000000   114.96000000
   C     53.89000000    73.10000000   115.86000000
   C     53.22000000    73.63000000   117.12000000
   O     52.08000000    73.28000000   117.51000000
   O     53.77000000    74.51000000   117.81000000
   H     56.72000000    72.81000000   114.43000000
   H     54.65000000    72.87000000   113.39000000
   H     53.37000000    74.76000000   114.63000000
   H     54.90000000    75.02000000   115.46000000
   H     54.86000000    72.71000000   116.17000000
   H     53.35000000    72.38000000   115.24000000
   N     55.27000000    74.01000000   111.26000000
   C     54.66000000    74.22000000   109.97000000
   H     53.76600000    74.83300000   110.08700000
   H     55.36500000    74.72800000   109.31200000
   H     54.38600000    73.25800000   109.53600000
   H     55.87000000    73.20000000   111.35000000
  Ca     52.72000000    73.68000000   120.18900000
   O     52.04000000    76.23000000   119.87900000
   H     52.29000000    76.90000000   120.51900000
   H     51.30000000    76.61000000   119.40900000
   O     54.48000000    71.65000000   119.82900000
   H     55.11000000    71.38000000   119.15900000
   H     54.69000000    71.09000000   120.58900000
   O     53.43000000    75.69000000   122.65900000
   H     52.57000000    75.28000000   122.62900000
   H     53.41000000    76.23000000   123.45900000
   O     51.56000000    71.15000000   120.82900000
   H     50.70000000    71.43000000   121.12900000
   H     51.58000000    70.21000000   121.01900000
   O     53.98000000    72.75000000   122.45900000
   H     54.68000000    72.09000000   122.41900000
   H     53.73000000    72.78000000   123.37900000
   O     55.47000000    74.44000000   120.36900000
   H     55.71000000    75.16000000   120.94900000
   H     56.06000000    73.73000000   120.60900000

Ca 1.00



