%chk=loop1.cluster34.chk
%nprocshared=20
%mem=10GB
%nosave
#b3lyp/svp scf=(tight,noincore,xqc) Test 
#IOP(5/87=12) Density=Current Pop=(MK,readradii) iop(6/33=2) iop(6/42=6)

loop1.cluster34 

   0  1 
   C     79.22000000    82.07000000    86.01000000
   C     80.60000000    82.69000000    86.20000000
   O     80.78000000    83.91000000    86.22000000
   H     78.52100000    82.83700000    85.67700000
   H     79.27600000    81.28000000    85.26100000
   H     78.87600000    81.65200000    86.95600000
   N     81.60000000    81.84000000    86.44000000
   C     82.95000000    82.32000000    86.68000000
   C     83.96000000    82.23000000    85.55000000
   O     85.13000000    82.60000000    85.60000000
   C     83.34000000    81.45000000    87.87000000
   C     83.21000000    79.95000000    87.67000000
   O     84.27000000    79.30000000    87.51000000
   O     82.12000000    79.37000000    87.53000000
   H     81.40000000    80.86000000    86.43000000
   H     82.99000000    83.36000000    87.00000000
   H     82.58000000    81.71000000    88.61000000
   H     84.35000000    81.74000000    88.18000000
   N     83.47000000    81.62000000    84.48000000
   C     84.30000000    81.26000000    83.35000000
   C     84.45000000    82.42000000    82.37000000
   O     83.46000000    83.06000000    82.03000000
   C     83.76000000    80.04000000    82.61000000
   C     83.54000000    78.82000000    83.49000000
   C     84.79000000    78.27000000    84.16000000
   C     84.47000000    76.94000000    84.84000000
   N     83.53000000    77.14000000    85.95000000
   H     82.50000000    81.32000000    84.56000000
   H     85.29000000    80.95000000    83.67000000
   H     84.40000000    79.78000000    81.77000000
   H     82.79000000    80.25000000    82.15000000
   H     83.06000000    78.13000000    82.78000000
   H     82.75000000    79.08000000    84.20000000
   H     85.17000000    79.03000000    84.84000000
   H     85.51000000    78.08000000    83.36000000
   H     85.45000000    76.55000000    85.12000000
   H     83.92000000    76.31000000    84.14000000
   H     83.39000000    76.30000000    86.50000000
   H     83.80000000    77.86000000    86.59000000
   H     82.60000000    77.49000000    85.76000000
   N     85.59000000    83.02000000    82.04000000
   C     86.95000000    82.80000000    82.51000000
   C     87.77000000    84.06000000    82.30000000
   O     88.29000000    84.21000000    81.19000000
   C     87.55000000    81.54000000    81.90000000
   C     89.00000000    81.34000000    82.31000000
   O     89.80000000    80.90000000    81.46000000
   O     89.35000000    81.84000000    83.40000000
   H     85.52000000    83.66000000    81.26000000
   H     87.01000000    82.72000000    83.59000000
   H     87.50000000    81.47000000    80.81000000
   H     87.11000000    80.60000000    82.22000000
   N     87.71000000    85.11000000    83.13000000
   C     86.86000000    85.26000000    84.29000000
   C     86.50000000    86.68000000    84.71000000
   O     87.21000000    87.56000000    84.23000000
   H     88.10000000    85.94000000    82.72000000
   H     87.31000000    84.86000000    85.20000000
   H     85.88000000    84.82000000    84.10000000
   N     85.43000000    86.92000000    85.48000000
   C     84.36000000    86.05000000    85.93000000
   C     83.61000000    86.73000000    87.06000000
   O     84.06000000    87.76000000    87.57000000
   C     83.39000000    85.69000000    84.81000000
   C     83.00000000    86.87000000    83.93000000
   O     82.95000000    86.63000000    82.70000000
   O     82.68000000    87.98000000    84.39000000
   H     85.35000000    87.86000000    85.82000000
   H     84.75000000    85.07000000    86.21000000
   H     82.51000000    85.25000000    85.27000000
   H     83.86000000    84.91000000    84.21000000
   N     82.42000000    86.25000000    87.44000000
   C     81.44000000    86.85000000    88.32000000
   C     80.40000000    87.79000000    87.73000000
   O     79.87000000    88.65000000    88.43000000
   H     82.13000000    85.39000000    87.00000000
   H     81.92000000    87.44000000    89.10000000
   H     80.91000000    86.08000000    88.89000000
   N     80.20000000    87.80000000    86.41000000
   C     79.17000000    88.57000000    85.74000000
   C     78.33000000    87.67000000    84.84000000
   O     78.91000000    86.79000000    84.22000000
   C     79.75000000    89.76000000    84.99000000
   C     78.71000000    90.78000000    84.52000000
   O     80.43000000    89.38000000    83.82000000
   H     80.69000000    87.14000000    85.82000000
   H     78.46000000    88.98000000    86.45000000
   H     80.42000000    90.22000000    85.71000000
   H     81.28000000    88.96000000    84.01000000
   H     77.98000000    90.43000000    83.80000000
   H     78.21000000    91.17000000    85.41000000
   H     79.14000000    91.63000000    84.00000000
   N     77.01000000    87.92000000    84.82000000
   C     75.99000000    87.38000000    83.94000000
   C     75.22000000    88.55000000    83.33000000
   O     74.78000000    89.47000000    84.01000000
   C     75.19000000    86.32000000    84.67000000
   C     74.12000000    85.62000000    83.84000000
   C     74.58000000    86.63000000    86.04000000
   C     74.83000000    85.05000000    82.62000000
   H     76.65000000    88.60000000    85.47000000
   H     76.51000000    86.85000000    83.14000000
   H     75.98000000    85.59000000    84.81000000
   H     73.35000000    86.37000000    83.63000000
   H     73.74000000    84.76000000    84.38000000
   H     74.10000000    85.76000000    86.48000000
   H     75.40000000    87.04000000    86.63000000
   H     73.83000000    87.41000000    86.04000000
   H     74.94000000    85.85000000    81.88000000
   H     75.76000000    84.53000000    82.85000000
   H     74.16000000    84.37000000    82.09000000
   N     75.05000000    88.54000000    82.01000000
   C     74.42000000    89.59000000    81.23000000
   C     73.77000000    89.13000000    79.94000000
   O     72.82000000    89.62000000    79.33000000
   C     75.45000000    90.67000000    80.89000000
   C     74.96000000    91.86000000    80.08000000
   O     76.43000000    90.10000000    80.05000000
   H     75.53000000    87.87000000    81.44000000
   H     73.65000000    90.10000000    81.81000000
   H     75.98000000    91.01000000    81.78000000
   H     77.04000000    90.83000000    79.94000000
   H     74.25000000    92.40000000    80.70000000
   H     75.86000000    92.46000000    79.93000000
   H     74.60000000    91.63000000    79.08000000
   N     74.12000000    87.90000000    79.54000000
   C     73.77000000    87.20000000    78.33000000
   C     74.34000000    87.91000000    77.11000000
   O     74.59000000    89.12000000    77.12000000
   C     72.29000000    86.88000000    78.17000000
   C     71.77000000    86.05000000    79.34000000
   O     72.06000000    86.14000000    76.99000000
   H     74.93000000    87.43000000    79.93000000
   H     74.30000000    86.24000000    78.29000000
   H     71.75000000    87.80000000    77.94000000
   H     72.65000000    85.39000000    76.96000000
   H     71.37000000    86.68000000    80.14000000
   H     71.03000000    85.36000000    78.93000000
   H     72.57000000    85.43000000    79.75000000
   N     74.72000000    87.15000000    76.08000000
   C     75.24000000    87.53000000    74.79000000
   C     76.65000000    87.12000000    74.36000000
   O     77.27000000    87.88000000    73.62000000
   C     74.21000000    87.28000000    73.70000000
   C     73.47000000    88.54000000    73.25000000
   C     72.31000000    88.80000000    74.21000000
   C     71.73000000    90.20000000    74.02000000
   N     70.35000000    90.22000000    74.53000000
   H     74.68000000    86.15000000    76.24000000
   H     75.40000000    88.61000000    74.72000000
   H     73.48000000    86.52000000    73.97000000
   H     74.70000000    86.91000000    72.80000000
   H     73.10000000    88.42000000    72.24000000
   H     74.17000000    89.38000000    73.22000000
   H     72.62000000    88.77000000    75.26000000
   H     71.53000000    88.04000000    74.12000000
   H     71.77000000    90.35000000    72.94000000
   H     72.46000000    90.86000000    74.48000000
   H     69.87000000    91.08000000    74.28000000
   H     69.92000000    89.36000000    74.25000000
   H     70.37000000    90.29000000    75.54000000
   N     77.24000000    85.97000000    74.69000000
   C     76.97000000    84.87000000    75.59000000
   C     75.52000000    84.41000000    75.51000000
   O     74.85000000    84.31000000    76.53000000
   C     77.49000000    85.14000000    77.00000000
   C     78.90000000    85.72000000    76.97000000
   C     79.42000000    85.99000000    78.38000000
   O     80.02000000    85.05000000    78.95000000
   O     79.20000000    87.11000000    78.88000000
   H     78.17000000    85.90000000    74.30000000
   H     77.52000000    83.99000000    75.25000000
   H     77.45000000    84.29000000    77.68000000
   H     76.81000000    85.89000000    77.40000000
   H     78.88000000    86.66000000    76.43000000
   H     79.55000000    84.98000000    76.51000000
   N     75.00000000    84.18000000    74.30000000
   C     73.63000000    83.76000000    74.07000000
   H     73.00600000    84.63700000    73.89700000
   H     73.59100000    83.10900000    73.19700000
   H     73.26300000    83.22000000    74.94300000
   H     75.67000000    84.29000000    73.54000000
  Ca     82.07000000    84.93000000    80.75000000
   O     82.46000000    86.84000000    79.22000000
   H     81.63000000    87.29000000    79.07000000
   H     83.12000000    87.53000000    79.10000000
   O     82.75000000    83.10000000    78.88000000
   H     82.90000000    82.16000000    78.97000000
   H     82.75000000    83.26000000    77.94000000
   O     80.49000000    82.84000000    81.09000000
   H     80.59000000    82.41000000    81.94000000
   H     80.00000000    82.21000000    80.56000000
   O     84.69000000    85.16000000    80.02000000
   H     85.24000000    85.78000000    80.51000000
   H     85.00000000    85.23000000    79.12000000
   O     80.50000000    84.59000000    83.29000000
   H     80.46000000    84.60000000    84.25000000
   H     79.72000000    85.07000000    83.01000000
   O     80.42000000    86.98000000    81.48000000
   H     80.18000000    87.34000000    82.33000000
   H     80.10000000    87.62000000    80.85000000

Ca 1.00



