%chk=loop1.cluster35.chk
%nprocshared=20
%mem=10GB
%nosave
#b3lyp/svp scf=(tight,noincore,xqc) Test 
#IOP(5/87=12) Density=Current Pop=(MK,readradii) iop(6/33=2) iop(6/42=6)

loop1.cluster35 

   0  1 
   C     41.94000000    37.81000000    11.80000000
   C     41.77000000    38.19000000    10.33000000
   O     42.34000000    39.19000000     9.89000000
   H     42.59000000    38.53500000    12.28900000
   H     40.96600000    37.80700000    12.29000000
   H     42.38600000    36.81800000    11.87000000
   N     40.85000000    37.54000000     9.62000000
   C     40.51000000    37.79000000     8.24000000
   C     39.25000000    38.64000000     8.09000000
   O     38.64000000    38.71000000     7.02000000
   C     40.48000000    36.57000000     7.32000000
   C     39.54000000    35.43000000     7.69000000
   O     39.33000000    34.55000000     6.83000000
   O     38.96000000    35.39000000     8.80000000
   H     40.42000000    36.77000000    10.11000000
   H     41.25000000    38.47000000     7.82000000
   H     41.52000000    36.27000000     7.39000000
   H     40.32000000    36.87000000     6.28000000
   N     38.87000000    39.47000000     9.06000000
   C     37.89000000    40.52000000     8.95000000
   C     38.46000000    41.76000000     9.62000000
   O     38.33000000    41.91000000    10.83000000
   C     36.58000000    40.16000000     9.66000000
   C     35.86000000    38.96000000     9.05000000
   C     34.98000000    39.39000000     7.89000000
   C     34.14000000    38.28000000     7.26000000
   N     33.11000000    38.84000000     6.37000000
   H     39.32000000    39.29000000     9.95000000
   H     37.61000000    40.75000000     7.92000000
   H     35.84000000    40.96000000     9.65000000
   H     36.80000000    39.95000000    10.70000000
   H     35.24000000    38.60000000     9.87000000
   H     36.56000000    38.21000000     8.69000000
   H     35.53000000    39.97000000     7.15000000
   H     34.30000000    40.16000000     8.27000000
   H     33.64000000    37.77000000     8.09000000
   H     34.78000000    37.48000000     6.89000000
   H     32.63000000    39.61000000     6.82000000
   H     33.41000000    39.15000000     5.46000000
   H     32.42000000    38.12000000     6.19000000
   N     39.01000000    42.79000000     8.96000000
   C     38.98000000    43.00000000     7.52000000
   C     37.62000000    43.21000000     6.88000000
   O     36.60000000    42.75000000     7.40000000
   C     39.87000000    41.97000000     6.83000000
   C     41.16000000    42.44000000     6.17000000
   O     41.62000000    43.55000000     6.52000000
   O     41.64000000    41.79000000     5.22000000
   H     39.12000000    43.59000000     9.57000000
   H     39.48000000    43.96000000     7.38000000
   H     39.34000000    41.43000000     6.04000000
   H     40.20000000    41.26000000     7.58000000
   N     37.51000000    43.86000000     5.72000000
   C     38.53000000    44.43000000     4.87000000
   C     38.02000000    44.59000000     3.44000000
   O     36.94000000    45.15000000     3.26000000
   H     36.54000000    44.01000000     5.47000000
   H     39.45000000    43.86000000     4.96000000
   H     38.81000000    45.45000000     5.14000000
   N     38.70000000    44.24000000     2.35000000
   C     39.69000000    43.18000000     2.34000000
   C     39.07000000    41.85000000     2.74000000
   O     37.86000000    41.70000000     2.57000000
   C     40.35000000    43.08000000     0.97000000
   C     41.59000000    42.20000000     0.97000000
   O     42.08000000    41.90000000    -0.15000000
   O     42.08000000    41.93000000     2.08000000
   H     38.32000000    44.58000000     1.48000000
   H     40.41000000    43.54000000     3.08000000
   H     40.63000000    44.12000000     0.78000000
   H     39.59000000    42.87000000     0.22000000
   N     39.83000000    40.88000000     3.25000000
   C     39.26000000    39.64000000     3.75000000
   C     40.31000000    38.57000000     4.00000000
   O     39.95000000    37.39000000     4.04000000
   H     40.82000000    40.96000000     3.45000000
   H     38.58000000    39.22000000     3.01000000
   H     38.75000000    39.87000000     4.68000000
   N     41.56000000    38.79000000     4.42000000
   C     42.60000000    37.82000000     4.71000000
   C     43.35000000    38.21000000     5.97000000
   O     43.52000000    39.38000000     6.28000000
   C     43.53000000    37.54000000     3.53000000
   C     42.83000000    37.08000000     2.25000000
   O     44.53000000    36.60000000     3.83000000
   H     41.75000000    39.73000000     4.72000000
   H     42.16000000    36.86000000     4.97000000
   H     44.01000000    38.51000000     3.34000000
   H     44.06000000    35.77000000     3.96000000
   H     42.27000000    37.88000000     1.78000000
   H     43.57000000    36.60000000     1.60000000
   H     42.09000000    36.30000000     2.45000000
   N     43.96000000    37.26000000     6.70000000
   C     44.83000000    37.38000000     7.85000000
   C     46.17000000    38.04000000     7.52000000
   O     46.56000000    38.96000000     8.24000000
   C     44.94000000    36.05000000     8.58000000
   C     45.63000000    36.29000000     9.93000000
   C     45.65000000    34.91000000     7.86000000
   C     45.29000000    35.23000000    10.97000000
   H     43.80000000    36.31000000     6.39000000
   H     44.34000000    38.11000000     8.49000000
   H     43.93000000    35.74000000     8.82000000
   H     45.25000000    37.23000000    10.33000000
   H     46.71000000    36.36000000     9.81000000
   H     45.25000000    34.81000000     6.85000000
   H     46.69000000    35.25000000     7.81000000
   H     45.64000000    34.03000000     8.49000000
   H     44.21000000    35.11000000    11.04000000
   H     45.66000000    34.27000000    10.61000000
   H     45.64000000    35.40000000    11.99000000
   N     46.69000000    37.72000000     6.34000000
   C     47.97000000    38.16000000     5.80000000
   C     49.05000000    38.42000000     6.84000000
   O     49.91000000    37.62000000     7.21000000
   C     47.71000000    39.23000000     4.74000000
   C     48.98000000    39.68000000     4.03000000
   O     47.17000000    40.40000000     5.31000000
   H     46.23000000    36.99000000     5.82000000
   H     48.38000000    37.35000000     5.21000000
   H     47.05000000    38.80000000     3.99000000
   H     47.17000000    41.11000000     4.66000000
   H     49.38000000    40.63000000     4.38000000
   H     49.77000000    38.94000000     4.18000000
   H     48.78000000    39.60000000     2.96000000
   N     48.98000000    39.63000000     7.40000000
   C     49.92000000    40.41000000     8.18000000
   C     50.98000000    41.02000000     7.27000000
   O     51.27000000    40.53000000     6.18000000
   C     50.42000000    39.77000000     9.47000000
   C     49.26000000    39.59000000    10.44000000
   O     51.20000000    40.71000000    10.17000000
   H     48.16000000    40.15000000     7.13000000
   H     49.41000000    41.32000000     8.48000000
   H     50.89000000    38.80000000     9.28000000
   H     52.09000000    40.34000000    10.14000000
   H     48.65000000    38.80000000     9.99000000
   H     49.59000000    39.12000000    11.36000000
   H     48.61000000    40.46000000    10.52000000
   N     51.63000000    42.12000000     7.64000000
   C     52.53000000    42.94000000     6.85000000
   C     52.11000000    44.34000000     6.44000000
   O     52.88000000    44.87000000     5.64000000
   C     53.94000000    42.89000000     7.43000000
   C     55.00000000    42.24000000     6.55000000
   C     55.53000000    42.91000000     5.29000000
   C     56.45000000    41.98000000     4.50000000
   N     57.08000000    42.68000000     3.37000000
   H     51.58000000    42.34000000     8.63000000
   H     52.57000000    42.50000000     5.86000000
   H     53.91000000    42.22000000     8.29000000
   H     54.33000000    43.85000000     7.78000000
   H     54.72000000    41.21000000     6.32000000
   H     55.92000000    42.05000000     7.09000000
   H     56.17000000    43.71000000     5.67000000
   H     54.81000000    43.46000000     4.68000000
   H     56.02000000    41.08000000     4.07000000
   H     57.19000000    41.69000000     5.25000000
   H     56.47000000    43.09000000     2.68000000
   H     57.60000000    43.53000000     3.55000000
   H     57.75000000    42.07000000     2.92000000
   N     51.05000000    45.05000000     6.85000000
   C     49.93000000    44.82000000     7.74000000
   C     50.38000000    44.34000000     9.11000000
   O     49.71000000    43.53000000     9.74000000
   C     48.84000000    43.96000000     7.11000000
   C     48.56000000    44.36000000     5.67000000
   C     47.48000000    43.53000000     4.98000000
   O     46.30000000    43.58000000     5.37000000
   O     47.81000000    42.89000000     3.96000000
   H     51.08000000    46.00000000     6.51000000
   H     49.45000000    45.78000000     7.92000000
   H     47.92000000    44.07000000     7.69000000
   H     49.16000000    42.92000000     7.20000000
   H     49.47000000    44.40000000     5.07000000
   H     48.07000000    45.34000000     5.70000000
   N     51.47000000    44.93000000     9.63000000
   C     51.93000000    44.72000000    10.98000000
   H     52.80100000    45.34800000    11.16800000
   H     51.13600000    44.98200000    11.68000000
   H     52.20200000    43.67300000    11.11300000
   H     51.92000000    45.57000000     9.00000000
  Ca     44.21000000    42.13000000     5.90000000
   O     44.30000000    40.83000000     3.42000000
   H     43.61000000    41.15000000     2.83000000
   H     44.89000000    40.34000000     2.85000000
   O     46.01000000    41.45000000     7.75000000
   H     46.64000000    41.83000000     8.37000000
   H     46.03000000    40.51000000     7.94000000
   O     43.03000000    41.37000000     8.13000000
   H     42.91000000    40.49000000     7.79000000
   H     42.95000000    41.28000000     9.08000000
   O     43.52000000    43.64000000     3.67000000
   H     42.99000000    43.15000000     3.04000000
   H     42.95000000    44.37000000     3.93000000
   O     44.34000000    44.33000000     7.31000000
   H     45.17000000    44.79000000     7.38000000
   H     43.84000000    44.63000000     8.07000000

Ca 1.00



