%chk=loop2.cluster233.chk
%nprocshared=20
%mem=10GB
%nosave
#b3lyp/svp scf=(tight,noincore,xqc) Test 
#IOP(5/87=12) Density=Current Pop=(MK,readradii) iop(6/33=2) iop(6/42=6)

loop2.cluster233 

   -2  1 
   C    109.14000000    55.00000000    -6.40000000
   C    107.64000000    55.18000000    -6.51000000
   O    106.96000000    54.20000000    -6.22000000
   H    109.61200000    55.97100000    -6.24800000
   H    109.36800000    54.35000000    -5.55500000
   H    109.52100000    54.55100000    -7.31700000
   N    107.10000000    56.40000000    -6.56000000
   C    107.64000000    57.75000000    -6.53000000
   C    107.25000000    58.60000000    -7.73000000
   O    106.05000000    58.63000000    -7.99000000
   C    107.39000000    58.35000000    -5.15000000
   C    105.95000000    58.33000000    -4.67000000
   O    105.04000000    57.73000000    -5.29000000
   O    105.62000000    59.09000000    -3.73000000
   H    106.12000000    56.38000000    -6.80000000
   H    108.72000000    57.57000000    -6.63000000
   H    107.78000000    59.36000000    -5.27000000
   H    107.95000000    57.75000000    -4.43000000
   N    108.15000000    59.28000000    -8.43000000
   C    108.08000000    60.24000000    -9.51000000
   C    107.31000000    61.52000000    -9.21000000
   O    107.58000000    62.63000000    -9.65000000
   C    107.57000000    59.42000000   -10.70000000
   H    109.08000000    59.29000000    -8.02000000
   H    109.11000000    60.50000000    -9.73000000
   H    106.54000000    59.13000000   -10.51000000
   H    107.61000000    60.06000000   -11.57000000
   H    108.17000000    58.53000000   -10.91000000
   N    106.19000000    61.44000000    -8.49000000
   C    105.38000000    62.54000000    -8.02000000
   C    104.78000000    62.26000000    -6.64000000
   O    104.80000000    61.07000000    -6.33000000
   C    104.31000000    62.91000000    -9.04000000
   C    103.72000000    61.66000000    -9.68000000
   O    103.38000000    60.72000000    -8.93000000
   O    103.68000000    61.58000000   -10.93000000
   H    105.96000000    60.55000000    -8.07000000
   H    106.03000000    63.39000000    -7.81000000
   H    104.75000000    63.54000000    -9.81000000
   H    103.54000000    63.43000000    -8.47000000
   N    104.10000000    63.21000000    -5.99000000
   C    103.44000000    63.06000000    -4.71000000
   C    102.08000000    63.74000000    -4.83000000
   O    101.52000000    64.02000000    -5.88000000
   H    104.15000000    64.16000000    -6.33000000
   H    104.08000000    63.54000000    -3.97000000
   H    103.20000000    62.02000000    -4.50000000
   N    101.38000000    63.75000000    -3.69000000
   C    100.12000000    64.40000000    -3.39000000
   C    100.07000000    65.16000000    -2.06000000
   O    100.90000000    64.92000000    -1.19000000
   C     98.99000000    63.38000000    -3.34000000
   C     98.84000000    62.49000000    -4.56000000
   N     98.35000000    62.96000000    -5.71000000
   O     99.15000000    61.30000000    -4.55000000
   H    101.99000000    63.54000000    -2.91000000
   H     99.82000000    65.13000000    -4.14000000
   H     98.07000000    63.97000000    -3.43000000
   H     98.95000000    62.76000000    -2.45000000
   H     97.98000000    63.90000000    -5.75000000
   H     98.21000000    62.28000000    -6.45000000
   N     99.05000000    66.00000000    -1.86000000
   C     98.78000000    66.74000000    -0.64000000
   C     97.53000000    67.60000000    -0.75000000
   O     96.91000000    67.69000000    -1.80000000
   H     98.46000000    66.27000000    -2.64000000
   H     99.70000000    67.28000000    -0.43000000
   H     98.58000000    66.08000000     0.21000000
   N     97.00000000    68.05000000     0.39000000
   C     97.50000000    68.10000000     1.75000000
   C     97.15000000    66.85000000     2.54000000
   O     97.73000000    66.65000000     3.61000000
   C     97.02000000    69.37000000     2.45000000
   C     97.97000000    69.84000000     3.54000000
   O     97.00000000    70.41000000     1.50000000
   H     96.14000000    68.56000000     0.26000000
   H     98.58000000    68.22000000     1.87000000
   H     96.00000000    69.24000000     2.80000000
   H     96.06000000    70.49000000     1.30000000
   H     99.02000000    69.84000000     3.24000000
   H     97.78000000    70.89000000     3.79000000
   H     97.88000000    69.21000000     4.42000000
   N     96.15000000    66.07000000     2.14000000
   C     95.55000000    64.93000000     2.82000000
   C     94.83000000    65.31000000     4.11000000
   O     95.51000000    65.34000000     5.13000000
   C     96.52000000    63.77000000     3.04000000
   C     97.35000000    63.55000000     1.78000000
   C     95.70000000    62.58000000     3.51000000
   C     96.72000000    63.53000000     0.39000000
   H     95.76000000    66.23000000     1.22000000
   H     94.75000000    64.57000000     2.17000000
   H     97.27000000    63.95000000     3.81000000
   H     97.78000000    62.55000000     1.83000000
   H     98.18000000    64.25000000     1.79000000
   H     94.89000000    62.31000000     2.83000000
   H     96.39000000    61.75000000     3.66000000
   H     95.27000000    62.74000000     4.50000000
   H     97.43000000    63.49000000    -0.44000000
   H     96.15000000    62.61000000     0.37000000
   H     96.01000000    64.34000000     0.22000000
   N     93.51000000    65.51000000     4.11000000
   C     92.57000000    65.38000000     3.01000000
   C     92.26000000    63.93000000     2.71000000
   O     92.46000000    63.35000000     1.64000000
   C     91.31000000    66.20000000     3.30000000
   C     90.53000000    65.78000000     4.53000000
   O     91.08000000    65.30000000     5.55000000
   O     89.30000000    66.01000000     4.45000000
   H     93.09000000    65.75000000     4.99000000
   H     93.15000000    65.66000000     2.13000000
   H     90.67000000    66.21000000     2.41000000
   H     91.67000000    67.20000000     3.51000000
   N     91.89000000    63.25000000     3.79000000
   C     91.53000000    61.84000000     3.80000000
   C     90.05000000    61.64000000     4.09000000
   O     89.40000000    62.51000000     4.67000000
   C     92.42000000    61.07000000     4.76000000
   C     92.12000000    61.17000000     6.24000000
   C     92.71000000    62.12000000     7.08000000
   C     91.29000000    60.17000000     6.75000000
   C     92.53000000    62.09000000     8.47000000
   C     91.15000000    60.14000000     8.14000000
   C     91.74000000    61.06000000     9.01000000
   H     91.90000000    63.80000000     4.64000000
   H     91.69000000    61.44000000     2.79000000
   H     93.44000000    61.37000000     4.49000000
   H     92.50000000    60.01000000     4.53000000
   H     93.24000000    62.96000000     6.66000000
   H     90.65000000    59.52000000     6.16000000
   H     93.05000000    62.76000000     9.13000000
   H     90.72000000    59.28000000     8.65000000
   H     91.75000000    60.92000000    10.08000000
   N     89.47000000    60.50000000     3.71000000
   C     89.97000000    59.29000000     3.09000000
   C     90.51000000    59.44000000     1.68000000
   O     90.41000000    60.52000000     1.10000000
   C     88.83000000    58.28000000     3.10000000
   C     87.60000000    59.19000000     3.06000000
   C     88.02000000    60.45000000     3.82000000
   H     90.79000000    58.96000000     3.72000000
   H     88.80000000    57.56000000     2.29000000
   H     88.89000000    57.71000000     4.03000000
   H     87.34000000    59.44000000     2.03000000
   H     86.66000000    58.73000000     3.36000000
   H     87.65000000    61.34000000     3.32000000
   H     87.68000000    60.49000000     4.86000000
   N     91.11000000    58.34000000     1.22000000
   C     91.53000000    58.14000000    -0.15000000
   C     92.80000000    57.31000000    -0.26000000
   O     92.98000000    56.62000000    -1.26000000
   C     90.32000000    57.63000000    -0.92000000
   C     89.00000000    58.39000000    -1.09000000
   C     89.15000000    59.74000000    -1.78000000
   O     90.04000000    59.91000000    -2.65000000
   O     88.38000000    60.65000000    -1.42000000
   H     91.26000000    57.56000000     1.84000000
   H     91.73000000    59.14000000    -0.53000000
   H     90.00000000    56.71000000    -0.44000000
   H     90.64000000    57.32000000    -1.92000000
   H     88.56000000    58.52000000    -0.10000000
   H     88.37000000    57.75000000    -1.70000000
   N     93.84000000    57.35000000     0.58000000
   C     94.05000000    58.07000000     1.83000000
   H     94.79200000    58.85300000     1.67700000
   H     93.11100000    58.51800000     2.15400000
   H     94.40500000    57.37800000     2.59300000
   H     94.53000000    56.69000000     0.26000000
  Ca    103.38400000    58.84000000    -7.12400000
   O    104.21400000    56.41000000    -8.28400000
   H    104.40400000    55.48000000    -8.41400000
   H    104.36400000    56.82000000    -9.13400000
   O    102.84400000    59.31000000    -4.01400000
   H    102.32400000    59.02000000    -3.25400000
   H    103.72400000    58.99000000    -3.84400000
   O    101.31400000    60.31000000    -6.23400000
   H    100.50400000    60.49000000    -6.71400000
   H    101.09400000    60.46000000    -5.32400000
   O    101.87400000    56.91000000    -5.66400000
   H    102.04400000    55.97000000    -5.53400000
   H    100.93400000    56.96000000    -5.82400000
   O    100.98400000    58.03000000    -7.96400000
   H    100.35400000    57.40000000    -7.62400000
   H    100.53400000    58.46000000    -8.68400000
   O    103.76400000    58.27000000   -10.03400000
   H    104.50400000    57.86000000   -10.50400000
   H    103.77400000    59.18000000   -10.32400000

Ca 1.00



