%chk=loop2.cluster182.chk
%nprocshared=20
%mem=10GB
%nosave
#b3lyp/svp scf=(tight,noincore,xqc) Test 
#IOP(5/87=12) Density=Current Pop=(MK,readradii) iop(6/33=2) iop(6/42=6)

loop2.cluster182 

   -2  1 
   C     81.40000000    48.62000000    55.73000000
   C     80.80000000    48.52000000    54.33000000
   O     79.68000000    48.10000000    54.07000000
   H     82.28900000    49.25000000    55.70000000
   H     80.66800000    49.05800000    56.40900000
   H     81.67300000    47.62500000    56.08100000
   N     81.60000000    48.90000000    53.34000000
   C     81.34000000    48.61000000    51.94000000
   C     80.05000000    49.32000000    51.55000000
   O     79.97000000    50.51000000    51.25000000
   C     82.50000000    49.06000000    51.05000000
   C     82.26000000    49.00000000    49.55000000
   O     81.26000000    48.45000000    49.03000000
   O     82.99000000    49.69000000    48.81000000
   H     82.49000000    49.36000000    53.47000000
   H     81.14000000    47.56000000    51.77000000
   H     83.33000000    48.45000000    51.40000000
   H     82.75000000    50.11000000    51.18000000
   N     78.99000000    48.52000000    51.39000000
   C     77.64000000    48.96000000    51.10000000
   C     76.69000000    48.11000000    51.92000000
   O     77.04000000    46.96000000    52.20000000
   C     77.38000000    48.85000000    49.60000000
   H     79.07000000    47.54000000    51.62000000
   H     77.54000000    49.99000000    51.44000000
   H     76.31000000    48.96000000    49.43000000
   H     77.89000000    49.71000000    49.17000000
   H     77.66000000    47.89000000    49.16000000
   N     75.44000000    48.50000000    52.20000000
   C     74.75000000    49.65000000    51.65000000
   C     75.10000000    50.91000000    52.43000000
   O     75.66000000    50.80000000    53.52000000
   C     73.28000000    49.24000000    51.77000000
   C     72.95000000    48.67000000    53.14000000
   O     72.56000000    49.48000000    54.01000000
   O     73.03000000    47.46000000    53.42000000
   H     74.90000000    47.90000000    52.80000000
   H     75.00000000    49.80000000    50.60000000
   H     73.10000000    48.41000000    51.08000000
   H     72.78000000    50.18000000    51.54000000
   N     74.99000000    52.09000000    51.81000000
   C     75.37000000    53.35000000    52.42000000
   C     76.88000000    53.53000000    52.36000000
   O     77.58000000    52.74000000    51.72000000
   H     74.69000000    52.09000000    50.85000000
   H     75.04000000    53.33000000    53.46000000
   H     74.80000000    54.08000000    51.84000000
   N     77.51000000    54.45000000    53.09000000
   C     77.04000000    55.57000000    53.89000000
   C     78.01000000    55.79000000    55.05000000
   O     78.71000000    56.78000000    55.23000000
   C     76.84000000    56.84000000    53.09000000
   C     75.67000000    56.75000000    52.11000000
   N     74.48000000    56.45000000    52.63000000
   O     75.82000000    57.06000000    50.93000000
   H     78.49000000    54.46000000    52.88000000
   H     76.08000000    55.30000000    54.32000000
   H     77.72000000    57.15000000    52.53000000
   H     76.56000000    57.54000000    53.87000000
   H     74.32000000    56.55000000    53.63000000
   H     73.70000000    56.38000000    51.99000000
   N     77.97000000    54.87000000    56.02000000
   C     78.88000000    54.93000000    57.14000000
   C     78.57000000    54.14000000    58.40000000
   O     79.14000000    54.49000000    59.43000000
   H     77.24000000    54.17000000    55.99000000
   H     78.90000000    55.95000000    57.52000000
   H     79.87000000    54.73000000    56.73000000
   N     77.62000000    53.20000000    58.30000000
   C     76.87000000    52.59000000    59.38000000
   C     76.37000000    51.18000000    59.12000000
   O     75.97000000    50.89000000    58.00000000
   C     75.72000000    53.49000000    59.83000000
   C     76.04000000    54.67000000    60.75000000
   O     74.96000000    53.95000000    58.74000000
   H     77.36000000    52.95000000    57.36000000
   H     77.46000000    52.45000000    60.29000000
   H     74.98000000    52.88000000    60.36000000
   H     75.12000000    54.82000000    58.38000000
   H     76.71000000    55.26000000    60.12000000
   H     75.15000000    55.17000000    61.12000000
   H     76.68000000    54.32000000    61.56000000
   N     76.21000000    50.29000000    60.10000000
   C     75.69000000    48.93000000    60.05000000
   C     74.35000000    48.85000000    60.76000000
   O     73.89000000    49.84000000    61.33000000
   C     76.71000000    47.95000000    60.61000000
   C     77.99000000    47.82000000    59.79000000
   C     77.08000000    48.22000000    62.07000000
   C     77.78000000    47.44000000    58.33000000
   H     76.40000000    50.59000000    61.05000000
   H     75.57000000    48.67000000    59.00000000
   H     76.32000000    46.93000000    60.52000000
   H     78.55000000    47.01000000    60.26000000
   H     78.60000000    48.73000000    59.82000000
   H     76.21000000    48.62000000    62.58000000
   H     77.36000000    47.32000000    62.62000000
   H     77.97000000    48.84000000    62.06000000
   H     78.73000000    47.35000000    57.81000000
   H     77.22000000    46.51000000    58.26000000
   H     77.37000000    48.21000000    57.67000000
   N     73.77000000    47.65000000    60.77000000
   C     72.48000000    47.27000000    61.31000000
   C     72.29000000    45.76000000    61.18000000
   O     72.83000000    45.13000000    60.28000000
   C     71.37000000    47.93000000    60.50000000
   C     71.60000000    47.85000000    59.00000000
   O     72.25000000    48.73000000    58.39000000
   O     71.16000000    46.93000000    58.27000000
   H     74.18000000    46.99000000    60.13000000
   H     72.38000000    47.60000000    62.34000000
   H     71.04000000    48.93000000    60.80000000
   H     70.48000000    47.39000000    60.82000000
   N     71.52000000    45.19000000    62.11000000
   C     71.36000000    43.76000000    62.33000000
   C     72.64000000    42.95000000    62.43000000
   O     73.58000000    43.33000000    63.13000000
   C     70.62000000    43.67000000    63.66000000
   C     70.09000000    42.27000000    63.86000000
   C     70.86000000    41.23000000    64.39000000
   C     68.69000000    42.16000000    63.88000000
   C     70.29000000    39.98000000    64.68000000
   C     68.08000000    40.92000000    64.12000000
   C     68.91000000    39.84000000    64.47000000
   H     71.16000000    45.79000000    62.83000000
   H     70.72000000    43.39000000    61.53000000
   H     69.76000000    44.32000000    63.55000000
   H     71.19000000    44.07000000    64.50000000
   H     71.87000000    41.44000000    64.70000000
   H     68.10000000    43.05000000    63.74000000
   H     70.83000000    39.21000000    65.20000000
   H     67.01000000    40.86000000    64.15000000
   H     68.45000000    38.88000000    64.63000000
   N     72.69000000    41.77000000    61.81000000
   C     73.87000000    40.93000000    61.85000000
   C     74.96000000    41.46000000    60.93000000
   O     75.92000000    40.72000000    60.72000000
   C     73.38000000    39.59000000    61.33000000
   C     72.26000000    39.90000000    60.33000000
   C     71.71000000    41.20000000    60.91000000
   H     74.18000000    40.98000000    62.90000000
   H     74.18000000    39.03000000    60.85000000
   H     72.95000000    39.02000000    62.15000000
   H     72.84000000    40.12000000    59.43000000
   H     71.60000000    39.05000000    60.19000000
   H     71.55000000    41.91000000    60.09000000
   H     70.87000000    41.11000000    61.59000000
   N     74.95000000    42.62000000    60.26000000
   C     75.95000000    43.13000000    59.35000000
   C     77.25000000    43.60000000    59.98000000
   O     78.34000000    43.61000000    59.41000000
   C     75.33000000    44.07000000    58.32000000
   C     74.27000000    43.33000000    57.52000000
   C     74.16000000    44.11000000    56.22000000
   O     73.90000000    45.33000000    56.28000000
   O     74.43000000    43.60000000    55.11000000
   H     74.12000000    43.20000000    60.26000000
   H     76.27000000    42.25000000    58.79000000
   H     76.20000000    44.27000000    57.71000000
   H     75.06000000    45.02000000    58.80000000
   H     73.30000000    43.42000000    58.02000000
   H     74.55000000    42.32000000    57.21000000
   N     77.10000000    43.99000000    61.25000000
   C     78.18000000    44.27000000    62.18000000
   H     79.00900000    44.73300000    61.64500000
   H     77.82500000    44.94800000    62.95600000
   H     78.51800000    43.33900000    62.63600000
   H     76.11000000    44.03000000    61.44000000
  Ca     72.48000000    47.49000000    56.07000000
   O     74.76000000    48.67000000    56.50000000
   H     75.56000000    48.44000000    56.03000000
   H     74.97000000    49.51000000    56.92000000
   O     70.70000000    45.76000000    54.99000000
   H     70.89000000    44.92000000    54.57000000
   H     70.03000000    46.16000000    54.44000000

Ca 1.00



