%chk=loop2.cluster219.chk
%nprocshared=20
%mem=10GB
%nosave
#b3lyp/svp scf=(tight,noincore,xqc) Test 
#IOP(5/87=12) Density=Current Pop=(MK,readradii) iop(6/33=2) iop(6/42=6)

loop2.cluster219 

   -2  1 
   C     77.93000000    45.55000000    14.35000000
   C     76.49000000    45.37000000    13.90000000
   O     75.81000000    46.39000000    13.93000000
   H     78.52800000    45.91600000    13.51500000
   H     77.96900000    46.27000000    15.16700000
   H     78.32800000    44.59300000    14.68900000
   N     75.96000000    44.18000000    13.59000000
   C     76.50000000    42.84000000    13.53000000
   C     75.54000000    41.83000000    14.14000000
   O     74.42000000    42.19000000    14.47000000
   C     76.79000000    42.44000000    12.08000000
   C     77.63000000    43.32000000    11.18000000
   O     77.76000000    42.97000000     9.98000000
   O     78.08000000    44.44000000    11.52000000
   H     74.95000000    44.11000000    13.51000000
   H     77.44000000    42.75000000    14.07000000
   H     75.80000000    42.30000000    11.65000000
   H     77.23000000    41.44000000    12.10000000
   N     76.04000000    40.61000000    14.38000000
   C     75.29000000    39.51000000    14.95000000
   C     74.03000000    39.19000000    14.17000000
   O     72.98000000    38.82000000    14.69000000
   C     75.00000000    39.70000000    16.43000000
   H     76.89000000    40.23000000    13.99000000
   H     75.85000000    38.58000000    14.78000000
   H     74.55000000    38.80000000    16.84000000
   H     75.90000000    39.99000000    16.99000000
   H     74.32000000    40.53000000    16.62000000
   N     74.10000000    39.32000000    12.84000000
   C     72.97000000    39.38000000    11.93000000
   C     72.26000000    38.06000000    11.68000000
   O     71.15000000    38.09000000    11.16000000
   C     73.33000000    40.19000000    10.69000000
   C     74.61000000    39.85000000     9.94000000
   O     74.61000000    39.71000000     8.70000000
   O     75.66000000    39.74000000    10.61000000
   H     74.96000000    39.65000000    12.43000000
   H     72.23000000    40.06000000    12.35000000
   H     73.49000000    41.19000000    11.10000000
   H     72.53000000    40.12000000     9.95000000
   N     72.85000000    36.93000000    12.09000000
   C     72.30000000    35.62000000    11.81000000
   C     71.10000000    35.28000000    12.69000000
   O     70.44000000    36.09000000    13.35000000
   H     73.75000000    37.00000000    12.55000000
   H     73.07000000    34.98000000    12.24000000
   H     72.18000000    35.43000000    10.75000000
   N     70.71000000    34.02000000    12.50000000
   C     69.52000000    33.43000000    13.07000000
   C     69.61000000    32.99000000    14.53000000
   O     68.83000000    32.22000000    15.09000000
   C     68.94000000    32.46000000    12.05000000
   C     68.30000000    33.18000000    10.87000000
   N     67.22000000    33.93000000    11.11000000
   O     68.57000000    32.88000000     9.71000000
   H     71.28000000    33.51000000    11.85000000
   H     68.82000000    34.25000000    13.24000000
   H     68.16000000    31.92000000    12.59000000
   H     69.73000000    31.78000000    11.73000000
   H     66.81000000    34.05000000    12.03000000
   H     66.65000000    34.33000000    10.38000000
   N     70.66000000    33.44000000    15.22000000
   C     70.80000000    33.22000000    16.65000000
   C     70.88000000    31.76000000    17.05000000
   O     71.21000000    30.94000000    16.20000000
   H     71.30000000    34.11000000    14.83000000
   H     69.99000000    33.76000000    17.13000000
   H     71.73000000    33.71000000    16.95000000
   N     70.50000000    31.38000000    18.28000000
   C     70.12000000    32.24000000    19.38000000
   C     71.27000000    32.82000000    20.18000000
   O     71.04000000    33.75000000    20.94000000
   C     69.33000000    31.43000000    20.40000000
   C     67.99000000    31.02000000    19.79000000
   O     70.03000000    30.27000000    20.78000000
   H     70.48000000    30.38000000    18.39000000
   H     69.42000000    33.01000000    19.04000000
   H     69.12000000    32.01000000    21.30000000
   H     70.17000000    30.40000000    21.72000000
   H     67.46000000    30.38000000    20.49000000
   H     67.43000000    31.93000000    19.58000000
   H     68.20000000    30.46000000    18.88000000
   N     72.48000000    32.26000000    20.03000000
   C     73.72000000    32.51000000    20.72000000
   C     73.83000000    32.39000000    22.24000000
   O     73.09000000    33.11000000    22.90000000
   C     74.44000000    33.79000000    20.29000000
   C     74.32000000    34.14000000    18.81000000
   C     75.87000000    33.77000000    20.82000000
   C     74.98000000    33.14000000    17.88000000
   H     72.52000000    31.44000000    19.44000000
   H     74.37000000    31.72000000    20.36000000
   H     73.97000000    34.59000000    20.87000000
   H     74.91000000    35.06000000    18.80000000
   H     73.26000000    34.37000000    18.65000000
   H     76.40000000    32.95000000    20.34000000
   H     76.42000000    34.58000000    20.34000000
   H     75.95000000    33.85000000    21.90000000
   H     75.94000000    32.95000000    18.35000000
   H     74.43000000    32.22000000    17.68000000
   H     75.11000000    33.54000000    16.87000000
   N     74.53000000    31.45000000    22.87000000
   C     75.13000000    30.27000000    22.26000000
   C     76.65000000    30.29000000    22.23000000
   O     77.18000000    29.63000000    21.34000000
   C     74.60000000    29.04000000    22.99000000
   C     74.67000000    29.10000000    24.51000000
   O     75.35000000    29.98000000    25.08000000
   O     73.97000000    28.25000000    25.11000000
   H     74.57000000    31.52000000    23.87000000
   H     74.76000000    30.01000000    21.27000000
   H     75.17000000    28.16000000    22.70000000
   H     73.59000000    28.89000000    22.62000000
   N     77.32000000    31.16000000    22.99000000
   C     78.72000000    31.47000000    22.80000000
   C     79.59000000    30.42000000    23.48000000
   O     79.13000000    29.65000000    24.31000000
   C     78.93000000    32.87000000    23.37000000
   C     78.53000000    33.15000000    24.80000000
   C     77.34000000    33.80000000    25.13000000
   C     79.40000000    32.89000000    25.87000000
   C     77.10000000    34.39000000    26.38000000
   C     79.21000000    33.40000000    27.16000000
   C     78.06000000    34.16000000    27.38000000
   H     76.96000000    31.46000000    23.88000000
   H     78.89000000    31.57000000    21.72000000
   H     78.44000000    33.61000000    22.74000000
   H     79.97000000    33.20000000    23.34000000
   H     76.61000000    33.90000000    24.34000000
   H     80.32000000    32.33000000    25.80000000
   H     76.20000000    34.92000000    26.64000000
   H     79.90000000    33.33000000    27.98000000
   H     77.96000000    34.52000000    28.39000000
   N     80.86000000    30.26000000    23.09000000
   C     81.66000000    31.11000000    22.23000000
   C     81.34000000    30.89000000    20.76000000
   O     80.53000000    30.04000000    20.39000000
   C     83.10000000    30.68000000    22.48000000
   C     82.92000000    29.18000000    22.64000000
   C     81.65000000    29.11000000    23.49000000
   H     81.49000000    32.17000000    22.42000000
   H     83.76000000    30.91000000    21.64000000
   H     83.49000000    31.12000000    23.40000000
   H     82.79000000    28.60000000    21.73000000
   H     83.69000000    28.67000000    23.23000000
   H     81.18000000    28.16000000    23.27000000
   H     81.91000000    29.17000000    24.55000000
   N     81.90000000    31.68000000    19.84000000
   C     81.77000000    31.70000000    18.40000000
   C     81.82000000    33.09000000    17.79000000
   O     82.08000000    33.15000000    16.59000000
   C     82.69000000    30.73000000    17.66000000
   C     82.79000000    29.30000000    18.18000000
   C     83.58000000    28.34000000    17.30000000
   O     83.10000000    28.11000000    16.17000000
   O     84.60000000    27.76000000    17.74000000
   H     82.72000000    32.16000000    20.18000000
   H     80.77000000    31.33000000    18.18000000
   H     83.69000000    31.16000000    17.71000000
   H     82.37000000    30.56000000    16.63000000
   H     81.78000000    28.90000000    18.23000000
   H     83.23000000    29.40000000    19.17000000
   N     81.59000000    34.25000000    18.41000000
   C     81.13000000    34.60000000    19.74000000
   H     80.10300000    34.25800000    19.87000000
   H     81.76800000    34.12200000    20.48300000
   H     81.17100000    35.68200000    19.86600000
   H     81.57000000    35.07000000    17.81000000
  Ca     77.06000000    40.97000000     8.59000000
   O     74.97000000    42.65000000     8.41000000
   H     75.03000000    43.59000000     8.57000000
   H     74.09000000    42.52000000     8.07000000
   O     79.06000000    40.40000000     6.86000000
   H     79.86000000    40.86000000     7.12000000
   H     79.36000000    39.53000000     6.59000000
   O     77.92000000    43.21000000     6.90000000
   H     78.16000000    43.98000000     7.41000000
   H     78.40000000    43.30000000     6.08000000
   O     77.48000000    38.27000000     8.22000000
   H     76.78000000    37.74000000     8.59000000
   H     78.23000000    37.68000000     8.17000000
   O     75.61000000    40.44000000     6.12000000
   H     75.36000000    40.09000000     5.27000000
   H     74.79000000    40.44000000     6.62000000
   O     78.88000000    40.09000000    10.39000000
   H     79.15000000    39.18000000    10.26000000
   H     79.52000000    40.45000000    11.01000000

Ca 1.00



