%chk=loop2.cluster222.chk
%nprocshared=20
%mem=10GB
%nosave
#b3lyp/svp scf=(tight,noincore,xqc) Test 
#IOP(5/87=12) Density=Current Pop=(MK,readradii) iop(6/33=2) iop(6/42=6)

loop2.cluster222 

   -2  1 
   C     56.06000000    28.22000000    26.20000000
   C     55.19000000    27.73000000    25.05000000
   O     54.44000000    26.76000000    25.18000000
   H     56.95200000    28.70200000    25.80000000
   H     55.50000000    28.93600000    26.80100000
   H     56.35200000    27.37400000    26.82200000
   N     55.30000000    28.30000000    23.85000000
   C     54.63000000    28.02000000    22.59000000
   C     55.07000000    26.73000000    21.91000000
   O     54.25000000    26.04000000    21.30000000
   C     54.74000000    29.15000000    21.58000000
   C     53.71000000    29.07000000    20.46000000
   O     52.65000000    28.41000000    20.57000000
   O     54.11000000    29.54000000    19.37000000
   H     55.94000000    29.08000000    23.80000000
   H     53.58000000    27.90000000    22.84000000
   H     55.76000000    29.19000000    21.20000000
   H     54.57000000    30.13000000    22.03000000
   N     56.36000000    26.41000000    21.95000000
   C     56.89000000    25.10000000    21.62000000
   C     56.24000000    23.87000000    22.25000000
   O     56.38000000    22.74000000    21.80000000
   C     56.91000000    24.96000000    20.10000000
   H     56.98000000    27.00000000    22.48000000
   H     57.92000000    25.02000000    21.97000000
   H     57.57000000    24.14000000    19.83000000
   H     55.91000000    24.86000000    19.68000000
   H     57.33000000    25.88000000    19.70000000
   N     55.50000000    24.04000000    23.35000000
   C     54.51000000    23.17000000    23.95000000
   C     53.52000000    22.54000000    22.98000000
   O     53.17000000    21.38000000    23.18000000
   C     55.20000000    22.14000000    24.85000000
   C     56.29000000    22.64000000    25.80000000
   O     56.48000000    23.85000000    26.03000000
   O     56.91000000    21.80000000    26.48000000
   H     55.58000000    24.96000000    23.75000000
   H     53.97000000    23.83000000    24.63000000
   H     55.57000000    21.33000000    24.24000000
   H     54.47000000    21.69000000    25.53000000
   N     53.15000000    23.30000000    21.95000000
   C     52.55000000    22.76000000    20.75000000
   C     51.10000000    22.33000000    20.89000000
   O     50.25000000    22.75000000    20.11000000
   H     53.57000000    24.22000000    21.93000000
   H     53.04000000    21.85000000    20.40000000
   H     52.59000000    23.54000000    19.99000000
   N     50.74000000    21.64000000    21.98000000
   C     49.37000000    21.24000000    22.22000000
   C     48.85000000    21.67000000    23.58000000
   O     49.57000000    21.50000000    24.56000000
   C     49.28000000    19.73000000    22.03000000
   C     47.99000000    19.04000000    22.44000000
   N     48.07000000    17.81000000    22.95000000
   O     46.88000000    19.56000000    22.29000000
   H     51.45000000    21.40000000    22.65000000
   H     48.74000000    21.58000000    21.41000000
   H     50.16000000    19.30000000    22.51000000
   H     49.24000000    19.54000000    20.96000000
   H     48.95000000    17.32000000    22.99000000
   H     47.23000000    17.31000000    23.23000000
   N     47.64000000    22.24000000    23.68000000
   C     46.95000000    22.40000000    24.95000000
   C     47.39000000    23.69000000    25.63000000
   O     46.66000000    24.19000000    26.48000000
   H     47.08000000    22.43000000    22.87000000
   H     47.22000000    21.60000000    25.65000000
   H     45.87000000    22.42000000    24.80000000
   N     48.58000000    24.23000000    25.36000000
   C     49.12000000    25.43000000    25.97000000
   C     49.59000000    25.25000000    27.40000000
   O     49.81000000    24.14000000    27.89000000
   C     50.16000000    26.11000000    25.10000000
   C     51.53000000    25.48000000    24.87000000
   O     49.60000000    26.28000000    23.81000000
   H     49.17000000    23.71000000    24.72000000
   H     48.29000000    26.13000000    25.96000000
   H     50.29000000    27.08000000    25.59000000
   H     50.18000000    26.99000000    23.52000000
   H     51.93000000    26.11000000    24.09000000
   H     52.17000000    25.51000000    25.76000000
   H     51.39000000    24.44000000    24.55000000
   N     49.73000000    26.37000000    28.11000000
   C     50.21000000    26.52000000    29.47000000
   C     51.67000000    26.13000000    29.60000000
   O     52.46000000    26.34000000    28.69000000
   C     49.84000000    27.93000000    29.92000000
   C     49.92000000    28.09000000    31.44000000
   C     50.73000000    29.02000000    29.31000000
   C     49.14000000    29.29000000    31.97000000
   H     49.37000000    27.22000000    27.69000000
   H     49.65000000    25.73000000    29.99000000
   H     48.79000000    28.10000000    29.71000000
   H     50.98000000    28.10000000    31.69000000
   H     49.53000000    27.23000000    31.97000000
   H     50.87000000    28.89000000    28.24000000
   H     50.38000000    29.99000000    29.65000000
   H     51.78000000    28.98000000    29.61000000
   H     49.74000000    30.18000000    31.80000000
   H     48.18000000    29.25000000    31.45000000
   H     49.04000000    29.09000000    33.04000000
   N     52.06000000    25.59000000    30.76000000
   C     53.40000000    25.06000000    30.94000000
   C     53.60000000    23.71000000    31.61000000
   O     54.47000000    23.47000000    32.45000000
   C     54.24000000    26.13000000    31.63000000
   C     55.70000000    26.00000000    31.22000000
   O     56.08000000    25.18000000    30.36000000
   O     56.53000000    26.62000000    31.92000000
   H     51.44000000    25.56000000    31.56000000
   H     53.80000000    24.91000000    29.93000000
   H     54.23000000    26.11000000    32.72000000
   H     53.86000000    27.11000000    31.36000000
   N     52.55000000    22.90000000    31.47000000
   C     52.54000000    21.48000000    31.78000000
   C     52.54000000    21.15000000    33.27000000
   O     53.47000000    20.48000000    33.70000000
   C     51.39000000    20.84000000    31.01000000
   C     51.28000000    19.33000000    30.98000000
   C     51.99000000    18.60000000    30.02000000
   C     50.72000000    18.71000000    32.11000000
   C     52.04000000    17.21000000    30.12000000
   C     50.83000000    17.32000000    32.25000000
   C     51.44000000    16.59000000    31.23000000
   H     51.76000000    23.21000000    30.93000000
   H     53.41000000    20.99000000    31.35000000
   H     51.53000000    21.19000000    29.99000000
   H     50.44000000    21.29000000    31.28000000
   H     52.40000000    18.98000000    29.10000000
   H     50.14000000    19.32000000    32.78000000
   H     52.46000000    16.62000000    29.32000000
   H     50.23000000    16.82000000    33.00000000
   H     51.51000000    15.52000000    31.30000000
   N     51.60000000    21.60000000    34.10000000
   C     50.59000000    22.61000000    33.87000000
   C     51.06000000    24.01000000    34.27000000
   O     50.60000000    25.02000000    33.76000000
   C     49.44000000    22.14000000    34.74000000
   C     50.11000000    21.54000000    35.98000000
   C     51.36000000    20.92000000    35.36000000
   H     50.19000000    22.55000000    32.85000000
   H     48.84000000    22.96000000    35.15000000
   H     48.79000000    21.45000000    34.20000000
   H     50.43000000    22.33000000    36.65000000
   H     49.59000000    20.77000000    36.55000000
   H     52.21000000    21.00000000    36.05000000
   H     51.07000000    19.92000000    35.05000000
   N     51.91000000    24.07000000    35.30000000
   C     52.10000000    25.23000000    36.14000000
   C     53.33000000    26.09000000    35.89000000
   O     54.47000000    25.70000000    35.64000000
   C     52.19000000    24.63000000    37.54000000
   C     52.07000000    25.67000000    38.66000000
   C     51.98000000    24.98000000    40.01000000
   O     52.98000000    24.64000000    40.68000000
   O     50.82000000    24.75000000    40.41000000
   H     52.29000000    23.19000000    35.62000000
   H     51.18000000    25.82000000    36.11000000
   H     53.12000000    24.06000000    37.59000000
   H     51.32000000    23.99000000    37.69000000
   H     51.10000000    26.16000000    38.64000000
   H     52.79000000    26.49000000    38.66000000
   N     53.01000000    27.39000000    35.96000000
   C     53.80000000    28.39000000    35.27000000
   H     54.77100000    27.96900000    35.00900000
   H     53.28300000    28.69900000    34.36200000
   H     53.94200000    29.25300000    35.92000000
   H     52.02000000    27.59000000    35.88000000
  Ca     57.08000000    23.61000000    28.58000000
   O     59.31000000    24.68000000    30.67000000
   H     59.28000000    24.89000000    31.61000000
   H     58.75000000    25.34000000    30.27000000
   O     54.75000000    25.28000000    27.57000000
   H     54.80000000    25.60000000    26.67000000
   H     53.87000000    25.52000000    27.86000000
   O     58.42000000    21.30000000    28.82000000
   H     59.30000000    21.30000000    29.22000000
   H     57.95000000    20.61000000    29.27000000
   O     56.98000000    22.53000000    30.96000000
   H     56.94000000    21.67000000    31.39000000
   H     56.35000000    23.06000000    31.45000000
   O     58.07000000    26.18000000    28.27000000
   H     58.75000000    26.49000000    27.67000000
   H     57.63000000    26.97000000    28.58000000
   O     54.78000000    22.18000000    28.60000000
   H     53.87000000    22.43000000    28.42000000
   H     54.76000000    21.22000000    28.64000000
   O     59.59000000    23.80000000    27.42000000
   H     60.00000000    24.65000000    27.58000000
   H     60.06000000    23.45000000    26.66000000

Ca 1.00



