%chk=loop2.cluster136.chk
%nprocshared=20
%mem=10GB
%nosave
#b3lyp/svp scf=(tight,noincore,xqc) Test 
#IOP(5/87=12) Density=Current Pop=(MK,readradii) iop(6/33=2) iop(6/42=6)

loop2.cluster136 

   -2  1 
   C     58.37000000    34.95000000    22.87000000
   C     58.96000000    34.75000000    21.48000000
   O     58.64000000    35.46000000    20.52000000
   H     57.35100000    34.56400000    22.89100000
   H     58.97500000    34.41600000    23.60300000
   H     58.36000000    36.01300000    23.11200000
   N     59.97000000    33.88000000    21.41000000
   C     60.81000000    33.47000000    20.30000000
   C     60.67000000    31.99000000    19.96000000
   O     60.81000000    31.56000000    18.82000000
   C     62.23000000    33.88000000    20.67000000
   C     63.13000000    34.00000000    19.44000000
   O     64.37000000    33.92000000    19.60000000
   O     62.74000000    34.47000000    18.35000000
   H     60.12000000    33.37000000    22.27000000
   H     60.47000000    33.91000000    19.36000000
   H     62.68000000    33.18000000    21.38000000
   H     62.31000000    34.89000000    21.08000000
   N     60.28000000    31.20000000    20.96000000
   C     60.05000000    29.78000000    20.79000000
   C     59.01000000    29.36000000    19.77000000
   O     59.26000000    29.21000000    18.57000000
   C     61.31000000    28.94000000    20.62000000
   H     60.29000000    31.55000000    21.91000000
   H     59.66000000    29.39000000    21.74000000
   H     61.08000000    27.89000000    20.83000000
   H     61.74000000    29.12000000    19.63000000
   H     62.08000000    29.21000000    21.33000000
   N     57.76000000    29.27000000    20.25000000
   C     56.73000000    28.40000000    19.72000000
   C     56.39000000    28.71000000    18.27000000
   O     56.33000000    27.88000000    17.37000000
   C     57.03000000    26.93000000    20.02000000
   C     57.60000000    26.61000000    21.39000000
   O     57.05000000    27.22000000    22.33000000
   O     58.56000000    25.82000000    21.49000000
   H     57.61000000    29.49000000    21.22000000
   H     55.80000000    28.59000000    20.26000000
   H     57.85000000    26.67000000    19.35000000
   H     56.26000000    26.22000000    19.71000000
   N     55.95000000    29.95000000    18.06000000
   C     55.56000000    30.42000000    16.75000000
   C     54.19000000    30.03000000    16.20000000
   O     54.04000000    30.08000000    14.98000000
   H     55.92000000    30.57000000    18.86000000
   H     56.36000000    30.24000000    16.03000000
   H     55.48000000    31.50000000    16.92000000
   N     53.22000000    29.63000000    17.02000000
   C     51.84000000    29.25000000    16.74000000
   C     50.92000000    29.96000000    17.72000000
   O     51.33000000    30.03000000    18.88000000
   C     51.70000000    27.74000000    16.82000000
   C     50.67000000    27.12000000    15.88000000
   N     50.97000000    26.15000000    15.02000000
   O     49.52000000    27.54000000    15.99000000
   H     53.51000000    29.41000000    17.96000000
   H     51.55000000    29.55000000    15.74000000
   H     51.44000000    27.33000000    17.80000000
   H     52.62000000    27.25000000    16.48000000
   H     51.95000000    25.96000000    14.86000000
   H     50.31000000    25.92000000    14.29000000
   N     49.73000000    30.35000000    17.26000000
   C     48.78000000    31.17000000    17.98000000
   C     49.26000000    32.56000000    18.39000000
   O     49.20000000    33.52000000    17.64000000
   H     49.45000000    30.23000000    16.30000000
   H     48.37000000    30.61000000    18.82000000
   H     47.93000000    31.39000000    17.33000000
   N     49.89000000    32.64000000    19.57000000
   C     50.68000000    33.74000000    20.09000000
   C     50.53000000    33.86000000    21.60000000
   O     50.48000000    32.80000000    22.23000000
   C     52.11000000    33.53000000    19.58000000
   C     53.15000000    34.61000000    19.83000000
   O     52.68000000    32.36000000    20.11000000
   H     49.91000000    31.84000000    20.18000000
   H     50.19000000    34.63000000    19.71000000
   H     52.07000000    33.44000000    18.50000000
   H     52.26000000    31.63000000    19.64000000
   H     53.02000000    35.49000000    19.20000000
   H     53.23000000    34.85000000    20.89000000
   H     54.02000000    34.09000000    19.44000000
   N     50.79000000    35.04000000    22.16000000
   C     50.95000000    35.31000000    23.58000000
   C     51.86000000    34.30000000    24.27000000
   O     52.99000000    34.04000000    23.86000000
   C     51.14000000    36.78000000    23.94000000
   C     50.78000000    36.99000000    25.41000000
   C     52.56000000    37.26000000    23.66000000
   C     50.85000000    38.46000000    25.80000000
   H     50.82000000    35.79000000    21.49000000
   H     49.95000000    35.05000000    23.93000000
   H     50.48000000    37.29000000    23.23000000
   H     51.39000000    36.30000000    26.00000000
   H     49.77000000    36.60000000    25.52000000
   H     52.73000000    36.90000000    22.64000000
   H     52.56000000    38.35000000    23.62000000
   H     53.28000000    36.87000000    24.37000000
   H     50.29000000    38.51000000    26.74000000
   H     51.90000000    38.75000000    25.85000000
   H     50.39000000    39.08000000    25.04000000
   N     51.37000000    33.58000000    25.28000000
   C     52.10000000    32.51000000    25.93000000
   C     51.40000000    31.17000000    25.99000000
   O     51.35000000    30.44000000    26.98000000
   C     52.73000000    32.87000000    27.28000000
   C     53.79000000    31.88000000    27.75000000
   O     54.84000000    31.86000000    27.07000000
   O     53.65000000    31.21000000    28.79000000
   H     50.47000000    33.85000000    25.64000000
   H     53.01000000    32.29000000    25.38000000
   H     51.94000000    33.03000000    28.01000000
   H     53.20000000    33.85000000    27.25000000
   N     50.90000000    30.84000000    24.80000000
   C     50.19000000    29.61000000    24.50000000
   C     48.69000000    29.60000000    24.76000000
   O     48.26000000    28.53000000    25.19000000
   C     50.44000000    29.37000000    23.01000000
   C     49.43000000    28.52000000    22.28000000
   C     49.55000000    27.12000000    22.24000000
   C     48.42000000    29.19000000    21.57000000
   C     48.68000000    26.37000000    21.44000000
   C     47.53000000    28.44000000    20.79000000
   C     47.65000000    27.04000000    20.78000000
   H     50.91000000    31.58000000    24.11000000
   H     50.57000000    28.77000000    25.09000000
   H     51.43000000    28.92000000    22.94000000
   H     50.54000000    30.31000000    22.46000000
   H     50.27000000    26.58000000    22.83000000
   H     48.51000000    30.26000000    21.63000000
   H     48.68000000    25.29000000    21.50000000
   H     46.80000000    28.92000000    20.17000000
   H     46.97000000    26.47000000    20.15000000
   N     47.79000000    30.55000000    24.52000000
   C     48.01000000    31.98000000    24.45000000
   C     48.06000000    32.71000000    25.79000000
   O     48.66000000    33.78000000    25.85000000
   C     46.88000000    32.54000000    23.60000000
   C     45.70000000    31.66000000    24.03000000
   C     46.39000000    30.31000000    24.21000000
   H     48.95000000    32.01000000    23.89000000
   H     46.58000000    33.58000000    23.74000000
   H     47.04000000    32.40000000    22.53000000
   H     45.40000000    32.17000000    24.95000000
   H     44.96000000    31.63000000    23.23000000
   H     45.95000000    29.70000000    24.99000000
   H     46.31000000    29.78000000    23.27000000
   N     47.56000000    32.22000000    26.92000000
   C     47.40000000    32.81000000    28.24000000
   C     48.69000000    33.31000000    28.88000000
   O     49.74000000    32.67000000    28.78000000
   C     46.57000000    31.89000000    29.14000000
   C     46.14000000    32.46000000    30.49000000
   C     45.22000000    31.52000000    31.24000000
   O     44.02000000    31.83000000    31.43000000
   O     45.65000000    30.43000000    31.68000000
   H     47.13000000    31.32000000    26.79000000
   H     46.72000000    33.63000000    28.03000000
   H     47.29000000    31.11000000    29.41000000
   H     45.68000000    31.57000000    28.60000000
   H     45.68000000    33.43000000    30.35000000
   H     47.03000000    32.65000000    31.09000000
   N     48.64000000    34.55000000    29.35000000
   C     49.79000000    35.35000000    29.71000000
   H     50.60400000    35.15000000    29.01300000
   H     49.52600000    36.40700000    29.66600000
   H     50.10800000    35.09600000    30.72100000
   H     47.71000000    34.92000000    29.50000000
  Ca     55.58000000    27.52000000    24.32000000
   O     54.04000000    26.43000000    22.27000000
   H     53.32000000    26.09000000    22.81000000
   H     53.85000000    26.11000000    21.39000000
   O     55.58000000    26.13000000    26.83000000
   H     54.92000000    25.55000000    27.19000000
   H     56.05000000    26.48000000    27.59000000
   O     57.88000000    29.48000000    24.42000000
   H     58.39000000    28.87000000    23.90000000
   H     58.33000000    29.52000000    25.27000000
   O     54.78000000    29.15000000    26.16000000
   H     54.88000000    30.10000000    26.27000000
   H     53.91000000    28.95000000    26.51000000
   O     55.68000000    24.81000000    24.10000000
   H     55.90000000    24.20000000    24.80000000
   H     55.85000000    24.32000000    23.29000000
   O     52.94000000    27.01000000    24.90000000
   H     52.44000000    27.10000000    25.71000000
   H     52.81000000    26.09000000    24.65000000
   O     55.01000000    29.63000000    22.69000000
   H     54.97000000    30.59000000    22.68000000
   H     54.47000000    29.36000000    21.95000000

Ca 1.00



