%chk=loop2.cluster69.chk
%nprocshared=20
%mem=10GB
%nosave
#b3lyp/svp scf=(tight,noincore,xqc) Test 
#IOP(5/87=12) Density=Current Pop=(MK,readradii) iop(6/33=2) iop(6/42=6)

loop2.cluster69 

   -2  1 
   C     39.90000000    70.92000000    22.90000000
   C     40.00000000    70.89000000    24.42000000
   O     40.80000000    71.68000000    24.91000000
   H     39.48100000    71.87500000    22.58300000
   H     40.89300000    70.79800000    22.46700000
   H     39.25400000    70.11000000    22.56200000
   N     39.36000000    70.03000000    25.22000000
   C     39.39000000    70.02000000    26.67000000
   C     40.78000000    69.81000000    27.25000000
   O     41.17000000    70.24000000    28.33000000
   C     38.33000000    69.07000000    27.22000000
   C     38.48000000    68.85000000    28.72000000
   O     38.27000000    69.80000000    29.50000000
   O     38.75000000    67.70000000    29.12000000
   H     38.60000000    69.56000000    24.74000000
   H     39.00000000    70.98000000    27.02000000
   H     38.36000000    68.13000000    26.66000000
   H     37.32000000    69.45000000    27.09000000
   N     41.55000000    69.07000000    26.44000000
   C     42.95000000    68.83000000    26.73000000
   C     43.72000000    70.10000000    27.08000000
   O     44.53000000    70.06000000    28.00000000
   C     43.04000000    67.66000000    27.71000000
   H     41.19000000    68.76000000    25.55000000
   H     43.45000000    68.56000000    25.81000000
   H     42.57000000    66.76000000    27.30000000
   H     44.09000000    67.44000000    27.90000000
   H     42.62000000    67.94000000    28.67000000
   N     43.56000000    71.23000000    26.40000000
   C     44.15000000    72.53000000    26.64000000
   C     43.81000000    73.23000000    27.95000000
   O     44.48000000    74.22000000    28.24000000
   C     45.66000000    72.50000000    26.38000000
   C     46.21000000    71.79000000    25.15000000
   O     47.46000000    71.70000000    25.06000000
   O     45.53000000    71.35000000    24.20000000
   H     42.98000000    71.13000000    25.57000000
   H     43.63000000    73.26000000    26.02000000
   H     46.05000000    72.06000000    27.29000000
   H     46.06000000    73.51000000    26.30000000
   N     42.74000000    72.88000000    28.67000000
   C     42.35000000    73.44000000    29.95000000
   C     42.19000000    74.95000000    29.94000000
   O     41.56000000    75.49000000    29.02000000
   H     42.34000000    71.99000000    28.41000000
   H     43.20000000    73.26000000    30.61000000
   H     41.47000000    73.02000000    30.43000000
   N     42.63000000    75.67000000    30.97000000
   C     42.64000000    77.12000000    31.06000000
   C     41.31000000    77.74000000    30.68000000
   O     41.21000000    78.66000000    29.86000000
   C     43.82000000    77.70000000    30.28000000
   C     45.18000000    77.08000000    30.56000000
   N     45.72000000    76.31000000    29.61000000
   O     45.70000000    77.24000000    31.67000000
   H     43.08000000    75.21000000    31.75000000
   H     42.86000000    77.42000000    32.08000000
   H     43.83000000    78.78000000    30.43000000
   H     43.66000000    77.48000000    29.23000000
   H     45.19000000    75.97000000    28.82000000
   H     46.65000000    75.98000000    29.79000000
   N     40.18000000    77.22000000    31.18000000
   C     38.83000000    77.65000000    30.88000000
   C     38.19000000    77.11000000    29.61000000
   O     36.97000000    76.97000000    29.67000000
   H     40.17000000    76.45000000    31.83000000
   H     38.96000000    78.72000000    30.70000000
   H     38.21000000    77.53000000    31.77000000
   N     38.97000000    76.77000000    28.58000000
   C     38.46000000    76.12000000    27.39000000
   C     38.82000000    76.90000000    26.13000000
   O     39.89000000    77.49000000    26.05000000
   C     38.93000000    74.69000000    27.18000000
   C     38.77000000    73.86000000    28.46000000
   O     38.29000000    73.95000000    26.17000000
   H     39.96000000    76.77000000    28.79000000
   H     37.39000000    76.04000000    27.22000000
   H     39.99000000    74.65000000    26.92000000
   H     38.80000000    73.96000000    25.36000000
   H     39.17000000    72.86000000    28.30000000
   H     39.33000000    74.33000000    29.27000000
   H     37.78000000    73.79000000    28.90000000
   N     38.04000000    76.72000000    25.06000000
   C     38.52000000    77.04000000    23.74000000
   C     39.39000000    75.97000000    23.10000000
   O     39.43000000    74.86000000    23.62000000
   C     37.44000000    77.40000000    22.73000000
   C     36.18000000    76.54000000    22.77000000
   C     37.02000000    78.85000000    22.95000000
   C     36.46000000    75.10000000    22.36000000
   H     37.25000000    76.09000000    25.08000000
   H     39.07000000    77.98000000    23.71000000
   H     37.81000000    77.31000000    21.71000000
   H     35.34000000    76.89000000    22.18000000
   H     35.71000000    76.51000000    23.76000000
   H     37.73000000    79.57000000    22.53000000
   H     36.06000000    79.06000000    22.48000000
   H     36.96000000    78.98000000    24.03000000
   H     37.03000000    74.61000000    23.15000000
   H     35.58000000    74.49000000    22.18000000
   H     37.04000000    75.09000000    21.44000000
   N     40.07000000    76.21000000    21.97000000
   C     40.98000000    75.35000000    21.24000000
   C     42.36000000    75.99000000    21.28000000
   O     43.12000000    76.08000000    20.32000000
   C     40.46000000    75.21000000    19.81000000
   C     41.30000000    74.26000000    18.97000000
   O     41.45000000    74.45000000    17.74000000
   O     41.82000000    73.28000000    19.53000000
   H     39.95000000    77.15000000    21.61000000
   H     41.04000000    74.42000000    21.79000000
   H     40.57000000    76.20000000    19.37000000
   H     39.42000000    74.90000000    19.79000000
   N     42.71000000    76.58000000    22.43000000
   C     44.09000000    76.86000000    22.75000000
   C     44.67000000    78.20000000    22.34000000
   O     45.87000000    78.23000000    22.10000000
   C     44.21000000    76.66000000    24.26000000
   C     45.53000000    77.03000000    24.88000000
   C     45.56000000    78.17000000    25.69000000
   C     46.69000000    76.31000000    24.56000000
   C     46.78000000    78.59000000    26.24000000
   C     47.90000000    76.81000000    25.06000000
   C     47.97000000    77.93000000    25.90000000
   H     42.04000000    76.62000000    23.18000000
   H     44.75000000    76.09000000    22.33000000
   H     44.15000000    75.59000000    24.48000000
   H     43.38000000    77.12000000    24.81000000
   H     44.60000000    78.67000000    25.79000000
   H     46.58000000    75.44000000    23.94000000
   H     46.75000000    79.46000000    26.88000000
   H     48.77000000    76.25000000    24.75000000
   H     48.91000000    78.22000000    26.35000000
   N     44.04000000    79.37000000    22.49000000
   C     42.68000000    79.53000000    22.98000000
   C     41.67000000    79.53000000    21.84000000
   O     40.48000000    79.39000000    22.09000000
   C     42.67000000    80.75000000    23.90000000
   C     43.59000000    81.56000000    23.00000000
   C     44.70000000    80.66000000    22.46000000
   H     42.43000000    78.68000000    23.61000000
   H     41.62000000    81.04000000    23.93000000
   H     43.18000000    80.51000000    24.84000000
   H     42.92000000    81.83000000    22.18000000
   H     44.04000000    82.44000000    23.47000000
   H     44.81000000    80.99000000    21.43000000
   H     45.58000000    80.59000000    23.09000000
   N     42.13000000    79.79000000    20.61000000
   C     41.27000000    80.33000000    19.57000000
   C     40.44000000    79.36000000    18.76000000
   O     41.00000000    78.45000000    18.14000000
   C     42.25000000    81.12000000    18.71000000
   C     41.65000000    81.85000000    17.51000000
   C     42.81000000    82.65000000    16.94000000
   O     43.58000000    82.11000000    16.12000000
   O     42.76000000    83.88000000    17.11000000
   H     43.11000000    79.97000000    20.48000000
   H     40.65000000    81.07000000    20.09000000
   H     43.00000000    80.41000000    18.37000000
   H     42.89000000    81.77000000    19.33000000
   H     40.85000000    82.53000000    17.80000000
   H     41.18000000    81.20000000    16.78000000
   N     39.13000000    79.58000000    18.67000000
   C     38.26000000    78.74000000    17.87000000
   H     37.36000000    79.29600000    17.60800000
   H     38.77900000    78.44100000    16.96000000
   H     37.98500000    77.85300000    18.44100000
   H     38.68000000    80.34000000    19.16000000
  Ca     47.88000000    70.89000000    22.76000000
   O     46.49000000    73.14000000    22.22000000
   H     45.59000000    73.11000000    22.54000000
   H     46.70000000    74.07000000    22.18000000
   O     49.51000000    69.24000000    24.68000000
   H     49.65000000    68.67000000    25.43000000
   H     50.35000000    69.21000000    24.20000000
   O     47.08000000    70.67000000    20.15000000
   H     47.63000000    70.29000000    19.46000000
   H     46.29000000    70.94000000    19.70000000
   O     49.51000000    72.55000000    21.08000000
   H     49.65000000    72.75000000    20.16000000
   H     50.01000000    73.22000000    21.55000000
   O     50.01000000    71.94000000    23.77000000
   H     49.94000000    72.04000000    24.71000000
   H     50.88000000    72.28000000    23.55000000
   O     49.22000000    68.73000000    21.69000000
   H     49.26000000    68.06000000    21.01000000
   H     49.55000000    68.30000000    22.48000000
   O     46.23000000    68.82000000    22.46000000
   H     45.54000000    68.71000000    21.81000000
   H     46.00000000    68.20000000    23.16000000

Ca 1.00



