%chk=loop3.cluster7.chk
%nprocshared=20
%mem=10GB
%nosave
#b3lyp/svp scf=(tight,noincore,xqc) Test 
#IOP(5/87=12) Density=Current Pop=(MK,readradii) iop(6/33=2) iop(6/42=6)

loop3.cluster7 

   0  1 
   C     75.56000000    51.49000000    23.78000000
   C     75.16000000    50.06000000    23.47000000
   O     75.96000000    49.30000000    22.93000000
   H     76.49200000    51.72500000    23.26600000
   H     74.77700000    52.16900000    23.44100000
   H     75.69900000    51.60400000    24.85500000
   N     73.87000000    49.75000000    23.66000000
   C     73.30000000    48.42000000    23.55000000
   C     72.81000000    48.14000000    22.14000000
   O     72.04000000    48.92000000    21.58000000
   C     72.22000000    48.35000000    24.63000000
   C     71.59000000    46.97000000    24.70000000
   O     70.49000000    46.86000000    25.29000000
   O     72.16000000    46.02000000    24.11000000
   H     73.33000000    50.47000000    24.11000000
   H     74.03000000    47.64000000    23.77000000
   H     71.47000000    49.09000000    24.36000000
   H     72.76000000    48.55000000    25.55000000
   N     73.29000000    47.06000000    21.52000000
   C     73.17000000    46.69000000    20.13000000
   C     72.00000000    45.82000000    19.69000000
   O     71.32000000    46.16000000    18.72000000
   C     74.51000000    46.07000000    19.72000000
   C     74.70000000    46.19000000    18.21000000
   C     75.83000000    45.27000000    17.75000000
   C     77.17000000    45.85000000    18.17000000
   N     77.71000000    46.79000000    17.18000000
   H     73.89000000    46.52000000    22.13000000
   H     73.12000000    47.59000000    19.53000000
   H     74.53000000    45.05000000    20.09000000
   H     75.33000000    46.65000000    20.14000000
   H     74.86000000    47.26000000    18.10000000
   H     73.81000000    45.85000000    17.67000000
   H     75.86000000    45.11000000    16.68000000
   H     75.66000000    44.31000000    18.25000000
   H     77.86000000    45.01000000    18.21000000
   H     77.21000000    46.33000000    19.15000000
   H     78.55000000    47.23000000    17.53000000
   H     77.98000000    46.36000000    16.31000000
   H     77.05000000    47.52000000    16.92000000
   N     71.55000000    44.83000000    20.47000000
   C     70.22000000    44.29000000    20.25000000
   C     69.18000000    45.05000000    21.07000000
   O     68.01000000    44.82000000    20.81000000
   C     70.13000000    42.82000000    20.65000000
   C     70.79000000    42.41000000    21.96000000
   O     70.73000000    41.20000000    22.27000000
   O     71.45000000    43.21000000    22.64000000
   H     72.09000000    44.55000000    21.28000000
   H     69.98000000    44.46000000    19.20000000
   H     70.61000000    42.16000000    19.94000000
   H     69.10000000    42.47000000    20.64000000
   N     69.62000000    45.97000000    21.92000000
   C     68.71000000    46.74000000    22.75000000
   C     68.13000000    46.00000000    23.94000000
   O     67.13000000    46.43000000    24.51000000
   H     70.62000000    46.05000000    22.07000000
   H     67.98000000    47.14000000    22.04000000
   H     69.28000000    47.55000000    23.19000000
   N     68.68000000    44.83000000    24.28000000
   C     68.08000000    43.92000000    25.24000000
   C     68.01000000    44.45000000    26.67000000
   O     67.41000000    43.72000000    27.46000000
   C     68.78000000    42.57000000    25.13000000
   C     70.05000000    42.61000000    25.95000000
   N     70.13000000    41.69000000    26.91000000
   O     71.00000000    43.38000000    25.80000000
   H     69.59000000    44.70000000    23.86000000
   H     67.03000000    43.74000000    25.04000000
   H     68.85000000    42.30000000    24.07000000
   H     68.11000000    41.83000000    25.57000000
   H     69.35000000    41.05000000    27.02000000
   H     71.01000000    41.47000000    27.35000000
   N     68.39000000    45.70000000    26.94000000
   C     68.49000000    46.21000000    28.29000000
   C     69.81000000    46.02000000    29.03000000
   O     69.86000000    46.34000000    30.21000000
   H     68.74000000    46.27000000    26.18000000
   H     67.68000000    45.73000000    28.84000000
   H     68.33000000    47.29000000    28.25000000
   N     70.86000000    45.56000000    28.35000000
   C     72.17000000    45.21000000    28.87000000
   C     73.35000000    45.45000000    27.94000000
   O     73.20000000    45.20000000    26.74000000
   C     72.12000000    43.74000000    29.29000000
   C     71.40000000    43.35000000    30.57000000
   C     72.07000000    43.25000000    31.79000000
   C     70.04000000    43.05000000    30.54000000
   C     71.34000000    42.98000000    32.96000000
   C     69.33000000    42.78000000    31.72000000
   C     69.95000000    42.75000000    32.98000000
   O     69.28000000    42.55000000    34.15000000
   H     70.78000000    45.50000000    27.34000000
   H     72.28000000    45.74000000    29.81000000
   H     73.16000000    43.49000000    29.46000000
   H     71.81000000    43.13000000    28.44000000
   H     73.11000000    43.53000000    31.81000000
   H     69.48000000    42.97000000    29.61000000
   H     71.80000000    42.99000000    33.94000000
   H     68.31000000    42.46000000    31.55000000
   H     68.34000000    42.54000000    33.96000000
   N     74.47000000    45.91000000    28.49000000
   C     75.71000000    46.30000000    27.85000000
   C     76.75000000    45.22000000    28.10000000
   O     76.79000000    44.66000000    29.19000000
   C     76.18000000    47.64000000    28.43000000
   C     75.41000000    48.76000000    27.74000000
   C     77.67000000    47.89000000    28.26000000
   C     75.61000000    50.07000000    28.49000000
   H     74.46000000    46.04000000    29.49000000
   H     75.74000000    46.51000000    26.78000000
   H     75.80000000    47.68000000    29.45000000
   H     74.38000000    48.39000000    27.78000000
   H     75.79000000    48.96000000    26.74000000
   H     77.95000000    48.90000000    28.53000000
   H     78.33000000    47.31000000    28.92000000
   H     78.03000000    47.74000000    27.24000000
   H     76.54000000    50.57000000    28.20000000
   H     74.87000000    50.75000000    28.07000000
   H     75.52000000    49.96000000    29.57000000
   N     77.67000000    44.91000000    27.18000000
   C     78.67000000    43.87000000    27.29000000
   C     80.06000000    44.41000000    26.97000000
   O     80.19000000    45.48000000    26.38000000
   C     78.38000000    42.73000000    26.32000000
   O     78.23000000    43.26000000    25.02000000
   H     77.74000000    45.49000000    26.36000000
   H     78.73000000    43.56000000    28.33000000
   H     77.45000000    42.19000000    26.51000000
   H     79.09000000    41.90000000    26.29000000
   H     77.32000000    43.56000000    25.12000000
   N     81.13000000    43.66000000    27.27000000
   C     82.47000000    44.00000000    26.85000000
   C     82.58000000    44.35000000    25.37000000
   O     83.40000000    45.17000000    24.98000000
   C     83.40000000    42.85000000    27.24000000
   H     80.99000000    42.72000000    27.62000000
   H     82.85000000    44.84000000    27.43000000
   H     84.40000000    43.06000000    26.85000000
   H     83.41000000    42.72000000    28.32000000
   H     82.99000000    41.94000000    26.80000000
   N     81.77000000    43.71000000    24.51000000
   C     81.98000000    43.82000000    23.08000000
   C     81.19000000    45.02000000    22.57000000
   O     81.58000000    45.56000000    21.54000000
   C     81.39000000    42.58000000    22.43000000
   H     81.12000000    43.06000000    24.93000000
   H     83.03000000    43.82000000    22.82000000
   H     80.32000000    42.59000000    22.62000000
   H     81.55000000    42.75000000    21.36000000
   H     81.93000000    41.68000000    22.71000000
   N     80.08000000    45.33000000    23.25000000
   C     79.34000000    46.53000000    22.92000000
   C     80.05000000    47.79000000    23.40000000
   O     80.15000000    48.77000000    22.66000000
   C     77.94000000    46.55000000    23.53000000
   C     77.11000000    45.40000000    22.97000000
   C     75.84000000    45.06000000    23.73000000
   O     75.92000000    44.66000000    24.91000000
   O     74.78000000    45.15000000    23.07000000
   H     79.73000000    44.78000000    24.02000000
   H     79.11000000    46.54000000    21.85000000
   H     77.54000000    47.56000000    23.49000000
   H     78.07000000    46.46000000    24.61000000
   H     77.68000000    44.47000000    22.88000000
   H     76.86000000    45.83000000    22.00000000
   N     80.79000000    47.70000000    24.51000000
   C     81.50000000    48.85000000    25.04000000
   H     82.43000000    48.98800000    24.48800000
   H     80.88000000    49.74000000    24.93500000
   H     81.72400000    48.68500000    26.09400000
   H     80.75000000    46.84000000    25.04000000
  Ca     73.22000000    43.68000000    24.52000000
   O     75.45000000    42.11000000    24.27000000
   H     75.38000000    41.72000000    23.40000000
   H     75.78000000    41.40000000    24.82000000
   O     74.40000000    42.85000000    21.88000000
   H     74.21000000    42.87000000    20.94000000
   H     74.65000000    43.75000000    22.09000000
   O     72.50000000    41.04000000    24.10000000
   H     71.75000000    41.16000000    23.52000000
   H     72.97000000    40.29000000    23.74000000
   O     73.95000000    42.12000000    26.67000000
   H     73.60000000    41.37000000    27.17000000
   H     74.84000000    41.87000000    26.45000000

Ca 1.00



