%chk=loop2.cluster206.chk
%nprocshared=20
%mem=10GB
%nosave
#b3lyp/svp scf=(tight,noincore,xqc) Test 
#IOP(5/87=12) Density=Current Pop=(MK,readradii) iop(6/33=2) iop(6/42=6)

loop2.cluster206 

   -2  1 
   C     85.20000000    77.19000000     2.65000000
   C     85.03000000    75.70000000     2.87000000
   O     85.84000000    75.14000000     3.60000000
   H     86.15900000    77.37800000     2.16600000
   H     84.39500000    77.55800000     2.01400000
   H     85.17100000    77.70500000     3.61000000
   N     84.05000000    74.94000000     2.37000000
   C     82.76000000    75.37000000     1.86000000
   C     82.41000000    74.53000000     0.64000000
   O     82.86000000    73.40000000     0.45000000
   C     81.63000000    75.20000000     2.88000000
   C     81.45000000    73.86000000     3.57000000
   O     82.22000000    72.91000000     3.32000000
   O     80.57000000    73.70000000     4.44000000
   H     84.04000000    73.95000000     2.58000000
   H     82.86000000    76.41000000     1.55000000
   H     80.68000000    75.49000000     2.43000000
   H     81.90000000    75.87000000     3.70000000
   N     81.57000000    75.11000000    -0.22000000
   C     81.18000000    74.58000000    -1.51000000
   C     80.26000000    73.37000000    -1.51000000
   O     79.47000000    73.18000000    -2.44000000
   C     82.36000000    74.51000000    -2.47000000
   H     81.24000000    76.04000000    -0.01000000
   H     80.51000000    75.33000000    -1.93000000
   H     82.43000000    73.48000000    -2.80000000
   H     82.17000000    75.20000000    -3.30000000
   H     83.28000000    74.77000000    -1.94000000
   N     80.29000000    72.45000000    -0.54000000
   C     79.27000000    71.50000000    -0.17000000
   C     79.19000000    71.19000000     1.32000000
   O     80.23000000    71.11000000     1.98000000
   C     79.49000000    70.19000000    -0.93000000
   C     80.82000000    69.50000000    -0.65000000
   O     80.85000000    68.78000000     0.37000000
   O     81.75000000    69.71000000    -1.46000000
   H     81.06000000    72.51000000     0.11000000
   H     78.29000000    71.91000000    -0.39000000
   H     79.44000000    70.38000000    -2.00000000
   H     78.75000000    69.48000000    -0.57000000
   N     77.99000000    70.95000000     1.84000000
   C     77.57000000    70.68000000     3.21000000
   C     76.09000000    70.51000000     3.47000000
   O     75.34000000    71.46000000     3.69000000
   H     77.19000000    71.14000000     1.25000000
   H     77.86000000    71.48000000     3.89000000
   H     78.10000000    69.78000000     3.51000000
   N     75.62000000    69.26000000     3.61000000
   C     74.32000000    68.86000000     4.10000000
   C     74.19000000    69.14000000     5.59000000
   O     75.17000000    69.08000000     6.33000000
   C     74.13000000    67.41000000     3.66000000
   C     74.17000000    67.17000000     2.16000000
   N     73.17000000    67.67000000     1.42000000
   O     75.05000000    66.50000000     1.63000000
   H     76.41000000    68.63000000     3.51000000
   H     73.60000000    69.47000000     3.55000000
   H     73.15000000    67.15000000     4.07000000
   H     74.78000000    66.72000000     4.20000000
   H     72.41000000    68.24000000     1.76000000
   H     73.18000000    67.35000000     0.46000000
   N     72.98000000    69.51000000     6.00000000
   C     72.71000000    69.83000000     7.39000000
   C     72.10000000    68.60000000     8.04000000
   O     72.00000000    67.49000000     7.53000000
   H     72.15000000    69.67000000     5.45000000
   H     71.99000000    70.65000000     7.31000000
   H     73.64000000    70.06000000     7.90000000
   N     71.56000000    68.79000000     9.25000000
   C     71.66000000    69.97000000    10.08000000
   C     72.85000000    69.99000000    11.03000000
   O     73.18000000    71.04000000    11.56000000
   C     70.45000000    70.04000000    11.01000000
   C     69.08000000    70.34000000    10.40000000
   O     70.25000000    68.81000000    11.67000000
   H     71.13000000    67.98000000     9.68000000
   H     71.65000000    70.90000000     9.53000000
   H     70.61000000    70.72000000    11.86000000
   H     69.75000000    68.98000000    12.47000000
   H     68.25000000    70.36000000    11.11000000
   H     69.19000000    71.22000000     9.76000000
   H     68.80000000    69.49000000     9.78000000
   N     73.66000000    68.93000000    11.09000000
   C     74.84000000    68.85000000    11.93000000
   C     74.61000000    69.00000000    13.43000000
   O     74.33000000    70.11000000    13.87000000
   C     76.02000000    69.68000000    11.43000000
   C     76.42000000    69.30000000    10.01000000
   C     77.28000000    69.45000000    12.26000000
   C     76.69000000    67.81000000     9.78000000
   H     73.38000000    68.15000000    10.50000000
   H     75.09000000    67.80000000    11.76000000
   H     75.81000000    70.75000000    11.43000000
   H     77.29000000    69.87000000     9.69000000
   H     75.64000000    69.67000000     9.34000000
   H     77.28000000    70.10000000    13.14000000
   H     77.26000000    68.45000000    12.68000000
   H     78.22000000    69.63000000    11.73000000
   H     77.31000000    67.46000000    10.60000000
   H     75.72000000    67.36000000     9.55000000
   H     77.38000000    67.76000000     8.94000000
   N     74.64000000    68.01000000    14.33000000
   C     74.66000000    66.60000000    14.02000000
   C     76.08000000    66.10000000    13.74000000
   O     76.36000000    65.51000000    12.70000000
   C     73.91000000    65.68000000    14.98000000
   C     74.13000000    65.86000000    16.47000000
   O     73.65000000    65.05000000    17.30000000
   O     74.90000000    66.74000000    16.89000000
   H     74.47000000    68.24000000    15.30000000
   H     74.12000000    66.56000000    13.07000000
   H     74.18000000    64.67000000    14.65000000
   H     72.83000000    65.71000000    14.84000000
   N     76.89000000    66.19000000    14.79000000
   C     78.27000000    65.72000000    14.81000000
   C     78.45000000    64.48000000    15.66000000
   O     77.52000000    64.06000000    16.36000000
   C     79.09000000    66.94000000    15.23000000
   C     78.96000000    67.45000000    16.65000000
   C     78.02000000    68.46000000    16.92000000
   C     79.65000000    66.84000000    17.70000000
   C     77.91000000    69.00000000    18.20000000
   C     79.64000000    67.45000000    18.96000000
   C     78.75000000    68.51000000    19.21000000
   H     76.44000000    66.43000000    15.66000000
   H     78.65000000    65.51000000    13.81000000
   H     78.71000000    67.75000000    14.62000000
   H     80.16000000    66.88000000    15.03000000
   H     77.47000000    68.89000000    16.10000000
   H     80.25000000    65.97000000    17.50000000
   H     77.24000000    69.81000000    18.45000000
   H     80.13000000    66.97000000    19.79000000
   H     78.73000000    68.93000000    20.20000000
   N     79.57000000    63.75000000    15.59000000
   C     80.79000000    63.97000000    14.84000000
   C     80.58000000    63.87000000    13.34000000
   O     79.51000000    63.45000000    12.90000000
   C     81.82000000    62.94000000    15.29000000
   C     80.88000000    61.80000000    15.70000000
   C     79.61000000    62.45000000    16.23000000
   H     81.12000000    65.00000000    14.97000000
   H     82.57000000    62.55000000    14.60000000
   H     82.44000000    63.33000000    16.10000000
   H     80.50000000    61.22000000    14.86000000
   H     81.33000000    61.18000000    16.48000000
   H     78.74000000    61.84000000    15.99000000
   H     79.74000000    62.63000000    17.30000000
   N     81.55000000    64.32000000    12.55000000
   C     81.57000000    64.47000000    11.11000000
   C     82.60000000    65.46000000    10.60000000
   O     83.15000000    65.29000000     9.51000000
   C     81.64000000    63.09000000    10.45000000
   C     80.89000000    62.96000000     9.12000000
   C     80.88000000    61.51000000     8.66000000
   O     81.62000000    61.23000000     7.69000000
   O     80.26000000    60.60000000     9.25000000
   H     82.48000000    64.38000000    12.96000000
   H     80.60000000    64.93000000    10.91000000
   H     81.16000000    62.45000000    11.19000000
   H     82.66000000    62.73000000    10.33000000
   H     81.39000000    63.57000000     8.37000000
   H     79.89000000    63.39000000     9.15000000
   N     82.88000000    66.61000000    11.20000000
   C     82.33000000    67.22000000    12.40000000
   H     81.31400000    66.85800000    12.55800000
   H     82.94700000    66.95500000    13.25900000
   H     82.31500000    68.30400000    12.28300000
   H     83.55000000    67.18000000    10.71000000
  Ca     82.03000000    70.02000000     3.56000000
   O     80.27000000    68.17000000     3.14000000
   H     80.48000000    67.78000000     2.28000000
   H     79.32000000    68.13000000     3.20000000
   O     83.49000000    67.90000000     2.95000000
   H     83.72000000    67.17000000     3.52000000
   H     83.43000000    67.51000000     2.07000000
   O     79.91000000    70.21000000     5.21000000
   H     79.16000000    69.61000000     5.28000000
   H     79.71000000    70.91000000     5.83000000
   O     84.67000000    70.44000000     4.42000000
   H     85.42000000    69.86000000     4.30000000
   H     84.99000000    71.31000000     4.16000000
   O     82.59000000    68.41000000     5.76000000
   H     82.03000000    67.77000000     6.20000000
   H     83.33000000    68.52000000     6.36000000
   O     83.03000000    70.76000000     1.04000000
   H     82.82000000    70.21000000     0.28000000
   H     82.84000000    71.65000000     0.74000000

Ca 1.00



