%chk=loop2.cluster108.chk
%nprocshared=20
%mem=10GB
%nosave
#b3lyp/svp scf=(tight,noincore,xqc) Test 
#IOP(5/87=12) Density=Current Pop=(MK,readradii) iop(6/33=2) iop(6/42=6)

loop2.cluster108 

   -2  1 
   C     58.05000000    50.15000000    51.01000000
   C     57.35000000    50.09000000    49.66000000
   O     56.42000000    49.33000000    49.45000000
   H     58.94600000    50.76500000    50.92700000
   H     57.37800000    50.58600000    51.74900000
   H     58.32800000    49.14300000    51.32100000
   N     57.73000000    50.90000000    48.66000000
   C     57.40000000    50.77000000    47.26000000
   C     55.91000000    50.89000000    46.95000000
   O     55.31000000    51.85000000    47.43000000
   C     58.26000000    51.55000000    46.27000000
   C     59.71000000    51.11000000    46.16000000
   O     60.47000000    51.73000000    45.39000000
   O     60.09000000    50.12000000    46.83000000
   H     58.45000000    51.60000000    48.81000000
   H     57.61000000    49.73000000    47.01000000
   H     58.28000000    52.60000000    46.56000000
   H     57.87000000    51.51000000    45.25000000
   N     55.26000000    50.01000000    46.19000000
   C     53.84000000    50.02000000    45.90000000
   C     53.26000000    48.76000000    46.52000000
   O     53.93000000    47.74000000    46.65000000
   C     53.64000000    50.14000000    44.39000000
   H     55.75000000    49.20000000    45.82000000
   H     53.46000000    50.94000000    46.36000000
   H     54.09000000    51.04000000    43.96000000
   H     54.19000000    49.30000000    43.97000000
   H     52.59000000    49.96000000    44.16000000
   N     51.96000000    48.73000000    46.86000000
   C     50.92000000    49.71000000    46.66000000
   C     50.94000000    50.89000000    47.61000000
   O     51.52000000    50.91000000    48.70000000
   C     49.53000000    49.06000000    46.58000000
   C     49.15000000    48.30000000    47.84000000
   O     49.09000000    48.89000000    48.94000000
   O     48.90000000    47.08000000    47.80000000
   H     51.73000000    47.86000000    47.32000000
   H     51.11000000    50.08000000    45.65000000
   H     49.55000000    48.37000000    45.74000000
   H     48.72000000    49.78000000    46.53000000
   N     50.39000000    52.02000000    47.15000000
   C     50.37000000    53.30000000    47.84000000
   C     51.22000000    54.37000000    47.18000000
   O     51.40000000    54.24000000    45.97000000
   H     50.01000000    51.94000000    46.22000000
   H     50.66000000    53.08000000    48.86000000
   H     49.38000000    53.75000000    47.82000000
   N     51.80000000    55.38000000    47.83000000
   C     51.78000000    55.68000000    49.25000000
   C     53.20000000    55.69000000    49.78000000
   O     54.13000000    56.21000000    49.16000000
   C     51.05000000    56.95000000    49.65000000
   C     49.62000000    56.92000000    49.13000000
   N     48.67000000    56.50000000    49.96000000
   O     49.41000000    57.18000000    47.95000000
   H     52.43000000    55.97000000    47.30000000
   H     51.34000000    54.77000000    49.66000000
   H     51.53000000    57.88000000    49.35000000
   H     50.98000000    57.05000000    50.74000000
   H     48.76000000    56.16000000    50.90000000
   H     47.74000000    56.36000000    49.59000000
   N     53.36000000    55.33000000    51.05000000
   C     54.56000000    55.43000000    51.87000000
   C     54.44000000    54.61000000    53.15000000
   O     55.41000000    54.60000000    53.91000000
   H     52.61000000    54.82000000    51.49000000
   H     54.80000000    56.45000000    52.16000000
   H     55.43000000    55.07000000    51.33000000
   N     53.27000000    54.09000000    53.53000000
   C     53.02000000    53.22000000    54.66000000
   C     52.68000000    51.79000000    54.24000000
   O     52.28000000    51.72000000    53.08000000
   C     52.09000000    53.77000000    55.73000000
   C     52.78000000    54.80000000    56.63000000
   O     51.02000000    54.48000000    55.15000000
   H     52.44000000    54.30000000    52.99000000
   H     53.99000000    53.09000000    55.15000000
   H     51.72000000    52.92000000    56.30000000
   H     50.45000000    54.74000000    55.88000000
   H     53.65000000    54.34000000    57.10000000
   H     53.09000000    55.72000000    56.13000000
   H     52.01000000    55.07000000    57.35000000
   N     52.78000000    50.81000000    55.13000000
   C     52.33000000    49.44000000    54.97000000
   C     51.45000000    48.92000000    56.10000000
   O     51.26000000    49.60000000    57.11000000
   C     53.49000000    48.50000000    54.64000000
   C     54.05000000    48.80000000    53.25000000
   C     54.53000000    48.62000000    55.75000000
   C     55.28000000    47.95000000    52.92000000
   H     53.13000000    51.04000000    56.05000000
   H     51.78000000    49.31000000    54.04000000
   H     53.12000000    47.48000000    54.54000000
   H     54.37000000    49.84000000    53.24000000
   H     53.33000000    48.64000000    52.45000000
   H     55.26000000    47.84000000    55.52000000
   H     54.98000000    49.61000000    55.74000000
   H     54.05000000    48.36000000    56.69000000
   H     56.17000000    48.39000000    53.37000000
   H     55.08000000    46.94000000    53.28000000
   H     55.36000000    47.91000000    51.83000000
   N     50.74000000    47.82000000    55.86000000
   C     49.55000000    47.37000000    56.55000000
   C     49.44000000    45.85000000    56.50000000
   O     50.05000000    45.15000000    55.70000000
   C     48.32000000    48.07000000    55.99000000
   C     48.35000000    48.03000000    54.47000000
   O     48.95000000    48.93000000    53.84000000
   O     47.98000000    47.04000000    53.81000000
   H     50.94000000    47.37000000    54.97000000
   H     49.74000000    47.68000000    57.58000000
   H     48.23000000    49.08000000    56.40000000
   H     47.44000000    47.53000000    56.34000000
   N     48.72000000    45.21000000    57.43000000
   C     48.60000000    43.78000000    57.64000000
   C     49.96000000    43.09000000    57.71000000
   O     50.74000000    43.52000000    58.56000000
   C     47.79000000    43.58000000    58.92000000
   C     47.59000000    42.10000000    59.18000000
   C     48.60000000    41.41000000    59.87000000
   C     46.58000000    41.38000000    58.54000000
   C     48.57000000    40.02000000    60.06000000
   C     46.48000000    40.00000000    58.74000000
   C     47.53000000    39.35000000    59.41000000
   H     48.51000000    45.75000000    58.25000000
   H     48.09000000    43.42000000    56.75000000
   H     46.83000000    44.02000000    58.65000000
   H     48.21000000    44.05000000    59.80000000
   H     49.34000000    41.98000000    60.41000000
   H     45.78000000    41.90000000    58.03000000
   H     49.19000000    39.56000000    60.82000000
   H     45.62000000    39.41000000    58.45000000
   H     47.33000000    38.31000000    59.63000000
   N     50.24000000    42.05000000    56.92000000
   C     51.50000000    41.34000000    57.05000000
   C     52.68000000    41.94000000    56.31000000
   O     53.82000000    41.48000000    56.33000000
   C     51.19000000    39.93000000    56.57000000
   C     50.09000000    40.12000000    55.53000000
   C     49.31000000    41.30000000    56.10000000
   H     51.76000000    41.30000000    58.11000000
   H     52.01000000    39.42000000    56.07000000
   H     50.83000000    39.41000000    57.46000000
   H     50.56000000    40.30000000    54.57000000
   H     49.52000000    39.19000000    55.49000000
   H     48.89000000    41.83000000    55.24000000
   H     48.56000000    40.90000000    56.78000000
   N     52.49000000    43.07000000    55.62000000
   C     53.53000000    43.74000000    54.87000000
   C     54.71000000    44.32000000    55.64000000
   O     55.70000000    44.81000000    55.10000000
   C     52.90000000    44.80000000    53.98000000
   C     51.72000000    44.36000000    53.13000000
   C     50.90000000    45.52000000    52.58000000
   O     50.30000000    45.33000000    51.50000000
   O     50.86000000    46.66000000    53.08000000
   H     51.57000000    43.50000000    55.65000000
   H     53.99000000    43.06000000    54.15000000
   H     53.67000000    45.32000000    53.41000000
   H     52.45000000    45.55000000    54.64000000
   H     50.99000000    43.77000000    53.70000000
   H     52.09000000    43.79000000    52.28000000
   N     54.74000000    44.14000000    56.96000000
   C     55.78000000    44.55000000    57.89000000
   H     56.62500000    44.95400000    57.33300000
   H     55.38800000    45.31500000    58.56000000
   H     56.10800000    43.68900000    58.47200000
   H     53.91000000    43.66000000    57.28000000
  Ca     49.32000000    48.06000000    51.44000000
   O     51.69000000    47.88000000    50.03000000
   H     52.26000000    48.64000000    49.87000000
   H     52.28000000    47.13000000    49.96000000
   O     50.71000000    50.24000000    51.45000000
   H     50.96000000    50.28000000    50.53000000
   H     51.21000000    50.95000000    51.86000000
   O     47.63000000    46.43000000    50.31000000
   H     47.96000000    46.52000000    49.41000000
   H     47.14000000    45.61000000    50.30000000

Ca 1.00



