%chk=loop3.cluster19.chk
%nprocshared=20
%mem=10GB
%nosave
#b3lyp/svp scf=(tight,noincore,xqc) Test 
#IOP(5/87=12) Density=Current Pop=(MK,readradii) iop(6/33=2) iop(6/42=6)

loop3.cluster19 

   0  1 
   C     35.21000000    49.41000000    20.28000000
   C     36.46000000    48.55000000    20.35000000
   O     36.68000000    47.78000000    19.41000000
   H     34.40800000    48.93100000    20.84200000
   H     35.41800000    50.39000000    20.70800000
   H     34.90500000    49.52500000    19.24000000
   N     37.16000000    48.57000000    21.49000000
   C     38.16000000    47.58000000    21.87000000
   C     37.44000000    46.45000000    22.58000000
   O     37.41000000    46.48000000    23.81000000
   C     39.39000000    48.20000000    22.52000000
   C     40.36000000    47.06000000    22.82000000
   O     40.30000000    45.96000000    22.23000000
   O     41.13000000    47.23000000    23.79000000
   H     36.73000000    48.98000000    22.30000000
   H     38.41000000    47.08000000    20.93000000
   H     39.14000000    48.70000000    23.46000000
   H     39.80000000    48.83000000    21.73000000
   N     36.79000000    45.52000000    21.88000000
   C     36.06000000    44.42000000    22.48000000
   C     36.99000000    43.38000000    23.09000000
   O     36.57000000    42.65000000    23.98000000
   C     35.10000000    43.78000000    21.48000000
   C     34.20000000    42.71000000    22.09000000
   C     33.03000000    42.20000000    21.25000000
   C     33.62000000    41.45000000    20.06000000
   N     32.56000000    41.01000000    19.15000000
   H     37.00000000    45.47000000    20.90000000
   H     35.49000000    44.83000000    23.32000000
   H     35.70000000    43.43000000    20.64000000
   H     34.44000000    44.57000000    21.10000000
   H     33.72000000    43.09000000    22.99000000
   H     34.85000000    41.89000000    22.40000000
   H     32.41000000    43.05000000    20.96000000
   H     32.56000000    41.54000000    21.98000000
   H     34.06000000    40.53000000    20.44000000
   H     34.31000000    42.09000000    19.50000000
   H     31.96000000    40.30000000    19.55000000
   H     31.98000000    41.82000000    18.97000000
   H     32.93000000    40.80000000    18.23000000
   N     38.22000000    43.20000000    22.61000000
   C     39.15000000    42.16000000    23.00000000
   C     40.03000000    42.48000000    24.21000000
   O     40.54000000    41.55000000    24.83000000
   C     40.06000000    41.69000000    21.87000000
   C     40.87000000    42.83000000    21.26000000
   O     41.91000000    43.24000000    21.81000000
   O     40.50000000    43.37000000    20.19000000
   H     38.50000000    43.71000000    21.78000000
   H     38.56000000    41.30000000    23.30000000
   H     39.43000000    41.35000000    21.04000000
   H     40.72000000    40.87000000    22.13000000
   N     40.26000000    43.79000000    24.37000000
   C     40.77000000    44.35000000    25.61000000
   C     42.28000000    44.15000000    25.73000000
   O     42.70000000    44.22000000    26.89000000
   H     40.01000000    44.35000000    23.57000000
   H     40.29000000    43.91000000    26.48000000
   H     40.43000000    45.38000000    25.58000000
   N     43.09000000    44.17000000    24.67000000
   C     44.47000000    44.60000000    24.68000000
   C     44.57000000    46.08000000    25.03000000
   O     45.66000000    46.63000000    25.16000000
   C     45.14000000    44.44000000    23.31000000
   C     44.55000000    45.27000000    22.18000000
   N     45.21000000    45.28000000    21.02000000
   O     43.58000000    46.00000000    22.36000000
   H     42.69000000    44.16000000    23.74000000
   H     45.02000000    44.04000000    25.43000000
   H     44.93000000    43.41000000    23.03000000
   H     46.19000000    44.64000000    23.50000000
   H     46.13000000    44.87000000    21.01000000
   H     44.89000000    45.95000000    20.33000000
   N     43.53000000    46.85000000    25.31000000
   C     43.71000000    48.28000000    25.47000000
   C     43.95000000    49.16000000    24.24000000
   O     44.55000000    50.22000000    24.38000000
   H     42.57000000    46.67000000    25.05000000
   H     44.51000000    48.51000000    26.17000000
   H     42.85000000    48.80000000    25.90000000
   N     43.61000000    48.71000000    23.03000000
   C     43.76000000    49.41000000    21.77000000
   C     42.63000000    49.12000000    20.80000000
   O     42.18000000    47.98000000    20.64000000
   C     45.05000000    48.96000000    21.08000000
   C     46.32000000    49.15000000    21.88000000
   C     47.01000000    50.37000000    21.85000000
   C     46.80000000    48.06000000    22.61000000
   C     48.11000000    50.50000000    22.70000000
   C     47.85000000    48.22000000    23.52000000
   C     48.53000000    49.46000000    23.55000000
   O     49.57000000    49.62000000    24.42000000
   H     43.28000000    47.76000000    22.96000000
   H     43.92000000    50.46000000    21.99000000
   H     45.30000000    49.50000000    20.17000000
   H     44.92000000    47.90000000    20.87000000
   H     46.62000000    51.24000000    21.35000000
   H     46.44000000    47.04000000    22.59000000
   H     48.62000000    51.44000000    22.87000000
   H     48.28000000    47.37000000    24.03000000
   H     49.93000000    50.50000000    24.50000000
   N     42.23000000    50.10000000    19.99000000
   C     41.43000000    50.03000000    18.78000000
   C     42.32000000    50.17000000    17.55000000
   O     43.31000000    50.90000000    17.55000000
   C     40.44000000    51.19000000    18.73000000
   C     39.64000000    51.32000000    20.02000000
   C     39.38000000    50.94000000    17.66000000
   C     39.00000000    52.70000000    20.07000000
   H     42.69000000    50.99000000    20.11000000
   H     40.86000000    49.11000000    18.71000000
   H     41.03000000    52.09000000    18.54000000
   H     40.30000000    51.31000000    20.89000000
   H     38.96000000    50.47000000    20.13000000
   H     38.95000000    49.94000000    17.75000000
   H     38.59000000    51.69000000    17.70000000
   H     39.84000000    50.93000000    16.67000000
   H     38.27000000    52.88000000    19.28000000
   H     38.50000000    52.78000000    21.04000000
   H     39.76000000    53.48000000    20.02000000
   N     42.03000000    49.34000000    16.54000000
   C     42.60000000    49.29000000    15.21000000
   C     41.46000000    49.35000000    14.20000000
   O     40.30000000    49.42000000    14.59000000
   C     43.59000000    48.13000000    15.10000000
   O     42.84000000    46.94000000    15.29000000
   H     41.22000000    48.77000000    16.70000000
   H     43.10000000    50.24000000    15.05000000
   H     44.42000000    48.18000000    15.80000000
   H     44.04000000    48.03000000    14.11000000
   H     42.47000000    46.92000000    16.17000000
   N     41.84000000    49.36000000    12.92000000
   C     40.91000000    49.61000000    11.84000000
   C     39.89000000    48.52000000    11.55000000
   O     38.70000000    48.84000000    11.54000000
   C     41.73000000    49.93000000    10.59000000
   H     42.81000000    49.19000000    12.70000000
   H     40.39000000    50.51000000    12.18000000
   H     40.96000000    49.96000000     9.82000000
   H     42.06000000    50.97000000    10.70000000
   H     42.55000000    49.26000000    10.33000000
   N     40.24000000    47.24000000    11.67000000
   C     39.27000000    46.17000000    11.58000000
   C     38.39000000    46.16000000    12.83000000
   O     37.29000000    45.62000000    12.68000000
   C     39.99000000    44.86000000    11.30000000
   H     41.22000000    47.07000000    11.84000000
   H     38.54000000    46.40000000    10.80000000
   H     39.26000000    44.07000000    11.13000000
   H     40.52000000    45.10000000    10.37000000
   H     40.68000000    44.61000000    12.11000000
   N     38.80000000    46.74000000    13.95000000
   C     37.87000000    46.75000000    15.07000000
   C     36.85000000    47.87000000    15.06000000
   O     35.71000000    47.69000000    15.48000000
   C     38.70000000    46.89000000    16.34000000
   C     39.71000000    45.77000000    16.60000000
   C     40.51000000    46.23000000    17.81000000
   O     41.70000000    46.58000000    17.65000000
   O     40.00000000    46.28000000    18.95000000
   H     39.67000000    47.26000000    14.02000000
   H     37.34000000    45.80000000    15.06000000
   H     38.00000000    46.93000000    17.18000000
   H     39.33000000    47.78000000    16.25000000
   H     40.45000000    45.69000000    15.80000000
   H     39.21000000    44.81000000    16.74000000
   N     37.26000000    49.01000000    14.50000000
   C     36.34000000    50.06000000    14.10000000
   H     35.43700000    50.00200000    14.70800000
   H     36.81200000    51.03200000    14.24400000
   H     36.07900000    49.93400000    13.04900000
   H     38.23000000    49.20000000    14.28000000
  Ca     42.00000000    45.32000000    20.29000000
   O     43.42000000    43.45000000    19.14000000
   H     43.06000000    42.99000000    18.39000000
   H     44.35000000    43.23000000    19.15000000
   O     43.90000000    46.47000000    18.94000000
   H     44.68000000    46.39000000    18.39000000
   H     43.24000000    46.85000000    18.36000000

Ca 1.00



