%chk=loop2.cluster162.chk
%nprocshared=20
%mem=10GB
%nosave
#b3lyp/svp scf=(tight,noincore,xqc) Test 
#IOP(5/87=12) Density=Current Pop=(MK,readradii) iop(6/33=2) iop(6/42=6)

loop2.cluster162 

   -2  1 
   C     62.49000000    56.99000000    16.27000000
   C     61.43000000    57.74000000    17.06000000
   O     61.75000000    58.69000000    17.78000000
   H     63.40500000    56.92800000    16.85900000
   H     62.13400000    55.98500000    16.04600000
   H     62.69300000    57.52000000    15.33900000
   N     60.19000000    57.26000000    17.09000000
   C     59.16000000    57.71000000    18.00000000
   C     59.42000000    56.98000000    19.31000000
   O     59.18000000    55.79000000    19.50000000
   C     57.81000000    57.36000000    17.39000000
   C     56.58000000    57.67000000    18.23000000
   O     55.57000000    56.96000000    18.04000000
   O     56.51000000    58.49000000    19.17000000
   H     59.97000000    56.60000000    16.36000000
   H     59.21000000    58.78000000    18.24000000
   H     57.75000000    56.35000000    16.99000000
   H     57.71000000    58.03000000    16.53000000
   N     59.72000000    57.72000000    20.38000000
   C     59.96000000    57.18000000    21.71000000
   C     58.67000000    56.65000000    22.32000000
   O     58.70000000    55.80000000    23.21000000
   C     60.74000000    58.12000000    22.62000000
   H     59.91000000    58.70000000    20.24000000
   H     60.60000000    56.31000000    21.52000000
   H     61.48000000    58.66000000    22.03000000
   H     60.07000000    58.81000000    23.13000000
   H     61.27000000    57.59000000    23.41000000
   N     57.50000000    57.17000000    21.96000000
   C     56.20000000    57.20000000    22.60000000
   C     55.20000000    56.18000000    22.07000000
   O     54.11000000    56.11000000    22.63000000
   C     55.63000000    58.60000000    22.41000000
   C     56.50000000    59.79000000    22.76000000
   O     56.86000000    60.50000000    21.79000000
   O     56.84000000    60.05000000    23.93000000
   H     57.48000000    57.64000000    21.07000000
   H     56.31000000    56.90000000    23.65000000
   H     54.71000000    58.76000000    22.97000000
   H     55.23000000    58.71000000    21.40000000
   N     55.48000000    55.39000000    21.03000000
   C     54.81000000    54.16000000    20.65000000
   C     53.61000000    54.25000000    19.72000000
   O     53.37000000    53.27000000    19.03000000
   H     56.34000000    55.66000000    20.57000000
   H     54.43000000    53.67000000    21.54000000
   H     55.54000000    53.52000000    20.15000000
   N     52.97000000    55.41000000    19.50000000
   C     51.82000000    55.49000000    18.62000000
   C     52.11000000    55.86000000    17.17000000
   O     51.19000000    56.08000000    16.39000000
   C     50.73000000    56.35000000    19.24000000
   C     51.06000000    57.84000000    19.30000000
   N     51.41000000    58.36000000    20.48000000
   O     51.13000000    58.46000000    18.25000000
   H     53.14000000    56.20000000    20.11000000
   H     51.33000000    54.52000000    18.67000000
   H     50.45000000    56.01000000    20.24000000
   H     49.85000000    56.29000000    18.59000000
   H     51.26000000    57.78000000    21.29000000
   H     51.74000000    59.31000000    20.55000000
   N     53.39000000    56.01000000    16.84000000
   C     53.76000000    56.18000000    15.45000000
   C     53.39000000    57.50000000    14.78000000
   O     52.82000000    57.51000000    13.68000000
   H     54.16000000    55.85000000    17.47000000
   H     53.31000000    55.39000000    14.86000000
   H     54.83000000    55.97000000    15.45000000
   N     53.57000000    58.55000000    15.57000000
   C     53.49000000    59.93000000    15.12000000
   C     54.80000000    60.65000000    15.38000000
   O     55.37000000    60.42000000    16.44000000
   C     52.31000000    60.56000000    15.85000000
   C     51.89000000    61.89000000    15.23000000
   O     51.17000000    59.75000000    15.67000000
   H     54.02000000    58.39000000    16.46000000
   H     53.32000000    59.87000000    14.04000000
   H     52.44000000    60.76000000    16.92000000
   H     51.08000000    59.15000000    16.41000000
   H     52.59000000    62.69000000    15.47000000
   H     51.58000000    61.80000000    14.19000000
   H     50.98000000    62.20000000    15.73000000
   N     55.19000000    61.51000000    14.43000000
   C     56.43000000    62.25000000    14.40000000
   C     56.22000000    63.66000000    14.93000000
   O     55.50000000    64.47000000    14.34000000
   C     57.00000000    62.19000000    12.98000000
   C     57.56000000    60.80000000    12.73000000
   C     58.10000000    63.22000000    12.68000000
   C     58.90000000    60.42000000    13.36000000
   H     54.50000000    61.63000000    13.70000000
   H     57.10000000    61.70000000    15.06000000
   H     56.20000000    62.34000000    12.25000000
   H     57.72000000    60.62000000    11.67000000
   H     56.89000000    60.00000000    13.05000000
   H     57.77000000    64.23000000    12.89000000
   H     59.06000000    63.19000000    13.20000000
   H     58.28000000    63.27000000    11.61000000
   H     59.04000000    60.71000000    14.41000000
   H     59.06000000    59.34000000    13.38000000
   H     59.72000000    60.83000000    12.78000000
   N     56.99000000    63.96000000    15.98000000
   C     57.20000000    65.30000000    16.48000000
   C     58.46000000    65.94000000    15.90000000
   O     59.28000000    65.30000000    15.26000000
   C     57.35000000    65.22000000    18.00000000
   C     56.26000000    64.50000000    18.77000000
   O     56.63000000    63.51000000    19.43000000
   O     55.08000000    64.90000000    18.86000000
   H     57.42000000    63.21000000    16.50000000
   H     56.38000000    65.93000000    16.14000000
   H     57.41000000    66.24000000    18.36000000
   H     58.34000000    64.82000000    18.21000000
   N     58.72000000    67.22000000    16.21000000
   C     59.77000000    67.92000000    15.51000000
   C     61.16000000    67.39000000    15.85000000
   O     61.94000000    67.22000000    14.92000000
   C     59.69000000    69.44000000    15.63000000
   C     60.66000000    70.24000000    14.79000000
   C     60.97000000    69.80000000    13.50000000
   C     61.29000000    71.39000000    15.28000000
   C     61.93000000    70.47000000    12.73000000
   C     62.34000000    72.00000000    14.57000000
   C     62.62000000    71.55000000    13.27000000
   H     57.98000000    67.78000000    16.61000000
   H     59.67000000    67.48000000    14.52000000
   H     59.84000000    69.76000000    16.66000000
   H     58.69000000    69.82000000    15.41000000
   H     60.57000000    68.86000000    13.17000000
   H     61.05000000    71.78000000    16.26000000
   H     62.16000000    70.08000000    11.74000000
   H     62.97000000    72.77000000    14.99000000
   H     63.50000000    71.94000000    12.78000000
   N     61.57000000    67.12000000    17.10000000
   C     62.87000000    66.54000000    17.35000000
   C     62.92000000    65.09000000    16.88000000
   O     64.02000000    64.62000000    16.60000000
   C     63.08000000    66.59000000    18.86000000
   C     62.07000000    67.60000000    19.39000000
   C     60.97000000    67.57000000    18.34000000
   H     63.63000000    67.14000000    16.85000000
   H     62.92000000    65.61000000    19.31000000
   H     64.09000000    66.96000000    19.01000000
   H     61.86000000    67.58000000    20.46000000
   H     62.47000000    68.62000000    19.32000000
   H     60.28000000    66.76000000    18.57000000
   H     60.44000000    68.52000000    18.29000000
   N     61.81000000    64.40000000    16.61000000
   C     61.90000000    63.06000000    16.05000000
   C     62.13000000    63.08000000    14.54000000
   O     62.88000000    62.23000000    14.07000000
   C     60.62000000    62.27000000    16.31000000
   C     60.34000000    62.04000000    17.79000000
   C     58.94000000    61.59000000    18.18000000
   O     57.94000000    61.67000000    17.45000000
   O     58.70000000    61.04000000    19.28000000
   H     60.95000000    64.91000000    16.75000000
   H     62.63000000    62.44000000    16.56000000
   H     60.77000000    61.31000000    15.82000000
   H     59.79000000    62.88000000    15.97000000
   H     60.41000000    63.04000000    18.20000000
   H     61.00000000    61.31000000    18.28000000
   N     61.59000000    64.08000000    13.84000000
   C     61.88000000    64.41000000    12.46000000
   H     62.92100000    64.17300000    12.24100000
   H     61.23100000    63.83100000    11.80300000
   H     61.70800000    65.47400000    12.29600000
   H     61.09000000    64.75000000    14.40000000
  Ca     56.15000000    61.03000000    19.31000000
   O     54.03000000    62.31000000    18.32000000
   H     54.14000000    63.26000000    18.44000000
   H     53.15000000    62.13000000    18.67000000
   O     54.07000000    59.09000000    19.23000000
   H     53.42000000    58.71000000    19.82000000
   H     54.70000000    58.39000000    19.10000000
   O     54.09000000    62.03000000    21.14000000
   H     53.55000000    62.67000000    20.67000000
   H     53.52000000    61.71000000    21.84000000

Ca 1.00



