%chk=loop2.cluster240.chk
%nprocshared=20
%mem=10GB
%nosave
#b3lyp/svp scf=(tight,noincore,xqc) Test 
#IOP(5/87=12) Density=Current Pop=(MK,readradii) iop(6/33=2) iop(6/42=6)

loop2.cluster240 

   -2  1 
   C     53.82000000    49.44000000    43.81000000
   C     53.30000000    50.28000000    42.65000000
   O     52.28000000    49.83000000    42.13000000
   H     54.71600000    49.90500000    44.22100000
   H     53.05600000    49.37700000    44.58500000
   H     54.06200000    48.43800000    43.45400000
   N     53.99000000    51.33000000    42.21000000
   C     53.60000000    52.17000000    41.10000000
   C     53.18000000    51.45000000    39.82000000
   O     52.33000000    51.96000000    39.09000000
   C     52.62000000    53.24000000    41.59000000
   C     53.03000000    54.20000000    42.70000000
   O     54.23000000    54.28000000    43.02000000
   O     52.24000000    54.95000000    43.31000000
   H     54.80000000    51.61000000    42.75000000
   H     54.55000000    52.70000000    41.00000000
   H     51.70000000    52.78000000    41.93000000
   H     52.37000000    53.89000000    40.75000000
   N     53.76000000    50.30000000    39.50000000
   C     53.42000000    49.48000000    38.35000000
   C     53.28000000    48.00000000    38.70000000
   O     54.08000000    47.55000000    39.52000000
   C     54.34000000    49.66000000    37.15000000
   H     54.27000000    49.85000000    40.24000000
   H     52.42000000    49.67000000    37.95000000
   H     53.85000000    49.18000000    36.31000000
   H     54.43000000    50.73000000    36.93000000
   H     55.37000000    49.31000000    37.30000000
   N     52.35000000    47.18000000    38.21000000
   C     51.47000000    47.40000000    37.08000000
   C     50.24000000    48.20000000    37.48000000
   O     49.71000000    48.21000000    38.59000000
   C     51.04000000    46.06000000    36.49000000
   C     50.34000000    45.16000000    37.49000000
   O     50.89000000    44.37000000    38.29000000
   O     49.09000000    45.17000000    37.48000000
   H     52.27000000    46.40000000    38.84000000
   H     52.01000000    47.96000000    36.32000000
   H     51.96000000    45.53000000    36.27000000
   H     50.49000000    46.14000000    35.55000000
   N     49.63000000    48.92000000    36.53000000
   C     48.55000000    49.87000000    36.65000000
   C     48.96000000    51.28000000    37.07000000
   O     49.64000000    51.91000000    36.27000000
   H     49.99000000    48.86000000    35.59000000
   H     47.80000000    49.49000000    37.35000000
   H     47.96000000    50.02000000    35.75000000
   N     48.60000000    51.82000000    38.23000000
   C     47.98000000    51.19000000    39.38000000
   C     48.55000000    51.78000000    40.66000000
   O     49.16000000    52.84000000    40.77000000
   C     46.49000000    51.54000000    39.42000000
   C     45.75000000    51.27000000    38.12000000
   N     45.22000000    50.06000000    37.93000000
   O     45.66000000    52.14000000    37.26000000
   H     48.89000000    52.77000000    38.42000000
   H     48.06000000    50.11000000    39.34000000
   H     46.36000000    52.61000000    39.58000000
   H     45.97000000    50.98000000    40.21000000
   H     45.29000000    49.35000000    38.64000000
   H     45.25000000    49.79000000    36.95000000
   N     48.43000000    50.97000000    41.71000000
   C     49.02000000    51.26000000    43.01000000
   C     48.70000000    50.35000000    44.19000000
   O     49.10000000    50.59000000    45.33000000
   H     47.90000000    50.11000000    41.66000000
   H     48.77000000    52.29000000    43.27000000
   H     50.10000000    51.18000000    42.94000000
   N     48.07000000    49.21000000    43.94000000
   C     47.97000000    48.10000000    44.87000000
   C     48.63000000    46.85000000    44.30000000
   O     48.52000000    46.57000000    43.11000000
   C     46.55000000    47.85000000    45.35000000
   C     46.22000000    48.90000000    46.41000000
   O     45.59000000    47.80000000    44.32000000
   H     47.57000000    49.08000000    43.07000000
   H     48.61000000    48.30000000    45.73000000
   H     46.48000000    46.92000000    45.93000000
   H     45.26000000    46.90000000    44.34000000
   H     45.20000000    48.85000000    46.80000000
   H     46.72000000    48.63000000    47.34000000
   H     46.34000000    49.92000000    46.07000000
   N     49.14000000    45.94000000    45.13000000
   C     49.43000000    44.55000000    44.82000000
   C     48.20000000    43.66000000    44.88000000
   O     47.47000000    43.74000000    45.87000000
   C     50.52000000    43.93000000    45.69000000
   C     51.92000000    44.18000000    45.15000000
   C     50.39000000    44.31000000    47.17000000
   C     52.89000000    44.97000000    46.02000000
   H     49.10000000    46.11000000    46.13000000
   H     49.67000000    44.47000000    43.76000000
   H     50.36000000    42.85000000    45.63000000
   H     51.85000000    44.83000000    44.28000000
   H     52.49000000    43.30000000    44.85000000
   H     49.37000000    44.15000000    47.53000000
   H     51.05000000    43.69000000    47.77000000
   H     50.55000000    45.37000000    47.33000000
   H     53.83000000    45.13000000    45.50000000
   H     52.53000000    45.98000000    46.22000000
   H     53.11000000    44.40000000    46.93000000
   N     48.07000000    42.75000000    43.91000000
   C     47.07000000    41.70000000    43.92000000
   C     47.68000000    40.32000000    43.82000000
   O     48.67000000    40.12000000    43.11000000
   C     45.98000000    41.90000000    42.87000000
   C     46.55000000    42.47000000    41.58000000
   O     46.70000000    43.70000000    41.41000000
   O     46.92000000    41.68000000    40.69000000
   H     48.67000000    42.77000000    43.10000000
   H     46.43000000    41.73000000    44.81000000
   H     45.28000000    42.65000000    43.24000000
   H     45.39000000    41.00000000    42.70000000
   N     47.05000000    39.38000000    44.52000000
   C     47.38000000    37.98000000    44.32000000
   C     48.75000000    37.60000000    44.87000000
   O     49.16000000    38.15000000    45.89000000
   C     46.22000000    37.22000000    44.96000000
   C     45.95000000    35.80000000    44.52000000
   C     46.21000000    34.71000000    45.35000000
   C     45.48000000    35.55000000    43.23000000
   C     45.93000000    33.40000000    44.95000000
   C     45.16000000    34.25000000    42.82000000
   C     45.47000000    33.16000000    43.64000000
   H     46.23000000    39.63000000    45.07000000
   H     47.27000000    37.78000000    43.25000000
   H     45.25000000    37.70000000    44.81000000
   H     46.48000000    37.20000000    46.01000000
   H     46.58000000    34.87000000    46.36000000
   H     45.23000000    36.36000000    42.56000000
   H     46.07000000    32.56000000    45.61000000
   H     44.74000000    34.10000000    41.84000000
   H     45.16000000    32.17000000    43.34000000
   N     49.53000000    36.75000000    44.21000000
   C     50.87000000    36.48000000    44.67000000
   C     51.78000000    37.69000000    44.85000000
   O     52.78000000    37.67000000    45.56000000
   C     51.42000000    35.60000000    43.55000000
   C     50.30000000    35.22000000    42.59000000
   C     49.21000000    36.25000000    42.88000000
   H     50.74000000    35.94000000    45.61000000
   H     52.19000000    36.22000000    43.09000000
   H     51.81000000    34.70000000    44.03000000
   H     50.65000000    35.36000000    41.56000000
   H     49.96000000    34.19000000    42.68000000
   H     49.21000000    37.06000000    42.15000000
   H     48.24000000    35.76000000    42.81000000
   N     51.47000000    38.85000000    44.28000000
   C     52.41000000    39.91000000    43.98000000
   C     53.01000000    40.57000000    45.21000000
   O     53.98000000    41.30000000    45.02000000
   C     51.65000000    40.93000000    43.13000000
   C     51.28000000    40.55000000    41.70000000
   C     50.42000000    41.63000000    41.04000000
   O     50.09000000    42.66000000    41.66000000
   O     50.20000000    41.49000000    39.82000000
   H     50.53000000    39.06000000    43.96000000
   H     53.19000000    39.47000000    43.35000000
   H     52.27000000    41.81000000    42.99000000
   H     50.82000000    41.31000000    43.72000000
   H     50.69000000    39.64000000    41.83000000
   H     52.15000000    40.36000000    41.08000000
   N     52.50000000    40.43000000    46.44000000
   C     52.91000000    41.14000000    47.64000000
   H     53.77600000    41.76200000    47.41500000
   H     52.09100000    41.77000000    47.98800000
   H     53.17200000    40.42100000    48.41700000
   H     51.72000000    39.80000000    46.59000000
  Ca     48.64000000    43.56000000    39.67000000
   O     49.25000000    46.00000000    40.51000000
   H     48.90000000    46.13000000    41.39000000
   H     49.44000000    46.88000000    40.19000000

Ca 1.00



