%chk=loop2.cluster12.chk
%nprocshared=20
%mem=10GB
%nosave
#b3lyp/svp scf=(tight,noincore,xqc) Test 
#IOP(5/87=12) Density=Current Pop=(MK,readradii) iop(6/33=2) iop(6/42=6)

loop2.cluster12 

   -2  1 
   C     50.72000000    43.78000000    16.80000000
   C     51.99000000    43.40000000    16.06000000
   O     52.93000000    44.20000000    16.03000000
   H     49.90300000    43.13800000    16.47100000
   H     50.87200000    43.65400000    17.87200000
   H     50.47200000    44.82000000    16.58700000
   N     52.21000000    42.21000000    15.49000000
   C     53.30000000    42.04000000    14.56000000
   C     53.30000000    42.95000000    13.34000000
   O     52.27000000    43.33000000    12.79000000
   C     53.29000000    40.60000000    14.06000000
   C     54.64000000    40.03000000    13.65000000
   O     55.66000000    40.75000000    13.54000000
   O     54.60000000    38.82000000    13.33000000
   H     51.62000000    41.42000000    15.72000000
   H     54.22000000    42.24000000    15.11000000
   H     52.68000000    40.73000000    13.16000000
   H     52.84000000    39.95000000    14.81000000
   N     54.46000000    43.30000000    12.79000000
   C     54.64000000    43.99000000    11.53000000
   C     55.59000000    43.34000000    10.53000000
   O     55.72000000    43.84000000     9.41000000
   C     54.99000000    45.44000000    11.83000000
   H     55.27000000    42.89000000    13.24000000
   H     53.65000000    43.92000000    11.07000000
   H     55.08000000    45.99000000    10.89000000
   H     54.19000000    45.88000000    12.41000000
   H     55.90000000    45.58000000    12.41000000
   N     56.16000000    42.19000000    10.88000000
   C     56.83000000    41.37000000     9.88000000
   C     56.28000000    39.97000000     9.68000000
   O     56.71000000    39.26000000     8.77000000
   C     58.32000000    41.25000000    10.18000000
   C     58.73000000    41.01000000    11.62000000
   O     58.61000000    39.85000000    12.07000000
   O     59.25000000    41.91000000    12.31000000
   H     55.95000000    41.80000000    11.79000000
   H     56.80000000    41.86000000     8.91000000
   H     58.80000000    42.20000000     9.90000000
   H     58.75000000    40.49000000     9.53000000
   N     55.23000000    39.56000000    10.39000000
   C     54.59000000    38.26000000    10.28000000
   C     55.35000000    37.10000000    10.92000000
   O     54.93000000    35.96000000    10.73000000
   H     54.82000000    40.20000000    11.05000000
   H     54.59000000    38.01000000     9.22000000
   H     53.57000000    38.31000000    10.65000000
   N     56.46000000    37.24000000    11.65000000
   C     57.10000000    36.13000000    12.32000000
   C     56.47000000    35.58000000    13.59000000
   O     57.03000000    34.63000000    14.13000000
   C     58.56000000    36.56000000    12.45000000
   C     58.75000000    37.18000000    13.83000000
   N     59.75000000    36.75000000    14.60000000
   O     58.03000000    38.08000000    14.27000000
   H     56.74000000    38.20000000    11.80000000
   H     57.05000000    35.28000000    11.64000000
   H     58.75000000    37.33000000    11.71000000
   H     59.21000000    35.69000000    12.47000000
   H     60.35000000    36.06000000    14.16000000
   H     59.64000000    37.01000000    15.57000000
   N     55.33000000    36.12000000    14.02000000
   C     54.73000000    35.76000000    15.29000000
   C     55.52000000    35.85000000    16.59000000
   O     55.13000000    35.22000000    17.57000000
   H     55.05000000    36.96000000    13.53000000
   H     54.39000000    34.73000000    15.23000000
   H     53.89000000    36.45000000    15.35000000
   N     56.48000000    36.78000000    16.69000000
   C     56.98000000    37.28000000    17.95000000
   C     57.28000000    38.77000000    18.05000000
   O     57.50000000    39.35000000    16.99000000
   C     58.24000000    36.61000000    18.50000000
   C     58.02000000    35.12000000    18.72000000
   O     59.30000000    36.72000000    17.57000000
   H     56.89000000    37.20000000    15.88000000
   H     56.21000000    37.00000000    18.67000000
   H     58.44000000    37.00000000    19.50000000
   H     60.01000000    36.10000000    17.75000000
   H     57.04000000    35.02000000    19.19000000
   H     58.05000000    34.47000000    17.84000000
   H     58.82000000    34.71000000    19.35000000
   N     56.92000000    39.37000000    19.19000000
   C     57.10000000    40.79000000    19.41000000
   C     58.55000000    41.10000000    19.77000000
   O     59.10000000    40.59000000    20.74000000
   C     56.14000000    41.36000000    20.44000000
   C     54.73000000    40.77000000    20.55000000
   C     56.04000000    42.87000000    20.26000000
   C     54.00000000    41.20000000    21.82000000
   H     56.43000000    38.79000000    19.85000000
   H     56.89000000    41.32000000    18.47000000
   H     56.67000000    41.23000000    21.38000000
   H     54.90000000    39.70000000    20.67000000
   H     54.04000000    40.92000000    19.72000000
   H     57.01000000    43.36000000    20.40000000
   H     55.55000000    43.13000000    19.33000000
   H     55.43000000    43.28000000    21.06000000
   H     53.09000000    40.60000000    21.78000000
   H     54.65000000    41.17000000    22.70000000
   H     53.61000000    42.21000000    21.68000000
   N     59.23000000    41.86000000    18.90000000
   C     60.53000000    42.48000000    18.96000000
   C     60.44000000    43.92000000    19.45000000
   O     59.41000000    44.59000000    19.41000000
   C     61.28000000    42.26000000    17.65000000
   C     60.71000000    42.81000000    16.35000000
   O     61.40000000    43.60000000    15.66000000
   O     59.60000000    42.33000000    16.00000000
   H     58.77000000    42.15000000    18.05000000
   H     61.09000000    41.92000000    19.71000000
   H     61.19000000    41.19000000    17.50000000
   H     62.32000000    42.53000000    17.81000000
   N     61.49000000    44.40000000    20.12000000
   C     61.42000000    45.66000000    20.83000000
   C     61.11000000    46.95000000    20.09000000
   O     60.60000000    47.82000000    20.79000000
   C     62.68000000    45.93000000    21.65000000
   C     62.62000000    47.04000000    22.67000000
   C     63.33000000    48.23000000    22.50000000
   C     61.76000000    46.93000000    23.77000000
   C     63.38000000    49.20000000    23.50000000
   C     61.83000000    47.93000000    24.75000000
   C     62.68000000    49.04000000    24.70000000
   H     62.36000000    43.90000000    20.21000000
   H     60.61000000    45.50000000    21.54000000
   H     63.46000000    46.21000000    20.93000000
   H     62.99000000    45.03000000    22.17000000
   H     63.80000000    48.51000000    21.56000000
   H     61.23000000    46.03000000    24.03000000
   H     64.08000000    50.03000000    23.50000000
   H     61.32000000    47.79000000    25.70000000
   H     62.69000000    49.73000000    25.53000000
   N     61.41000000    47.07000000    18.79000000
   C     61.03000000    48.28000000    18.09000000
   C     59.62000000    48.17000000    17.55000000
   O     58.90000000    49.16000000    17.42000000
   C     61.97000000    48.37000000    16.89000000
   C     63.15000000    47.49000000    17.30000000
   C     62.48000000    46.39000000    18.10000000
   H     61.04000000    49.09000000    18.82000000
   H     61.51000000    47.93000000    16.00000000
   H     62.26000000    49.40000000    16.68000000
   H     63.81000000    47.10000000    16.52000000
   H     63.82000000    48.01000000    17.99000000
   H     62.07000000    45.55000000    17.54000000
   H     63.15000000    45.87000000    18.78000000
   N     59.10000000    46.96000000    17.32000000
   C     57.69000000    46.68000000    17.12000000
   C     56.89000000    46.84000000    18.40000000
   O     55.77000000    47.34000000    18.38000000
   C     57.65000000    45.29000000    16.48000000
   C     56.35000000    44.51000000    16.32000000
   C     56.62000000    43.22000000    15.57000000
   O     57.09000000    43.20000000    14.41000000
   O     56.50000000    42.14000000    16.17000000
   H     59.66000000    46.12000000    17.38000000
   H     57.27000000    47.35000000    16.37000000
   H     58.30000000    44.72000000    17.15000000
   H     58.16000000    45.19000000    15.53000000
   H     55.67000000    45.15000000    15.76000000
   H     55.91000000    44.27000000    17.29000000
   N     57.50000000    46.72000000    19.58000000
   C     57.03000000    47.20000000    20.87000000
   H     56.00500000    46.86500000    21.03000000
   H     57.66900000    46.80500000    21.66000000
   H     57.06200000    48.28900000    20.88700000
   H     58.39000000    46.25000000    19.62000000
  Ca     58.07000000    40.72000000    14.66000000
   O     60.51000000    39.74000000    14.73000000
   H     60.67000000    38.87000000    14.38000000
   H     61.37000000    40.17000000    14.70000000

Ca 1.00



