%chk=loop2.cluster135.chk
%nprocshared=20
%mem=10GB
%nosave
#b3lyp/svp scf=(tight,noincore,xqc) Test 
#IOP(5/87=12) Density=Current Pop=(MK,readradii) iop(6/33=2) iop(6/42=6)

loop2.cluster135 

   -2  1 
   C     92.21000000    97.59000000    29.32000000
   C     92.09000000    98.90000000    30.09000000
   O     91.03000000    99.52000000    30.16000000
   H     93.23800000    97.23100000    29.37300000
   H     91.54400000    96.84700000    29.75900000
   H     91.93600000    97.75400000    28.27800000
   N     93.21000000    99.37000000    30.64000000
   C     93.43000000   100.65000000    31.29000000
   C     92.77000000   100.81000000    32.66000000
   O     92.98000000   101.82000000    33.32000000
   C     94.93000000   100.85000000    31.48000000
   C     95.34000000   102.29000000    31.22000000
   O     95.57000000   102.99000000    32.23000000
   O     95.68000000   102.64000000    30.07000000
   H     94.02000000    98.78000000    30.53000000
   H     92.96000000   101.39000000    30.65000000
   H     95.45000000   100.18000000    30.79000000
   H     95.31000000   100.50000000    32.44000000
   N     92.01000000    99.82000000    33.14000000
   C     91.27000000    99.87000000    34.38000000
   C     90.93000000    98.50000000    34.94000000
   O     90.82000000    97.45000000    34.31000000
   C     89.94000000   100.54000000    34.09000000
   H     92.07000000    98.93000000    32.66000000
   H     91.85000000   100.49000000    35.07000000
   H     89.34000000   100.61000000    35.00000000
   H     90.22000000   101.50000000    33.67000000
   H     89.39000000   100.00000000    33.31000000
   N     90.86000000    98.31000000    36.26000000
   C     90.69000000    99.29000000    37.32000000
   C     91.57000000    98.87000000    38.49000000
   O     92.01000000    97.72000000    38.59000000
   C     89.25000000    99.25000000    37.83000000
   C     88.92000000   100.49000000    38.66000000
   O     89.59000000   101.54000000    38.57000000
   O     87.95000000   100.39000000    39.44000000
   H     90.58000000    97.37000000    36.51000000
   H     90.88000000   100.27000000    36.89000000
   H     89.10000000    98.33000000    38.40000000
   H     88.63000000    99.24000000    36.93000000
   N     91.94000000    99.84000000    39.32000000
   C     92.86000000    99.56000000    40.41000000
   C     94.30000000    99.32000000    40.01000000
   O     94.89000000    99.93000000    39.12000000
   H     91.51000000   100.76000000    39.28000000
   H     92.52000000    98.77000000    41.08000000
   H     92.82000000   100.44000000    41.05000000
   N     94.95000000    98.38000000    40.70000000
   C     94.69000000    97.80000000    42.01000000
   C     94.06000000    96.42000000    41.92000000
   O     94.05000000    95.61000000    42.84000000
   C     96.01000000    97.80000000    42.77000000
   C     95.78000000    97.87000000    44.27000000
   N     96.86000000    97.92000000    45.06000000
   O     94.65000000    97.93000000    44.73000000
   H     95.89000000    98.27000000    40.37000000
   H     93.99000000    98.50000000    42.47000000
   H     96.64000000    98.60000000    42.38000000
   H     96.63000000    96.91000000    42.63000000
   H     97.82000000    97.80000000    44.77000000
   H     96.74000000    98.15000000    46.03000000
   N     93.52000000    96.08000000    40.75000000
   C     92.89000000    94.82000000    40.41000000
   C     91.43000000    94.80000000    40.86000000
   O     91.02000000    93.83000000    41.49000000
   H     93.72000000    96.75000000    40.02000000
   H     93.38000000    93.94000000    40.84000000
   H     93.01000000    94.63000000    39.35000000
   N     90.76000000    95.93000000    40.65000000
   C     89.59000000    96.36000000    41.40000000
   C     88.32000000    96.32000000    40.56000000
   O     87.67000000    97.31000000    40.22000000
   C     89.98000000    97.68000000    42.05000000
   C     88.91000000    98.19000000    43.02000000
   O     91.21000000    97.52000000    42.72000000
   H     91.23000000    96.67000000    40.14000000
   H     89.41000000    95.73000000    42.27000000
   H     90.04000000    98.47000000    41.31000000
   H     91.36000000    98.15000000    43.43000000
   H     89.03000000    99.21000000    43.36000000
   H     87.89000000    98.10000000    42.65000000
   H     88.99000000    97.78000000    44.03000000
   N     87.86000000    95.13000000    40.19000000
   C     86.72000000    94.90000000    39.31000000
   C     85.50000000    94.47000000    40.11000000
   O     85.67000000    93.96000000    41.21000000
   C     86.95000000    93.93000000    38.16000000
   C     87.98000000    94.57000000    37.23000000
   C     87.34000000    92.55000000    38.66000000
   C     89.48000000    94.40000000    37.42000000
   H     88.29000000    94.34000000    40.64000000
   H     86.44000000    95.79000000    38.74000000
   H     85.98000000    93.91000000    37.65000000
   H     87.87000000    95.65000000    37.12000000
   H     87.78000000    94.09000000    36.28000000
   H     87.54000000    91.80000000    37.89000000
   H     88.25000000    92.71000000    39.22000000
   H     86.49000000    92.23000000    39.28000000
   H     89.75000000    93.35000000    37.45000000
   H     90.08000000    94.84000000    36.63000000
   H     89.80000000    94.71000000    38.42000000
   N     84.30000000    94.75000000    39.60000000
   C     83.06000000    94.68000000    40.35000000
   C     81.93000000    94.05000000    39.57000000
   O     81.38000000    94.53000000    38.58000000
   C     82.66000000    96.09000000    40.80000000
   C     83.71000000    96.75000000    41.67000000
   O     83.68000000    96.61000000    42.91000000
   O     84.67000000    97.33000000    41.12000000
   H     84.32000000    95.26000000    38.73000000
   H     83.30000000    94.20000000    41.30000000
   H     81.71000000    96.01000000    41.33000000
   H     82.48000000    96.65000000    39.88000000
   N     81.56000000    92.81000000    39.90000000
   C     80.60000000    92.03000000    39.14000000
   C     81.00000000    91.97000000    37.67000000
   O     82.18000000    91.77000000    37.37000000
   C     80.52000000    90.65000000    39.77000000
   C     79.39000000    89.76000000    39.29000000
   C     79.54000000    88.88000000    38.22000000
   C     78.13000000    89.92000000    39.89000000
   C     78.45000000    88.08000000    37.84000000
   C     77.04000000    89.15000000    39.48000000
   C     77.21000000    88.17000000    38.49000000
   H     81.95000000    92.42000000    40.75000000
   H     79.62000000    92.50000000    39.23000000
   H     80.32000000    90.81000000    40.83000000
   H     81.43000000    90.05000000    39.70000000
   H     80.51000000    88.65000000    37.82000000
   H     78.03000000    90.58000000    40.74000000
   H     78.58000000    87.34000000    37.06000000
   H     76.11000000    89.21000000    40.03000000
   H     76.32000000    87.63000000    38.21000000
   N     80.03000000    92.17000000    36.78000000
   C     80.24000000    91.95000000    35.36000000
   C     81.33000000    92.72000000    34.63000000
   O     81.72000000    92.43000000    33.50000000
   C     78.90000000    92.29000000    34.71000000
   C     77.92000000    92.02000000    35.85000000
   C     78.67000000    92.59000000    37.05000000
   H     80.32000000    90.87000000    35.26000000
   H     78.86000000    93.34000000    34.43000000
   H     78.72000000    91.61000000    33.88000000
   H     76.98000000    92.55000000    35.68000000
   H     77.70000000    90.96000000    35.89000000
   H     78.63000000    93.68000000    37.14000000
   H     78.02000000    92.15000000    37.80000000
   N     82.06000000    93.60000000    35.32000000
   C     83.25000000    94.28000000    34.86000000
   C     84.39000000    93.29000000    34.61000000
   O     85.09000000    93.30000000    33.60000000
   C     83.47000000    95.39000000    35.88000000
   C     84.79000000    96.09000000    35.59000000
   C     85.16000000    97.03000000    36.73000000
   O     84.39000000    97.22000000    37.69000000
   O     86.30000000    97.55000000    36.85000000
   H     81.70000000    93.76000000    36.25000000
   H     82.97000000    94.71000000    33.90000000
   H     83.51000000    94.89000000    36.85000000
   H     82.64000000    96.10000000    35.85000000
   H     84.52000000    96.71000000    34.74000000
   H     85.63000000    95.44000000    35.35000000
   N     84.49000000    92.25000000    35.44000000
   C     85.44000000    91.16000000    35.28000000
   H     86.35700000    91.39500000    35.82100000
   H     85.01000000    90.24100000    35.67800000
   H     85.66700000    91.02700000    34.22200000
   H     83.76000000    92.15000000    36.12000000
  Ca     85.88000000    98.79000000    39.35000000
   O     85.52000000   100.69000000    37.51000000
   H     84.61000000   100.75000000    37.20000000
   H     85.98000000   101.39000000    37.03000000
   O     86.00000000   100.42000000    41.54000000
   H     85.51000000   100.45000000    42.36000000
   H     86.56000000   101.19000000    41.56000000

Ca 1.00



