%chk=loop4.cluster85.chk
%nprocshared=20
%mem=10GB
%nosave
#b3lyp/svp scf=(tight,noincore,xqc) Test 
#IOP(5/87=12) Density=Current Pop=(MK,readradii) iop(6/33=2) iop(6/42=6)

loop4.cluster85 

   -3  1 
   C     45.25000000    47.85000000    49.51000000
   C     45.90000000    47.39000000    50.81000000
   O     47.01000000    46.87000000    50.80000000
   H     44.35300000    48.42700000    49.73700000
   H     45.95000000    48.47300000    48.95300000
   H     44.98000000    46.98100000    48.91100000
   N     45.27000000    47.59000000    51.97000000
   C     45.76000000    47.22000000    53.27000000
   C     47.20000000    47.60000000    53.57000000
   O     47.93000000    46.75000000    54.07000000
   C     45.43000000    45.76000000    53.58000000
   C     45.97000000    44.79000000    52.53000000
   O     45.23000000    44.42000000    51.60000000
   O     47.06000000    44.19000000    52.60000000
   H     44.38000000    48.07000000    51.89000000
   H     45.19000000    47.72000000    54.05000000
   H     44.35000000    45.66000000    53.54000000
   H     45.82000000    45.53000000    54.58000000
   N     47.62000000    48.83000000    53.25000000
   C     48.80000000    49.54000000    53.69000000
   C     48.70000000    50.07000000    55.12000000
   O     49.64000000    49.93000000    55.89000000
   C     50.13000000    48.93000000    53.28000000
   C     51.25000000    49.97000000    53.15000000
   C     50.10000000    48.12000000    51.99000000
   C     52.64000000    49.36000000    53.10000000
   H     46.91000000    49.42000000    52.82000000
   H     48.82000000    50.45000000    53.09000000
   H     50.49000000    48.23000000    54.02000000
   H     51.21000000    50.52000000    54.09000000
   H     51.08000000    50.69000000    52.35000000
   H     50.14000000    48.76000000    51.11000000
   H     50.86000000    47.34000000    52.01000000
   H     49.19000000    47.53000000    51.93000000
   H     52.82000000    48.75000000    53.98000000
   H     52.77000000    48.74000000    52.21000000
   H     53.36000000    50.18000000    53.14000000
   N     47.51000000    50.49000000    55.57000000
   C     47.22000000    51.26000000    56.76000000
   C     46.08000000    50.74000000    57.63000000
   O     44.98000000    51.27000000    57.56000000
   C     47.11000000    52.72000000    56.32000000
   C     46.21000000    53.01000000    55.13000000
   O     46.14000000    54.19000000    54.73000000
   O     45.53000000    52.14000000    54.55000000
   H     46.72000000    50.51000000    54.94000000
   H     48.15000000    51.35000000    57.34000000
   H     48.10000000    53.06000000    56.04000000
   H     46.70000000    53.29000000    57.15000000
   N     46.29000000    49.67000000    58.41000000
   C     47.44000000    48.80000000    58.44000000
   C     47.50000000    47.75000000    57.34000000
   O     46.53000000    47.45000000    56.63000000
   H     45.46000000    49.44000000    58.95000000
   H     47.71000000    48.30000000    59.37000000
   H     48.27000000    49.50000000    58.38000000
   N     48.64000000    47.10000000    57.17000000
   C     49.95000000    47.39000000    57.72000000
   C     50.93000000    46.92000000    56.65000000
   O     50.76000000    45.84000000    56.09000000
   C     50.11000000    46.58000000    59.01000000
   C     51.51000000    46.89000000    59.53000000
   O     51.76000000    47.97000000    60.10000000
   O     52.43000000    46.07000000    59.35000000
   H     48.63000000    46.32000000    56.52000000
   H     50.03000000    48.45000000    57.97000000
   H     50.03000000    45.52000000    58.79000000
   H     49.26000000    46.91000000    59.62000000
   N     52.02000000    47.63000000    56.37000000
   C     52.53000000    48.91000000    56.84000000
   C     54.03000000    48.96000000    57.08000000
   O     54.59000000    50.05000000    57.09000000
   H     52.38000000    47.33000000    55.48000000
   H     52.07000000    49.23000000    57.78000000
   H     52.31000000    49.63000000    56.06000000
   N     54.77000000    47.85000000    57.20000000
   C     56.17000000    47.77000000    57.58000000
   C     57.11000000    47.82000000    56.38000000
   O     58.32000000    47.76000000    56.57000000
   C     56.43000000    46.59000000    58.51000000
   C     56.52000000    45.28000000    57.72000000
   C     56.58000000    44.11000000    58.69000000
   N     56.43000000    42.87000000    58.21000000
   O     56.94000000    44.29000000    59.85000000
   H     54.26000000    46.98000000    57.22000000
   H     56.29000000    48.67000000    58.17000000
   H     55.61000000    46.49000000    59.22000000
   H     57.35000000    46.75000000    59.08000000
   H     57.46000000    45.18000000    57.19000000
   H     55.63000000    45.09000000    57.13000000
   H     56.08000000    42.75000000    57.27000000
   H     56.53000000    42.20000000    58.95000000
   N     56.56000000    48.02000000    55.18000000
   C     57.26000000    48.18000000    53.92000000
   C     57.52000000    46.81000000    53.32000000
   O     56.60000000    46.00000000    53.25000000
   C     56.42000000    48.95000000    52.91000000
   C     57.00000000    48.97000000    51.50000000
   C     56.28000000    50.41000000    53.33000000
   H     55.55000000    47.97000000    55.22000000
   H     58.21000000    48.71000000    53.94000000
   H     55.40000000    48.58000000    52.86000000
   H     56.33000000    49.54000000    50.85000000
   H     58.01000000    49.37000000    51.40000000
   H     57.06000000    48.04000000    50.93000000
   H     55.85000000    50.46000000    54.33000000
   H     57.27000000    50.85000000    53.39000000
   H     55.57000000    50.89000000    52.65000000
   N     58.77000000    46.55000000    52.91000000
   C     59.30000000    45.37000000    52.28000000
   C     58.66000000    45.13000000    50.92000000
   O     58.76000000    46.03000000    50.08000000
   C     59.16000000    44.22000000    53.27000000
   C     59.84000000    44.30000000    54.63000000
   N     59.60000000    43.36000000    55.54000000
   O     60.52000000    45.28000000    54.93000000
   H     59.48000000    47.18000000    53.26000000
   H     60.35000000    45.62000000    52.14000000
   H     59.56000000    43.30000000    52.86000000
   H     58.10000000    44.00000000    53.44000000
   H     59.11000000    42.50000000    55.34000000
   H     59.90000000    43.63000000    56.47000000
   N     58.00000000    43.99000000    50.71000000
   C     57.63000000    43.47000000    49.41000000
   C     56.15000000    43.28000000    49.13000000
   O     55.23000000    43.35000000    49.94000000
   C     58.52000000    42.25000000    49.17000000
   C     60.01000000    42.52000000    49.15000000
   C     60.72000000    42.36000000    50.35000000
   C     60.60000000    43.10000000    48.02000000
   C     62.11000000    42.54000000    50.39000000
   C     61.97000000    43.33000000    48.12000000
   C     62.75000000    43.12000000    49.27000000
   O     64.12000000    43.15000000    49.24000000
   H     58.10000000    43.27000000    51.41000000
   H     57.93000000    44.28000000    48.75000000
   H     58.31000000    42.01000000    48.12000000
   H     58.39000000    41.43000000    49.88000000
   H     60.21000000    41.98000000    51.22000000
   H     60.10000000    43.30000000    47.08000000
   H     62.71000000    42.21000000    51.22000000
   H     62.42000000    43.74000000    47.22000000
   H     64.38000000    43.37000000    48.35000000
   N     55.86000000    43.07000000    47.85000000
   C     54.60000000    42.92000000    47.16000000
   C     53.48000000    43.91000000    47.45000000
   O     52.32000000    43.58000000    47.23000000
   C     54.15000000    41.46000000    47.22000000
   C     55.04000000    40.47000000    46.48000000
   C     55.15000000    40.59000000    44.97000000
   O     56.28000000    40.45000000    44.45000000
   O     54.15000000    40.59000000    44.21000000
   H     56.71000000    43.06000000    47.30000000
   H     54.83000000    43.11000000    46.12000000
   H     53.13000000    41.42000000    46.83000000
   H     54.21000000    41.16000000    48.27000000
   H     54.86000000    39.42000000    46.71000000
   H     56.01000000    40.68000000    46.92000000
   N     53.82000000    45.13000000    47.88000000
   C     52.96000000    46.29000000    48.01000000
   C     53.10000000    47.40000000    46.98000000
   O     52.13000000    47.98000000    46.51000000
   C     53.05000000    46.92000000    49.40000000
   C     52.98000000    45.88000000    50.51000000
   C     51.71000000    45.04000000    50.63000000
   O     51.77000000    43.89000000    51.11000000
   O     50.62000000    45.37000000    50.13000000
   H     54.78000000    45.31000000    48.14000000
   H     51.92000000    45.95000000    47.94000000
   H     52.23000000    47.62000000    49.54000000
   H     54.04000000    47.34000000    49.55000000
   H     53.20000000    46.35000000    51.47000000
   H     53.82000000    45.19000000    50.43000000
   N     54.34000000    47.59000000    46.51000000
   C     54.81000000    48.61000000    45.60000000
   H     55.81900000    48.36400000    45.26900000
   H     54.14700000    48.66000000    44.73600000
   H     54.82000000    49.57400000    46.10800000
   H     55.09000000    47.12000000    47.00000000
  Ca     49.09000000    43.69000000    51.19000000
   O     49.81000000    41.96000000    52.91000000
   H     49.73000000    41.02000000    53.01000000
   H     50.47000000    42.22000000    53.55000000
   O     47.03000000    44.04000000    49.48000000
   H     46.48000000    44.06000000    48.69000000
   H     46.42000000    44.20000000    50.20000000
   O     49.68000000    44.95000000    53.41000000
   H     50.35000000    44.97000000    54.09000000
   H     49.09000000    45.67000000    53.63000000
   O     47.89000000    41.08000000    50.63000000
   H     47.07000000    40.82000000    51.05000000
   H     48.05000000    40.40000000    49.98000000
   O     49.58000000    42.73000000    48.53000000
   H     49.53000000    41.96000000    47.96000000
   H     50.29000000    43.25000000    48.17000000

Ca 1.00



