%chk=loop2.cluster40.chk
%nprocshared=20
%mem=10GB
%nosave
#b3lyp/svp scf=(tight,noincore,xqc) Test 
#IOP(5/87=12) Density=Current Pop=(MK,readradii) iop(6/33=2) iop(6/42=6)

loop2.cluster40 

   -2  1 
   C     57.63000000    48.56000000    15.90000000
   C     58.86000000    48.31000000    15.04000000
   O     59.68000000    49.22000000    14.91000000
   H     56.78400000    48.00500000    15.49300000
   H     57.82500000    48.22800000    16.92000000
   H     57.39800000    49.62500000    15.90200000
   N     59.03000000    47.15000000    14.40000000
   C     60.27000000    46.72000000    13.80000000
   C     60.62000000    47.55000000    12.57000000
   O     59.86000000    47.60000000    11.60000000
   C     60.28000000    45.21000000    13.58000000
   C     61.66000000    44.73000000    13.16000000
   O     62.68000000    45.44000000    13.36000000
   O     61.72000000    43.54000000    12.80000000
   H     58.31000000    46.46000000    14.58000000
   H     61.01000000    47.01000000    14.54000000
   H     59.58000000    44.83000000    12.83000000
   H     60.00000000    44.79000000    14.55000000
   N     61.79000000    48.18000000    12.53000000
   C     62.21000000    48.99000000    11.41000000
   C     63.03000000    48.30000000    10.33000000
   O     62.77000000    48.48000000     9.14000000
   C     62.90000000    50.25000000    11.93000000
   H     62.53000000    47.92000000    13.17000000
   H     61.33000000    49.31000000    10.85000000
   H     63.71000000    50.04000000    12.63000000
   H     63.39000000    50.78000000    11.11000000
   H     62.09000000    50.79000000    12.43000000
   N     64.00000000    47.45000000    10.66000000
   C     64.77000000    46.71000000     9.67000000
   C     64.19000000    45.35000000     9.31000000
   O     64.48000000    44.79000000     8.26000000
   C     66.23000000    46.58000000    10.11000000
   C     66.48000000    45.92000000    11.46000000
   O     65.51000000    45.63000000    12.20000000
   O     67.65000000    45.83000000    11.87000000
   H     64.31000000    47.37000000    11.62000000
   H     64.85000000    47.29000000     8.76000000
   H     66.70000000    47.56000000    10.13000000
   H     66.80000000    46.09000000     9.32000000
   N     63.30000000    44.81000000    10.15000000
   C     62.55000000    43.59000000     9.93000000
   C     63.33000000    42.34000000    10.28000000
   O     63.52000000    41.43000000     9.47000000
   H     63.16000000    45.29000000    11.03000000
   H     62.30000000    43.54000000     8.87000000
   H     61.64000000    43.72000000    10.51000000
   N     63.80000000    42.28000000    11.53000000
   C     64.63000000    41.29000000    12.19000000
   C     63.96000000    40.61000000    13.38000000
   O     64.50000000    39.65000000    13.92000000
   C     66.04000000    41.82000000    12.39000000
   C     66.18000000    42.31000000    13.82000000
   N     67.09000000    41.64000000    14.54000000
   O     65.39000000    43.03000000    14.41000000
   H     63.60000000    43.10000000    12.08000000
   H     64.84000000    40.51000000    11.46000000
   H     66.29000000    42.67000000    11.76000000
   H     66.76000000    41.00000000    12.26000000
   H     67.74000000    40.93000000    14.22000000
   H     67.06000000    41.89000000    15.52000000
   N     62.75000000    41.03000000    13.75000000
   C     61.89000000    40.38000000    14.72000000
   C     62.25000000    40.63000000    16.17000000
   O     61.64000000    40.05000000    17.07000000
   H     62.37000000    41.83000000    13.26000000
   H     61.81000000    39.31000000    14.56000000
   H     60.89000000    40.82000000    14.65000000
   N     63.26000000    41.43000000    16.53000000
   C     63.65000000    41.99000000    17.81000000
   C     63.50000000    43.50000000    17.74000000
   O     63.46000000    44.09000000    16.66000000
   C     65.08000000    41.67000000    18.22000000
   C     65.43000000    40.22000000    18.53000000
   O     66.08000000    41.94000000    17.27000000
   H     63.83000000    41.73000000    15.75000000
   H     62.93000000    41.65000000    18.56000000
   H     65.25000000    42.28000000    19.11000000
   H     66.84000000    41.38000000    17.45000000
   H     64.49000000    39.81000000    18.90000000
   H     65.82000000    39.63000000    17.70000000
   H     66.11000000    40.24000000    19.38000000
   N     63.62000000    44.12000000    18.92000000
   C     63.59000000    45.54000000    19.21000000
   C     65.03000000    45.99000000    19.43000000
   O     65.78000000    45.34000000    20.15000000
   C     62.67000000    45.95000000    20.36000000
   C     61.24000000    45.48000000    20.14000000
   C     62.62000000    47.48000000    20.35000000
   C     60.50000000    45.26000000    21.46000000
   H     63.69000000    43.49000000    19.71000000
   H     63.27000000    46.03000000    18.30000000
   H     63.10000000    45.55000000    21.28000000
   H     61.36000000    44.55000000    19.58000000
   H     60.67000000    46.12000000    19.47000000
   H     63.60000000    47.91000000    20.57000000
   H     62.23000000    47.80000000    19.38000000
   H     61.98000000    47.97000000    21.07000000
   H     60.56000000    46.08000000    22.17000000
   H     59.43000000    45.10000000    21.31000000
   H     60.91000000    44.35000000    21.89000000
   N     65.44000000    47.05000000    18.72000000
   C     66.68000000    47.75000000    18.99000000
   C     66.40000000    49.13000000    19.58000000
   O     65.24000000    49.52000000    19.50000000
   C     67.55000000    47.85000000    17.74000000
   C     66.87000000    48.40000000    16.49000000
   O     66.77000000    49.63000000    16.31000000
   O     66.50000000    47.62000000    15.58000000
   H     64.69000000    47.54000000    18.26000000
   H     67.22000000    47.16000000    19.73000000
   H     68.01000000    46.91000000    17.43000000
   H     68.39000000    48.52000000    17.90000000
   N     67.34000000    49.89000000    20.14000000
   C     66.94000000    51.02000000    20.96000000
   C     66.18000000    52.13000000    20.26000000
   O     65.24000000    52.64000000    20.88000000
   C     68.13000000    51.56000000    21.75000000
   C     67.88000000    52.59000000    22.83000000
   C     68.36000000    53.90000000    22.66000000
   C     67.26000000    52.19000000    24.01000000
   C     68.11000000    54.87000000    23.64000000
   C     67.05000000    53.15000000    25.01000000
   C     67.47000000    54.48000000    24.83000000
   H     68.32000000    49.64000000    20.01000000
   H     66.26000000    50.67000000    21.73000000
   H     68.96000000    51.85000000    21.11000000
   H     68.68000000    50.82000000    22.33000000
   H     68.78000000    54.17000000    21.71000000
   H     66.95000000    51.17000000    24.20000000
   H     68.19000000    55.93000000    23.47000000
   H     66.61000000    52.79000000    25.93000000
   H     67.27000000    55.19000000    25.61000000
   N     66.52000000    52.48000000    19.02000000
   C     65.77000000    53.38000000    18.17000000
   C     64.30000000    53.09000000    17.96000000
   O     63.47000000    53.98000000    18.10000000
   C     66.44000000    53.35000000    16.80000000
   C     67.91000000    53.10000000    17.13000000
   C     67.85000000    52.34000000    18.45000000
   H     65.92000000    54.42000000    18.49000000
   H     66.06000000    52.53000000    16.19000000
   H     66.34000000    54.26000000    16.21000000
   H     68.37000000    52.44000000    16.40000000
   H     68.31000000    54.09000000    17.35000000
   H     68.13000000    51.31000000    18.26000000
   H     68.65000000    52.74000000    19.08000000
   N     64.02000000    51.78000000    17.93000000
   C     62.68000000    51.21000000    17.92000000
   C     61.93000000    51.24000000    19.24000000
   O     60.78000000    51.68000000    19.25000000
   C     62.77000000    49.82000000    17.30000000
   C     63.25000000    49.73000000    15.85000000
   C     63.44000000    48.28000000    15.43000000
   O     63.92000000    48.03000000    14.31000000
   O     63.43000000    47.31000000    16.22000000
   H     64.81000000    51.16000000    17.97000000
   H     62.17000000    51.82000000    17.18000000
   H     61.76000000    49.43000000    17.41000000
   H     63.44000000    49.26000000    17.96000000
   H     64.20000000    50.26000000    15.84000000
   H     62.48000000    50.35000000    15.38000000
   N     62.61000000    50.93000000    20.35000000
   C     62.19000000    51.09000000    21.73000000
   H     61.15900000    50.75300000    21.83700000
   H     62.83500000    50.49600000    22.37800000
   H     62.25900000    52.14100000    22.01200000
   H     63.58000000    50.67000000    20.30000000
  Ca     64.87000000    45.73000000    14.74000000
   O     67.77000000    45.47000000    14.57000000
   H     67.84000000    45.67000000    13.63000000
   H     67.69000000    46.33000000    14.99000000
   O     66.39000000    44.67000000    16.81000000
   H     66.22000000    43.76000000    17.07000000
   H     67.34000000    44.69000000    16.64000000

Ca 1.00



