%chk=loop2.cluster223.chk
%nprocshared=48
%mem=10GB
%nosave
#b3lyp/svp scf=(tight,noincore) Test 
#IOP(5/87=12) Density=Current Pop=(MK,readradii) iop(6/33=2) iop(6/42=6)

loop2.cluster223 

   -2  1 
C         63.66169       56.28791       12.76070
C         62.38806       56.67651       13.43047
O         62.43293       57.28959       14.48560
H         64.50896       56.38933       13.47103
H         63.59507       55.22795       12.43822
H         63.83063       56.93952       11.87958
N         61.19640       56.34661       12.86253
C         59.92222       56.64206       13.49510
C         59.76010       55.77906       14.73683
O         59.31317       54.64544       14.63057
C         58.79253       56.39838       12.48562
C         57.44481       56.73709       13.01677
O         56.48949       56.62244       12.29258
O         57.26584       57.16807       14.26861
H         61.20217       55.85066       11.95718
H         59.88896       57.72051       13.75673
H         58.78751       55.33445       12.16147
H         58.96659       57.03638       11.59137
N         60.18759       56.23572       15.94579
C         60.16580       55.40681       17.14543
C         58.76146       55.20304       17.70960
O         58.61713       54.46132       18.67235
C         61.08639       56.03430       18.19550
H         60.61217       57.17229       15.99741
H         60.60039       54.41416       16.89080
H         62.10123       56.16150       17.75578
H         60.70772       57.03287       18.50045
H         61.17733       55.37927       19.08601
N         57.67931       55.83268       17.16500
C         56.31715       55.65700       17.65381
C         55.62036       54.49233       16.94354
O         54.54576       54.09206       17.36897
C         55.51598       56.96223       17.40572
C         56.23848       58.18218       17.93146
O         56.68529       59.17856       17.12072
O         56.45324       58.26874       19.12925
H         57.82278       56.47711       16.38672
H         56.35520       55.45104       18.74897
H         54.52222       56.88801       17.90507
H         55.34666       57.08928       16.31687
N         56.16669       53.93278       15.81994
C         55.54871       52.86126       15.05241
C         54.22767       53.30794       14.48447
O         53.21878       52.65293       14.70369
H         57.04780       54.30571       15.45497
H         55.44140       51.94829       15.67556
H         56.21993       52.62118       14.19808
N         54.17092       54.46355       13.76988
C         52.92631       55.09143       13.34058
C         52.84125       55.29312       11.82668
O         51.74105       55.36870       11.29759
C         52.88324       56.46336       14.05030
C         51.65018       57.26809       13.75493
N         50.42373       56.78974       14.05337
O         51.76072       58.37440       13.25665
H         55.05133       54.97882       13.62804
H         52.04860       54.48920       13.66261
H         53.78162       57.05303       13.74901
H         52.93984       56.30730       15.14887
H         50.31423       55.86583       14.49313
H         49.58578       57.35109       13.84349
N         53.96623       55.45743       11.08235
C         53.97391       55.89199        9.69897
C         53.90566       57.40636        9.55780
O         53.43191       57.87960        8.53561
H         54.87074       55.29963       11.51680
H         53.24735       55.33760        9.06704
H         54.97561       55.63535        9.29204
N         54.41132       58.22983       10.52823
C         54.49669       59.68138       10.39788
C         55.90557       60.13675       10.72528
O         56.39754       59.86513       11.81325
C         53.47167       60.37865       11.32303
C         53.60894       61.90771       11.26293
O         52.16751       60.06378       10.90754
H         54.74158       57.81963       11.40618
H         54.24509       59.99915        9.36362
H         53.62190       60.07042       12.38164
H         52.05081       59.08494       10.99324
H         54.59730       62.24501       11.64265
H         53.48704       62.26343       10.21704
H         52.82668       62.38037       11.89271
N         56.57512       60.91907        9.83805
C         57.87771       61.49630       10.11332
C         57.67180       62.89754       10.65842
O         57.28854       63.79524        9.92025
C         58.72256       61.45420        8.80499
C         59.08778       60.00199        8.39955
C         59.96481       62.35012        8.83240
C         60.19785       59.35596        9.23834
H         56.09309       61.20303        8.97280
H         58.40299       60.92053       10.90572
H         58.08242       61.86452        7.99208
H         59.44334       60.01610        7.34750
H         58.17976       59.36160        8.43467
H         59.68250       63.42090        8.90494
H         60.60742       62.09808        9.69106
H         60.53457       62.21936        7.88874
H         59.91441       59.27389       10.30597
H         60.40500       58.33842        8.84685
H         61.14210       59.93473        9.14978
N         57.90240       63.13989       11.98186
C         57.90789       64.47313       12.56601
C         59.19680       65.17003       12.15620
O         60.00577       64.56355       11.46767
C         57.78698       64.35815       14.10496
C         56.47423       63.72944       14.50332
O         56.45807       62.54238       15.13769
O         55.42057       64.29721       14.26039
H         58.14523       62.34942       12.58979
H         57.03586       65.05797       12.19344
H         57.84694       65.35404       14.59171
H         58.62335       63.73318       14.48752
N         59.44774       66.46034       12.50073
C         60.61417       67.19204       12.00951
C         61.97168       66.59112       12.40963
O         62.77121       66.39221       11.51447
C         60.50856       68.68017       12.35068
C         61.68176       69.46193       11.80983
C         61.99468       69.44480       10.43517
C         62.47925       70.21051       12.68680
C         63.09068       70.16606        9.95611
C         63.56663       70.93838       12.20044
C         63.87306       70.91612       10.83719
H         58.74168       66.96360       13.06393
H         60.57188       67.13947       10.89768
H         60.42093       68.80889       13.44739
H         59.57500       69.07514       11.89486
H         61.40004       68.87038        9.73629
H         62.25455       70.23195       13.74571
H         63.33228       70.14434        8.90097
H         64.17178       71.51933       12.88261
H         64.71707       71.47997       10.46400
N         62.32594       66.28071       13.69809
C         63.58293       65.60189       13.99237
C         63.73076       64.26500       13.27282
O         64.84631       63.92246       12.89582
C         63.63416       65.51458       15.52459
C         62.23310       65.89104       16.00946
C         61.56906       66.64706       14.86392
H         64.43000       66.24279       13.65799
H         63.96285       64.52869       15.92730
H         64.34646       66.28975       15.87878
H         61.67401       64.94147       16.12611
H         62.21319       66.43266       16.98383
H         60.49741       66.36007       14.81778
H         61.67658       67.74385       14.99657
N         62.65126       63.48289       12.99191
C         62.74378       62.23995       12.21640
C         63.07032       62.51600       10.74199
O         63.64764       61.66278       10.08513
C         61.42926       61.42067       12.36958
C         61.25005       61.02240       13.84958
C         59.95711       60.40358       14.31359
O         58.85297       60.27940       13.55407
O         59.88447       60.06218       15.48195
H         61.72912       63.78786       13.33896
H         63.57211       61.62315       12.63704
H         61.47966       60.49521       11.75639
H         60.57785       62.03814       12.02371
H         61.35662       61.91906       14.49234
H         62.07198       60.32071       14.10425
N         62.73517       63.70539       10.16973
C         63.05331       64.06269        8.80254
H         64.14458       63.98464        8.62361
H         62.50611       63.41798        8.08955
H         62.74727       65.11826        8.61783
H         62.22937       64.38543       10.72490
Ca        57.10733       59.67542       14.91028
O         54.26467       59.75609       15.02391
H         53.48461       59.34831       15.47536
H         54.04658       60.71976       14.95972

Ca 1.70



