%chk=loop2.cluster157.chk
%nprocshared=48
%mem=10GB
%nosave
#b3lyp/svp scf=(tight,noincore) Test 
#IOP(5/87=12) Density=Current Pop=(MK,readradii) iop(6/33=2) iop(6/42=6)

loop2.cluster157 

   -2  1 
C         61.11008       28.24726       11.02548
C         61.12342       29.03736        9.74768
O         60.33657       28.75280        8.86658
H         61.79900       28.68261       11.77929
H         60.08818       28.18716       11.44944
H         61.46807       27.21726       10.80118
N         62.05499       30.00796        9.55375
C         62.31390       30.63855        8.25471
C         62.68381       29.58492        7.21371
O         62.21122       29.67343        6.08773
C         63.46615       31.64766        8.43031
C         64.01819       32.17998        7.13791
O         63.30174       32.78128        6.35512
O         65.31827       31.98472        6.84159
H         62.67749       30.23765       10.34289
H         61.41796       31.19504        7.89208
H         64.30205       31.14945        8.96591
H         63.10061       32.49098        9.05688
N         63.46697       28.51476        7.55518
C         63.81143       27.40676        6.65699
C         62.60943       26.56220        6.18777
O         62.81812       25.55932        5.51970
C         64.67945       27.91105        5.49750
H         63.83126       28.46678        8.51814
H         64.45070       26.70860        7.24147
H         64.12215       28.59387        4.82555
H         65.55611       28.45749        5.91158
H         65.06403       27.05605        4.90242
N         61.32896       26.89715        6.52746
C         60.12680       26.13399        6.22433
C         59.85307       25.97912        4.73598
O         58.95269       25.23469        4.37188
C         60.08187       24.81315        7.03716
C         58.77305       24.67915        7.79550
O         58.79287       24.63343        9.01565
O         57.58382       24.78475        7.17298
H         61.17232       27.73566        7.06284
H         59.28719       26.75362        6.60761
H         60.85973       24.86425        7.83166
H         60.32008       23.93808        6.40085
N         60.53292       26.73100        3.82061
C         60.21486       26.70845        2.40579
C         60.58181       28.04102        1.79341
O         61.75256       28.39356        1.76060
H         61.20627       27.43617        4.15129
H         59.12197       26.55076        2.27666
H         60.73300       25.86258        1.90278
N         59.59915       28.84773        1.30712
C         59.83704       30.17625        0.74069
C         60.23958       31.19983        1.81967
O         60.69564       30.79323        2.88022
C         58.60906       30.55696       -0.12987
C         57.29731       30.72111        0.59798
N         56.14376       30.80352       -0.10204
O         57.26401       30.75728        1.81388
H         58.63233       28.48749        1.32110
H         60.67137       30.10990        0.00919
H         58.47906       29.71892       -0.85016
H         58.80546       31.46594       -0.73326
H         56.15048       30.73239       -1.12976
H         55.24268       30.90429        0.38863
N         60.10321       32.54988        1.61347
C         60.53060       33.55962        2.58515
C         59.97030       33.34652        3.97742
O         60.69529       33.57887        4.93589
H         59.69589       32.88688        0.73211
H         60.29798       34.58204        2.22134
H         61.63806       33.48981        2.67359
N         58.78088       32.70607        4.16232
C         58.58603       31.87365        5.34480
C         57.78941       32.53447        6.45101
O         56.77375       33.16326        6.18281
C         57.98603       30.50131        4.92638
C         58.39991       29.38738        5.87960
O         56.58366       30.54450        4.84257
H         58.22451       32.48854        3.32436
H         59.59629       31.62168        5.74121
H         58.41906       30.17684        3.95671
H         56.34855       31.13857        4.08664
H         59.50747       29.29293        5.88858
H         58.06033       29.59474        6.90245
H         57.97339       28.42382        5.53293
N         58.12722       32.28143        7.74684
C         57.29439       32.64484        8.89146
C         56.38916       31.45449        9.19235
O         56.62413       30.39074        8.63669
C         58.24854       33.03814       10.06199
C         59.03116       34.32255        9.67329
C         57.52594       33.20502       11.40748
C         60.18740       34.65072       10.61811
H         58.92298       31.64585        7.91857
H         56.62111       33.49188        8.62654
H         58.97401       32.20209       10.19048
H         58.33176       35.18593        9.62106
H         59.48732       34.19563        8.66769
H         58.24853       33.41294       12.22127
H         56.77997       34.02433       11.35868
H         57.02560       32.25853       11.69647
H         59.83489       34.85572       11.64740
H         60.91333       33.80950       10.63290
H         60.71132       35.55947       10.25285
N         55.25807       31.56774        9.95132
C         54.31986       30.44663       10.06323
C         52.91825       30.95965       10.43498
O         52.45205       31.89494        9.79344
C         54.94427       29.30404       10.94375
C         54.31914       27.90791       10.85414
O         54.80187       26.95867       10.01930
O         53.54980       27.53807       11.72198
H         55.00434       32.49419       10.33637
H         54.18553       30.04781        9.03463
H         54.96252       29.65478       11.99242
H         56.01305       29.16848       10.69549
N         52.15382       30.34725       11.37916
C         50.73029       30.59636       11.56889
C         50.08928       29.24822       11.93733
O         49.62371       28.61061       10.99948
C         50.49756       31.89487       12.37269
C         49.07927       32.21105       12.79033
C         47.99399       32.09577       11.90354
C         48.84539       32.65840       14.10504
C         46.69700       32.39718       12.34156
C         47.55482       32.96873       14.53074
C         46.47944       32.83293       13.65292
H         52.54271       29.54314       11.85437
H         50.30003       30.80126       10.55761
H         50.85889       32.73684       11.74294
H         51.14398       31.88427       13.26857
H         48.14443       31.76086       10.88609
H         49.66980       32.77218       14.79901
H         45.85867       32.29368       11.66533
H         47.39124       33.31413       15.54364
H         45.47830       33.06886       13.98948
N         50.11577       28.65113       13.18442
C         50.23587       29.35921       14.45243
C         51.60147       29.77545       14.93992
O         51.65408       30.51335       15.91483
C         49.67612       28.34743       15.47014
C         48.75572       27.47780       14.62682
C         49.59637       27.31522       13.37860
H         49.53573       30.20769       14.40998
H         50.50018       27.67363       15.80565
H         49.21483       28.80475       16.37119
H         48.47214       26.51687       15.10599
H         47.84250       28.05404       14.36171
H         50.46294       26.65028       13.60448
H         49.03825       26.88014       12.52303
N         52.74387       29.23534       14.42733
C         54.06384       29.52183       14.99210
C         54.65571       30.82096       14.43443
O         55.82443       30.83926       14.07015
C         55.01940       28.31119       14.77486
C         54.62030       27.02115       15.51474
C         54.83438       27.12106       17.00395
O         55.67071       26.41538       17.54583
O         54.10434       27.97113       17.74930
H         52.64912       28.48373       13.73506
H         53.96465       29.68263       16.08136
H         56.05627       28.55874       15.08888
H         55.05546       28.08623       13.69086
H         55.27985       26.20923       15.13366
H         53.57138       26.73070       15.29215
N         53.92419       31.97339       14.41698
C         54.46506       33.25352       14.01933
H         55.49543       33.18125       13.61893
H         53.80932       33.71620       13.25186
H         54.47628       33.90874       14.91532
H         52.95231       31.97193       14.72710
Ca        55.99135       25.81645        8.43571
O         53.27981       24.62926        9.77534
H         52.49637       25.22075        9.90529
H         52.90539       23.79578        9.39621
O         57.85629       27.71530        8.54575
H         57.01386       28.04399        8.93960
H         58.34345       27.33064        9.31405
O         56.81071       24.88967       11.47058
H         57.13687       24.00561       11.77502
H         56.43923       25.31274       12.28514
O         54.61767       23.62991        7.18486
H         54.86289       22.75232        6.79985
H         53.83940       23.93296        6.65350
O         54.08407       26.92304        6.84610
H         54.25954       26.52361        5.95765
H         54.58694       27.77630        6.84277

Ca 1.70



