%chk=loop2.cluster142.chk
%nprocshared=48
%mem=10GB
%nosave
#b3lyp/svp scf=(tight,noincore) Test 
#IOP(5/87=12) Density=Current Pop=(MK,readradii) iop(6/33=2) iop(6/42=6)

loop2.cluster142 

   -2  1 
C         83.80869      105.05164       -9.29172
C         83.80009      106.48315       -8.82524
O         84.49746      106.80919       -7.87600
H         83.07986      104.89312      -10.11602
H         84.81641      104.76243       -9.65375
H         83.51435      104.38770       -8.45130
N         82.98865      107.38845       -9.43870
C         82.82685      108.77122       -8.99392
C         81.70695      109.41240       -9.78962
O         80.71235      109.81366       -9.20283
C         84.11764      109.61267       -9.16621
C         83.86379      111.07210       -8.86540
O         83.45750      111.45379       -7.63958
O         83.98919      111.90843       -9.74696
H         82.41536      107.05833      -10.23028
H         82.53303      108.76845       -7.91879
H         84.47574      109.52648      -10.21435
H         84.92764      109.24720       -8.50218
N         81.82083      109.54786      -11.14497
C         80.82859      110.21701      -11.97658
C         79.46019      109.53980      -11.93902
O         78.47304      110.16573      -12.30076
C         80.79017      111.71627      -11.64406
H         82.66309      109.17990      -11.61061
H         81.17045      110.16084      -13.03225
H         81.81382      112.13868      -11.75800
H         80.12733      112.25156      -12.35606
H         80.44276      111.90979      -10.60970
N         79.34151      108.23391      -11.54990
C         78.09414      107.47265      -11.56671
C         76.96502      108.14806      -10.80623
O         75.80711      107.96844      -11.16182
C         77.71660      107.06715      -13.00712
C         78.85498      106.31117      -13.62939
O         79.39920      106.73358      -14.63620
O         79.30234      105.18173      -13.05260
H         80.18595      107.72125      -11.26086
H         78.28869      106.51940      -11.02751
H         77.47764      107.96314      -13.61978
H         76.82554      106.40033      -12.99624
N         77.23236      108.91743       -9.71265
C         76.18360      109.56309       -8.94501
C         75.26051      108.55912       -8.29112
O         75.66825      107.43498       -8.03938
H         78.20867      109.07243       -9.42770
H         75.60556      110.24357       -9.60734
H         76.64053      110.18924       -8.14795
N         73.99278      108.93308       -7.95440
C         73.02050      108.06740       -7.29026
C         73.56082      107.53154       -5.97173
O         73.57719      106.32755       -5.76243
C         72.53278      106.92534       -8.20673
C         71.90530      107.40268       -9.48972
N         72.37314      106.97017      -10.68384
O         70.94546      108.15834       -9.45136
H         73.69681      109.89654       -8.17143
H         72.12793      108.68688       -7.05209
H         71.74613      106.36583       -7.66101
H         73.37521      106.23715       -8.42303
H         73.16731      106.31516      -10.73161
H         71.92745      107.27818      -11.56048
N         73.99963      108.38628       -5.01253
C         74.48551      107.92776       -3.72136
C         75.92686      107.45243       -3.72225
O         76.54100      107.50061       -2.66615
H         73.92049      109.40115       -5.17520
H         73.80743      107.17076       -3.26658
H         74.46029      108.80310       -3.03877
N         76.52886      106.94327       -4.84008
C         77.91187      106.48555       -4.83653
C         77.95997      104.98784       -4.97855
O         77.12514      104.40327       -5.65533
C         78.74424      107.08544       -6.00038
C         78.71921      108.60360       -6.05636
O         80.08957      106.69767       -5.85646
H         75.99415      106.82829       -5.70313
H         78.41263      106.76641       -3.88457
H         78.33021      106.72431       -6.97554
H         80.25865      105.95303       -6.48379
H         79.12824      109.02722       -5.11663
H         79.35584      108.93605       -6.90606
H         77.68791      108.97124       -6.22457
N         79.01732      104.32195       -4.44877
C         79.27491      102.91458       -4.72390
C         79.48787      102.73337       -6.21749
O         79.98800      103.63242       -6.87075
C         80.44290      102.37406       -3.86961
C         81.78837      103.08044       -4.19464
C         80.04756      102.49443       -2.38195
C         82.94434      102.60000       -3.32494
H         79.68144      104.85606       -3.87529
H         78.36952      102.33580       -4.43051
H         80.54716      101.28955       -4.09794
H         81.71701      104.17888       -4.06245
H         82.04920      102.88655       -5.25744
H         80.00320      103.55512       -2.05767
H         79.04694      102.03954       -2.21186
H         80.76165      101.95297       -1.73313
H         83.87786      103.10952       -3.64184
H         82.76534      102.86468       -2.26197
H         83.07158      101.50272       -3.42317
N         78.92105      101.67116       -6.84113
C         78.59559      101.74047       -8.25893
C         77.34611      100.93766       -8.50595
O         77.29029       99.77314       -8.14335
C         79.69608      101.24234       -9.20489
C         79.16997      101.43976      -10.63804
O         79.92253      100.77584      -11.60269
O         79.10653      102.79339      -10.99607
H         78.46128      100.96033       -6.25649
H         78.38628      102.80224       -8.52462
H         79.86619      100.15953       -9.02359
H         80.65177      101.79013       -9.06168
N         76.31972      101.49977       -9.19450
C         75.16005      100.72785       -9.57784
C         73.96015      101.65789       -9.64350
O         73.41706      101.86902      -10.71262
C         75.48950       99.98665      -10.88663
C         74.36769       99.10782      -11.35420
C         73.74737       99.35203      -12.59024
C         73.94330       98.02771      -10.56525
C         72.71539       98.52135      -13.03038
C         72.91432       97.19796      -11.01095
C         72.30150       97.44276      -12.24322
H         76.42749      102.45558       -9.56841
H         74.93672       99.95613       -8.81733
H         76.38416       99.34435      -10.72891
H         75.75266      100.71674      -11.66605
H         74.06283      100.18434      -13.20891
H         74.41578       97.82567       -9.61201
H         72.23965       98.71215      -13.98318
H         72.59603       96.36301      -10.40174
H         71.50735       96.79576      -12.58853
N         73.50079      102.26787       -8.50554
C         74.07975      102.11200       -7.18583
C         73.82444      100.75734       -6.56798
O         72.70977      100.25122       -6.62791
C         73.41964      103.22155       -6.38425
C         72.06805      103.38545       -7.04975
C         72.39445      103.20336       -8.53322
H         75.16824      102.33167       -7.15898
H         73.41117      103.06503       -5.28267
H         74.00155      104.13731       -6.60549
H         71.43732      102.53026       -6.72840
H         71.53553      104.32152       -6.79235
H         71.49775      102.81721       -9.06154
H         72.75191      104.13284       -9.01999
N         74.83898      100.13206       -5.91278
C         74.67230       98.89367       -5.17459
C         75.38288       99.01794       -3.83759
O         76.57126       99.31779       -3.81334
C         75.20056       97.71489       -6.01085
C         75.03355       96.36545       -5.28795
C         73.59319       96.06434       -4.96996
O         72.77617       95.94703       -5.86934
O         73.19862       95.93301       -3.68882
H         75.76804      100.58467       -5.89432
H         73.59290       98.70020       -4.99547
H         76.27293       97.86977       -6.25573
H         74.63389       97.68120       -6.96934
H         75.62522       96.38247       -4.34779
H         75.43412       95.55113       -5.92706
N         74.71272       98.76704       -2.67918
C         75.31878       98.90394       -1.37066
H         76.30048       99.42302       -1.40705
H         74.64244       99.49956       -0.72259
H         75.45351       97.89980       -0.91774
H         73.73728       98.43839       -2.72472
Ca        79.82803      102.46364      -13.12133
O         78.49658      100.56325      -15.21178
H         78.39423      100.69442      -16.18763
H         78.65363       99.59153      -15.10615
O         81.34182      100.26428      -14.00334
H         81.96089      100.16651      -13.23686
H         80.99524       99.35195      -14.16495
O         78.50491      103.75427      -15.69270
H         78.98471      104.58362      -15.93511
H         77.56774      104.04733      -15.57836
O         76.80687      102.58288      -13.39179
H         76.32154      102.57179      -12.53353
H         76.29452      103.23470      -13.92827

Ca 1.70



