%chk=loop2.cluster20.chk
%nprocshared=48
%mem=10GB
%nosave
#b3lyp/svp scf=(tight,noincore) Test 
#IOP(5/87=12) Density=Current Pop=(MK,readradii) iop(6/33=2) iop(6/42=6)

loop2.cluster20 

   -2  1 
C         39.55978       70.91429       23.79633
C         39.82310       70.76786       25.26711
O         40.62031       71.51995       25.80857
H         38.71658       71.62194       23.64974
H         40.45515       71.31387       23.27439
H         39.28941       69.93650       23.34454
N         39.15140       69.82673       25.99166
C         39.29453       69.69299       27.44050
C         40.72809       69.38780       27.87960
O         41.07348       69.70377       29.00940
C         38.30901       68.63669       27.97503
C         38.25775       68.60486       29.47662
O         37.87912       69.70137       30.16206
O         38.53949       67.58175       30.07874
H         38.47813       69.21915       25.49918
H         38.99201       70.65619       27.88072
H         38.59100       67.63924       27.57228
H         37.28475       68.87969       27.61544
N         41.61384       68.77855       27.03314
C         43.00919       68.48413       27.36970
C         43.79280       69.76622       27.62733
O         44.40690       69.91851       28.67526
C         43.09465       67.46511       28.51830
H         41.28974       68.50408       26.09491
H         43.47148       68.00212       26.48101
H         42.53113       66.54811       28.24247
H         44.15278       67.18108       28.69922
H         42.67341       67.86494       29.46356
N         43.76159       70.75972       26.69306
C         44.35864       72.08335       26.86509
C         43.90861       72.75291       28.14971
O         44.66608       73.50652       28.74731
C         45.88897       72.09432       26.68491
C         46.28130       71.62583       25.31746
O         47.42435       70.95187       25.13158
O         45.64957       71.99692       24.34143
H         43.20187       70.60319       25.84098
H         43.94925       72.71939       26.04740
H         46.42940       71.53085       27.47581
H         46.22266       73.15262       26.74715
N         42.64723       72.54028       28.61022
C         42.12008       73.16474       29.80473
C         42.09791       74.65876       29.64768
O         41.73929       75.13483       28.58307
H         42.02526       71.90955       28.08885
H         42.70245       72.86045       30.70138
H         41.07970       72.80641       29.94145
N         42.48532       75.46225       30.67917
C         42.55968       76.92140       30.60710
C         41.21126       77.56339       30.32041
O         41.14345       78.53369       29.57743
C         43.63695       77.32585       29.58473
C         44.98867       76.74632       29.93383
N         45.95825       76.74139       29.00676
O         45.20500       76.26404       31.03562
H         42.76504       75.01714       31.56617
H         42.87264       77.29158       31.60775
H         43.73227       78.42903       29.49000
H         43.33376       76.94667       28.58480
H         45.74284       77.09546       28.07845
H         46.88913       76.34859       29.20290
N         40.08587       77.08333       30.91651
C         38.76871       77.65832       30.68865
C         38.14617       77.24612       29.36535
O         36.96562       77.50636       29.17576
H         40.15966       76.28019       31.55918
H         38.78977       78.76268       30.81600
H         38.09747       77.25122       31.47517
N         38.86144       76.57991       28.41196
C         38.26709       75.99461       27.22197
C         38.73097       76.70616       25.97598
O         39.91971       76.96920       25.83070
C         38.72727       74.52588       27.02796
C         38.73387       73.67014       28.27650
O         37.88438       73.89591       26.09457
H         39.86117       76.44413       28.54200
H         37.15654       76.00100       27.29997
H         39.79434       74.52487       26.68451
H         38.32985       73.90718       25.21818
H         39.22965       72.72489       28.00000
H         39.34192       74.12562       29.07755
H         37.70632       73.47454       28.63642
N         37.85793       76.88217       24.95373
C         38.29170       77.24925       23.60874
C         39.13163       76.15188       22.96497
O         39.30383       75.09430       23.54641
C         37.08527       77.61170       22.69671
C         35.89064       76.60785       22.68113
C         36.57651       79.00460       23.08369
C         36.24693       75.16180       22.33491
H         36.87214       76.65353       25.12649
H         38.96038       78.13722       23.67799
H         37.46446       77.70940       21.65812
H         35.16610       76.97047       21.92368
H         35.34652       76.59842       23.64956
H         37.41653       79.73441       23.07057
H         35.82411       79.34984       22.34605
H         36.12978       78.99806       24.10004
H         36.82859       74.68698       23.15156
H         35.31049       74.57425       22.22235
H         36.81609       75.11250       21.38446
N         39.74406       76.37181       21.76781
C         40.63775       75.39586       21.15936
C         42.05438       75.85239       21.44298
O         42.86159       76.03804       20.54111
C         40.25055       75.21122       19.68129
C         41.10716       74.23863       18.91933
O         41.19124       74.33354       17.70502
O         41.66937       73.18578       19.54300
H         39.65327       77.29402       21.31945
H         40.54229       74.40485       21.65608
H         40.28983       76.18897       19.17893
H         39.19637       74.86487       19.61671
N         42.40711       76.04163       22.74334
C         43.72814       76.39524       23.21357
C         44.30199       77.69906       22.63242
O         45.46756       77.66930       22.27675
C         43.71773       76.45013       24.76694
C         45.07446       76.80502       25.31474
C         45.32479       78.11463       25.75578
C         46.10247       75.84908       25.36178
C         46.59428       78.47173       26.21831
C         47.36526       76.20188       25.85091
C         47.61350       77.51407       26.27118
H         41.68423       75.88718       23.46209
H         44.42515       75.57382       22.93903
H         43.38681       75.47681       25.20102
H         42.97456       77.20341       25.10401
H         44.54011       78.85731       25.73014
H         45.92030       74.83425       25.03168
H         46.77881       79.48266       26.55531
H         48.15165       75.45975       25.90326
H         48.58946       77.78628       26.64959
N         43.62804       78.90166       22.60354
C         42.24311       79.13126       22.94076
C         41.41103       79.44789       21.67748
O         40.24861       79.79138       21.81167
C         42.37839       80.41952       23.75946
C         43.37618       81.22431       22.90765
C         44.36817       80.14818       22.44347
H         41.75405       78.31722       23.50722
H         41.42855       80.95355       23.97817
H         42.86589       80.16178       24.72389
H         42.82962       81.61547       22.02272
H         43.85193       82.08535       23.42617
H         44.75467       80.31654       21.41379
H         45.21458       80.14109       23.16158
N         41.98881       79.45280       20.43130
C         41.35313       80.10449       19.28821
C         40.43046       79.16485       18.54764
O         40.88522       78.14902       18.04479
C         42.45438       80.68027       18.37079
C         41.89495       81.52044       17.21756
C         43.01180       82.22798       16.50721
O         43.40922       81.82509       15.42643
O         43.57035       83.32302       17.05981
H         42.97896       79.19971       20.33675
H         40.78783       80.98930       19.65438
H         43.08694       79.86080       17.95629
H         43.10205       81.32939       19.00013
H         41.18598       82.28991       17.59319
H         41.34936       80.85329       16.51634
N         39.11268       79.47943       18.39799
C         38.18757       78.61402       17.69747
H         37.20395       79.12222       17.59847
H         38.56535       78.38328       16.67885
H         38.04221       77.67171       18.26741
H         38.75817       80.36985       18.77665
Ca        48.07267       70.87038       22.98413
O         47.10332       73.57029       22.52214
H         46.24505       74.04873       22.40615
H         47.79790       74.27132       22.46500
O         50.57176       69.98331       23.60860
H         51.30422       70.62299       23.42886
H         50.87186       69.13262       23.20392
O         46.14590       71.44618       20.72623
H         45.84260       72.33990       20.42695
H         45.31345       70.91911       20.81980
O         49.85866       71.92471       20.80800
H         50.14021       71.61481       19.91087
H         50.27522       72.81694       20.90841
O         49.78618       72.86349       24.31143
H         49.88413       72.51956       25.23471
H         50.71062       72.90222       23.95964
O         48.91501       69.00065       21.18652
H         48.36939       68.23911       20.87058
H         49.76800       68.93764       20.68989
O         46.20340       68.81482       23.02556
H         45.55286       68.33342       22.45736
H         46.38131       68.20780       23.78686

Ca 1.70



