%chk=loop2.cluster155.chk
%nprocshared=48
%mem=10GB
%nosave
#b3lyp/svp scf=(tight,noincore) Test 
#IOP(5/87=12) Density=Current Pop=(MK,readradii) iop(6/33=2) iop(6/42=6)

loop2.cluster155 

   -2  1 
C         63.79632       62.60162       13.60428
C         62.59644       63.02161       14.37367
O         62.73397       63.57787       15.45485
H         64.71410       62.79475       14.19601
H         63.71315       61.51327       13.40293
H         63.83818       63.15791       12.64567
N         61.35975       62.76476       13.87755
C         60.16933       63.09155       14.62749
C         60.13576       62.27818       15.91311
O         60.01768       61.06326       15.85258
C         58.93681       62.86248       13.75811
C         57.71091       63.14111       14.53300
O         56.84315       62.30944       14.55364
O         57.59374       64.25031       15.28296
H         61.27143       62.31388       12.95283
H         60.20158       64.16963       14.86116
H         58.90441       61.81190       13.38306
H         58.96868       63.53917       12.88045
N         60.30682       62.89712       17.11721
C         60.39563       62.15016       18.36720
C         59.04304       61.64797       18.86569
O         59.02196       60.88808       19.82594
C         61.10099       63.00115       19.43018
H         60.49053       63.90841       17.12914
H         61.05485       61.27235       18.19074
H         62.10472       63.29736       19.05055
H         60.52473       63.92274       19.65764
H         61.25035       62.41775       20.36294
N         57.87271       62.01276       18.26238
C         56.57601       61.45333       18.64167
C         56.27537       60.19223       17.83460
O         55.40900       59.42571       18.22817
C         55.46602       62.48465       18.33548
C         55.65894       63.76530       19.10017
O         56.04897       64.90110       18.48132
O         55.49690       63.77426       20.30919
H         57.90076       62.66463       17.46547
H         56.56650       61.20691       19.72862
H         54.45640       62.07735       18.56690
H         55.50287       62.69465       17.25069
N         56.88642       59.97931       16.63120
C         56.53119       58.90261       15.71927
C         55.09306       59.02747       15.27566
O         54.38043       58.03339       15.24844
H         57.58629       60.65027       16.29899
H         56.73969       57.90749       16.16644
H         57.16417       59.01194       14.81140
N         54.58531       60.25992       14.98978
C         53.19718       60.52534       14.69035
C         53.00896       61.33463       13.38922
O         51.88806       61.38049       12.90236
C         52.65100       61.24978       15.93292
C         51.16223       61.35295       15.98076
N         50.40894       60.23098       16.03185
O         50.62983       62.45122       16.01832
H         55.17676       61.06523       15.14383
H         52.67191       59.55477       14.55879
H         53.12713       62.24967       16.00397
H         52.95473       60.67713       16.83949
H         50.85507       59.30107       16.02910
H         49.38398       60.29360       16.09469
N         54.05877       61.95716       12.74839
C         53.95461       62.53606       11.40963
C         54.29558       64.01770       11.26326
O         54.19510       64.50703       10.14729
H         54.98576       61.95449       13.17336
H         52.93314       62.39547       10.99899
H         54.65491       61.97526       10.75490
N         54.66185       64.80627       12.31889
C         54.82432       66.26140       12.19868
C         56.18537       66.74855       12.68465
O         56.55254       66.50284       13.82354
C         53.68424       66.95142       12.97580
C         53.81800       68.47810       12.96110
O         52.45727       66.61268       12.37954
H         54.74242       64.38402       13.24687
H         54.70831       66.58484       11.14059
H         53.69445       66.63495       14.04521
H         52.11558       65.80508       12.84386
H         52.92825       68.93700       13.43921
H         54.71540       68.79583       13.53441
H         53.90451       68.85387       11.91906
N         56.95378       67.51845       11.85883
C         58.23855       68.09296       12.24374
C         58.07577       69.39683       13.01826
O         57.44151       70.32318       12.53470
C         59.11646       68.31467       10.97228
C         59.49766       66.97617       10.28438
C         60.38369       69.13479       11.26268
C         60.34433       66.01620       11.13473
H         56.60644       67.71529       10.90803
H         58.79166       67.38242       12.88422
H         58.53770       68.91473       10.23500
H         60.07910       67.21860        9.36886
H         58.57847       66.44275        9.96394
H         60.97129       68.68371       12.07919
H         61.01739       69.20355       10.35720
H         60.11290       70.17384       11.54163
H         59.77787       65.63585       12.00762
H         60.63082       65.14018       10.51719
H         61.27821       66.49909       11.48681
N         58.78528       69.56386       14.17180
C         58.93346       70.83108       14.87756
C         60.32124       71.37678       14.55326
O         61.03501       70.75963       13.78697
C         58.78794       70.60893       16.39797
C         57.57749       69.79014       16.75013
O         57.52255       68.52583       16.26860
O         56.74581       70.20433       17.54391
H         59.35820       68.78604       14.50399
H         58.17431       71.56566       14.53383
H         58.80766       71.58074       16.93919
H         59.65663       70.01017       16.75485
N         60.75368       72.55534       15.07145
C         62.02482       73.16636       14.67550
C         63.28683       72.35921       15.00984
O         64.11618       72.22622       14.11671
C         62.09021       74.60790       15.20035
C         63.27840       75.41114       14.71001
C         63.75997       75.30978       13.38475
C         63.89637       76.31242       15.59008
C         64.85513       76.07119       12.97339
C         64.97662       77.08827       15.16375
C         65.46168       76.96087       13.86036
H         60.12783       73.07341       15.70302
H         61.98059       73.25245       13.56984
H         62.04929       74.61106       16.31021
H         61.17668       75.12374       14.83533
H         63.31145       74.64021       12.66663
H         63.52687       76.42698       16.60140
H         65.23047       75.97282       11.96257
H         65.43683       77.78972       15.84580
H         66.30434       77.55569       13.53548
N         63.53923       71.78188       16.22923
C         64.71989       70.96496       16.47596
C         64.70020       69.71324       15.60978
O         65.73290       69.34254       15.07190
C         64.65687       70.70816       17.98847
C         63.17783       70.78062       18.31566
C         62.66030       71.87476       17.37828
H         65.67486       71.50353       16.27941
H         65.19028       69.80075       18.34951
H         65.11391       71.59270       18.48488
H         62.73428       69.81065       18.00998
H         62.93453       70.94611       19.38800
H         61.60304       71.63443       17.16248
H         62.76065       72.89117       17.81011
N         63.53061       69.06245       15.37010
C         63.43340       67.90417       14.48230
C         63.77782       68.29375       13.04001
O         64.21115       67.44449       12.27386
C         62.00650       67.31672       14.55208
C         61.59248       66.94506       15.99789
C         60.16170       66.51457       16.14243
O         59.42007       66.45022       15.17695
O         59.68296       66.22622       17.36639
H         62.67552       69.43500       15.79692
H         64.14094       67.12251       14.83546
H         61.92534       66.42029       13.89942
H         61.32102       68.08769       14.17397
H         61.68589       67.81411       16.67438
H         62.26022       66.14487       16.37545
N         63.60342       69.57601       12.61052
C         63.92933       70.03231       11.27755
H         65.01020       69.89086       11.07664
H         63.32736       69.49352       10.52038
H         63.69969       71.11999       11.19559
H         63.22187       70.26256       13.25738
Ca        56.68634       66.58017       17.08087
O         54.29127       67.47583       17.21747
H         53.47620       67.40997       16.66583
H         54.31283       68.39645       17.57801
O         57.54775       67.26774       19.59314
H         58.51606       67.08992       19.68906
H         57.49111       68.22375       19.34323
O         54.73726       64.67570       15.69898
H         55.06970       63.81216       15.35482
H         53.86165       64.44725       16.09312

Ca 1.70



