%chk=loop2.cluster121.chk
%nprocshared=48
%mem=10GB
%nosave
#b3lyp/svp scf=(tight,noincore) Test 
#IOP(5/87=12) Density=Current Pop=(MK,readradii) iop(6/33=2) iop(6/42=6)

loop2.cluster121 

   -2  1 
C         63.63270       62.68308       13.56682
C         62.47719       62.99565       14.46099
O         62.61924       63.80103       15.37018
H         64.47610       62.29010       14.16590
H         63.34975       61.93073       12.79954
H         63.93709       63.61355       13.04220
N         61.26771       62.43130       14.21887
C         60.07944       62.83399       14.93788
C         60.06378       62.40245       16.40051
O         60.27111       61.23243       16.69234
C         58.84085       62.26497       14.25001
C         57.65038       63.00840       14.73376
O         56.57907       62.47660       14.70791
O         57.71927       64.31742       15.01603
H         61.16867       61.79090       13.41525
H         60.02783       63.94198       14.84611
H         58.75875       61.17023       14.45852
H         58.86939       62.40276       13.15216
N         59.74560       63.30619       17.36721
C         59.61240       62.96581       18.77831
C         58.33202       62.18850       19.08132
O         58.28220       61.50451       20.09298
C         59.59714       64.25212       19.61266
H         59.58021       64.27318       17.08220
H         60.51084       62.38649       19.08400
H         60.49443       64.86175       19.37103
H         58.69092       64.85663       19.38588
H         59.61199       64.01867       20.69767
N         57.23798       62.29582       18.26883
C         55.95689       61.64639       18.54485
C         55.77275       60.39501       17.68712
O         54.77782       59.70489       17.86655
C         54.80990       62.63603       18.21109
C         54.81152       63.90694       19.02911
O         55.16054       65.09328       18.48410
O         54.46380       63.87113       20.19652
H         57.30904       62.86347       17.41774
H         55.89738       61.33100       19.60977
H         53.81434       62.15566       18.34107
H         54.90102       62.88800       17.13717
N         56.66536       60.06036       16.70616
C         56.47468       58.92658       15.81157
C         55.16169       58.99366       15.05183
O         54.58317       57.94901       14.78520
H         57.49648       60.64431       16.55063
H         56.53263       57.97396       16.38239
H         57.30327       58.91558       15.07001
N         54.59099       60.19767       14.74715
C         53.28203       60.34836       14.14517
C         53.26179       61.16911       12.83672
O         52.21863       61.18366       12.20048
C         52.38173       60.97904       15.22312
C         50.93880       60.99085       14.82537
N         50.28395       59.82544       14.61950
O         50.35319       62.05439       14.69314
H         55.04099       61.04039       15.07183
H         52.89380       59.34182       13.88425
H         52.74403       62.00927       15.44024
H         52.46620       60.39078       16.16501
H         50.76763       58.92391       14.74944
H         49.29383       59.82582       14.34005
N         54.35304       61.85177       12.35516
C         54.37188       62.44383       11.01322
C         54.47988       63.96000       10.91150
O         54.50738       64.44282        9.78659
H         55.21836       61.88306       12.89793
H         53.45801       62.17024       10.44803
H         55.23243       61.99992       10.46750
N         54.53854       64.78210       11.99982
C         54.59584       66.24411       11.88056
C         55.92488       66.74756       12.37154
O         56.31654       66.44176       13.49075
C         53.48685       66.96301       12.68317
C         53.47048       68.47212       12.35846
O         52.22907       66.42951       12.36911
H         54.55805       64.36148       12.93065
H         54.45989       66.54774       10.81832
H         53.68788       66.85775       13.77491
H         52.03990       65.72882       13.04665
H         52.72797       68.99966       12.99090
H         54.45831       68.94897       12.53744
H         53.20347       68.63195       11.29026
N         56.63718       67.60584       11.60113
C         57.90672       68.15957       12.01688
C         57.69473       69.49540       12.72145
O         57.15942       70.42283       12.13197
C         58.84459       68.21846       10.78413
C         59.09773       66.80254       10.18956
C         60.16712       68.92007       11.10441
C         59.84250       65.83162       11.11692
H         56.24248       67.91176       10.69711
H         58.38958       67.48879       12.75038
H         58.35033       68.82044        9.98813
H         59.69637       66.91937        9.26149
H         58.13289       66.33299        9.89598
H         60.65703       68.44935       11.97453
H         60.84706       68.86555       10.22955
H         59.98936       69.99105       11.33438
H         59.24141       65.57889       12.01423
H         60.04473       64.88708       10.57118
H         60.81818       66.25185       11.43355
N         58.16239       69.65241       13.99635
C         58.18645       70.92062       14.72120
C         59.58469       71.49449       14.57089
O         60.37703       70.89683       13.87759
C         57.87208       70.66109       16.20817
C         56.54887       69.98057       16.39466
O         56.50355       68.74630       16.93143
O         55.51473       70.53792       16.06443
H         58.67158       68.87157       14.42455
H         57.46060       71.64503       14.29146
H         57.87568       71.61060       16.78568
H         58.66192       69.99932       16.62798
N         59.95661       72.67036       15.14693
C         61.28513       73.23780       14.89328
C         62.44136       72.38190       15.41821
O         63.37910       72.17725       14.65269
C         61.36029       74.71487       15.33628
C         62.62609       75.42689       14.88205
C         63.02226       75.41438       13.52655
C         63.40239       76.14499       15.80882
C         64.17514       76.09123       13.11881
C         64.54561       76.83613       15.38894
C         64.93329       76.80508       14.04719
H         59.27332       73.20156       15.70318
H         61.39071       73.27654       13.78983
H         61.22683       74.80342       16.43377
H         60.51014       75.24131       14.85134
H         62.44797       74.88317       12.78113
H         63.11241       76.18680       16.85062
H         64.47627       76.06793       12.07875
H         65.12982       77.40069       16.10380
H         65.81867       77.33868       13.72504
N         62.48129       71.82524       16.67458
C         63.58036       70.99020       17.14645
C         63.90223       69.84912       16.19466
O         65.05747       69.57739       15.91640
C         63.02833       70.40308       18.45946
C         62.09950       71.49828       18.94070
C         61.41154       71.93227       17.64753
H         64.47168       71.62617       17.34220
H         62.37134       69.52702       18.25016
H         63.80934       70.07786       19.18026
H         61.40804       71.20335       19.75991
H         62.73662       72.34006       19.29052
H         60.60555       71.22011       17.36507
H         61.01147       72.95488       17.77729
N         62.87000       69.14012       15.67439
C         63.01343       67.98328       14.79667
C         63.61443       68.43913       13.47497
O         64.62173       67.89306       13.04654
C         61.61480       67.33210       14.64589
C         61.05269       66.93036       16.04120
C         59.59041       66.63506       16.04168
O         58.96725       66.56100       14.99951
O         58.94000       66.54235       17.21722
H         61.92176       69.46113       15.90909
H         63.66559       67.21576       15.26843
H         61.64445       66.44021       13.98087
H         60.93454       68.08296       14.19598
H         61.12720       67.76463       16.75807
H         61.62927       66.08995       16.48178
N         63.06284       69.48947       12.80877
C         63.61003       70.08952       11.61210
H         64.58806       69.65622       11.32691
H         62.89126       69.97121       10.77707
H         63.74459       71.18018       11.78911
H         62.22659       69.91556       13.19439
Ca        56.50686       65.16160       16.69538
O         54.09900       67.32769       16.38167
H         53.32280       66.72664       16.50185
H         53.69696       68.21082       16.18918
O         54.29344       64.67133       15.24614
H         54.68418       63.78278       15.07820
H         53.45013       64.47049       15.71429

Ca 1.70



