%chk=loop2.cluster25.chk
%nprocshared=48
%mem=10GB
%nosave
#b3lyp/svp scf=(tight,noincore) Test 
#IOP(5/87=12) Density=Current Pop=(MK,readradii) iop(6/33=2) iop(6/42=6)

loop2.cluster25 

   -2  1 
C         51.00556       44.20043       16.37713
C         52.21149       43.84940       15.55645
O         53.01140       44.71803       15.23947
H         50.11470       43.69607       15.94346
H         51.13382       43.84415       17.42141
H         50.82200       45.29381       16.36588
N         52.37224       42.56812       15.13878
C         53.47451       42.11871       14.29824
C         53.52003       42.86373       12.96628
O         52.50251       42.95251       12.29417
C         53.33154       40.60512       14.09291
C         54.46939       40.02674       13.32646
O         55.73177       40.15438       13.77815
O         54.24751       39.40832       12.30271
H         51.65874       41.87831       15.42445
H         54.41551       42.28609       14.83687
H         52.37451       40.38769       13.56916
H         53.31203       40.10746       15.08674
N         54.69536       43.41435       12.52848
C         54.82152       44.20142       11.30211
C         55.77078       43.58828       10.27210
O         55.83290       44.09701        9.16073
C         55.35450       45.58292       11.68086
H         55.53529       43.28603       13.10156
H         53.82579       44.30954       10.81921
H         55.41300       46.24505       10.79206
H         54.69631       46.05031       12.44191
H         56.37504       45.47852       12.11537
N         56.54628       42.50720       10.57110
C         57.43725       41.85419        9.61363
C         56.97717       40.42217        9.34223
O         57.64289       39.72267        8.59033
C         58.90207       41.89979       10.11977
C         59.06471       41.46642       11.54336
O         58.67722       40.37287       11.89453
O         59.64128       42.28889       12.43977
H         56.49558       42.10010       11.51346
H         57.43117       42.36632        8.62512
H         59.29155       42.93663       10.04674
H         59.53689       41.25690        9.47102
N         55.80733       39.94002        9.86067
C         55.29777       38.61501        9.54671
C         55.99165       37.47466       10.27189
O         55.65929       36.33231        9.99067
H         55.20338       40.56022       10.41268
H         55.34429       38.46743        8.44610
H         54.22705       38.56329        9.83599
N         56.94082       37.69103       11.23129
C         57.65123       36.58930       11.88605
C         56.89051       36.02217       13.08782
O         57.25486       34.96596       13.58452
C         59.09439       37.02584       12.23612
C         59.27224       37.80718       13.55232
N         59.52102       36.90437       14.66613
O         58.16342       38.62047       13.83146
H         57.19276       38.65234       11.46770
H         57.76888       35.79357       11.11797
H         59.48033       37.64778       11.40119
H         59.75469       36.13364       12.27828
H         60.32937       36.28208       14.43061
H         59.88961       37.51265       15.41955
N         55.82077       36.68894       13.60757
C         55.02408       36.21317       14.72318
C         55.71725       36.26479       16.07228
O         55.36265       35.47221       16.93076
H         55.53133       37.57010       13.17682
H         54.62031       35.20042       14.50961
H         54.14120       36.88494       14.81908
N         56.57398       37.28338       16.38901
C         57.00091       37.54384       17.77263
C         57.26781       39.00496       17.98257
O         57.75306       39.67479       17.08274
C         58.24856       36.78224       18.27952
C         58.09537       35.26774       18.18003
O         59.40205       37.24547       17.62428
H         56.74330       37.99852       15.67170
H         56.14657       37.29209       18.43748
H         58.36252       37.03444       19.35923
H         60.09790       36.53864       17.62621
H         57.17920       34.95097       18.71842
H         58.05063       34.95703       17.11631
H         58.96782       34.78145       18.66509
N         56.99816       39.56358       19.19035
C         57.21152       40.97496       19.40616
C         58.70476       41.20094       19.59976
O         59.26384       40.78124       20.60502
C         56.35019       41.55200       20.56769
C         54.88471       41.02480       20.50794
C         56.34161       43.09217       20.45896
C         53.98198       41.56625       21.61291
H         56.60632       38.97644       19.93635
H         56.83943       41.49357       18.49577
H         56.80645       41.23692       21.53161
H         54.85757       39.92329       20.62170
H         54.43852       41.27375       19.52064
H         57.35499       43.50101       20.30623
H         55.71535       43.40880       19.59314
H         55.93257       43.55278       21.37922
H         53.88119       42.66717       21.54762
H         52.96746       41.13047       21.49567
H         54.38273       41.28218       22.60865
N         59.40358       41.86741       18.64732
C         60.78206       42.31552       18.81136
C         60.76423       43.64017       19.54934
O         59.69119       44.15618       19.79043
C         61.56900       42.26676       17.45705
C         60.89771       42.83959       16.21081
O         61.49424       43.66035       15.53423
O         59.65660       42.46380       15.81985
H         58.85391       42.23851       17.87664
H         61.32111       41.63466       19.51033
H         61.77610       41.20198       17.23915
H         62.55865       42.76413       17.59507
N         61.89638       44.17758       20.07248
C         61.91325       45.35732       20.94880
C         61.41457       46.63810       20.25188
O         60.47181       47.22187       20.75419
C         63.31904       45.49827       21.54872
C         63.50386       46.66507       22.48036
C         64.40841       47.67924       22.13298
C         62.81883       46.73873       23.70711
C         64.63021       48.75213       22.99437
C         63.05112       47.81496       24.57279
C         63.95619       48.81991       24.21533
H         62.78175       43.66999       19.90870
H         61.22493       45.16578       21.80756
H         64.04812       45.56507       20.72058
H         63.55675       44.56712       22.10918
H         64.94473       47.63405       21.19385
H         62.12458       45.96012       23.99963
H         65.33195       49.52646       22.71527
H         62.53640       47.86791       25.52368
H         64.13936       49.64974       24.88471
N         61.95832       47.11979       19.08481
C         61.35684       48.22925       18.34229
C         59.90915       47.96643       17.97526
O         59.13423       48.91536       17.91437
C         62.27416       48.37021       17.11350
C         62.95553       47.01164       16.99878
C         63.13402       46.59102       18.44584
H         61.37372       49.17638       18.92261
H         61.77976       48.71340       16.17632
H         63.06999       49.09851       17.37769
H         62.23770       46.30144       16.53802
H         63.89896       47.00866       16.40921
H         63.25095       45.49333       18.48820
H         64.01414       47.10322       18.89707
N         59.45142       46.71110       17.75232
C         58.05013       46.43094       17.47049
C         57.17329       46.65495       18.71252
O         56.05936       47.13596       18.57849
C         57.97195       45.02862       16.87207
C         56.60991       44.61963       16.32554
C         56.79933       43.33219       15.58466
O         57.43879       43.31801       14.54365
O         56.35214       42.17838       16.10797
H         60.12587       45.92684       17.77557
H         57.70647       47.10683       16.65750
H         58.30311       44.28616       17.61672
H         58.69257       45.02297       16.02082
H         56.20111       45.38021       15.62275
H         55.90299       44.49015       17.17091
N         57.65729       46.39809       19.96120
C         56.93603       46.69133       21.18044
H         55.97363       46.14401       21.21370
H         57.55012       46.37750       22.05707
H         56.76842       47.78502       21.26072
H         58.59050       46.02279       20.06117
Ca        58.84798       40.63247       14.71647
O         61.26425       39.78701       14.61896
H         61.20851       39.46352       15.55350
H         61.97445       40.47170       14.61829

Ca 1.70



