%chk=loop2.cluster176.chk
%nprocshared=48
%mem=10GB
%nosave
#b3lyp/svp scf=(tight,noincore) Test 
#IOP(5/87=12) Density=Current Pop=(MK,readradii) iop(6/33=2) iop(6/42=6)

loop2.cluster176 

   -2  1 
C          6.89865       69.96928       11.52690
C          6.05555       70.21321       10.31348
O          6.39478       71.06165        9.50038
H          7.78708       70.63493       11.53307
H          6.29688       70.14823       12.44083
H          7.24834       68.91375       11.52254
N          4.94341       69.45827       10.10688
C          4.15640       69.55438        8.88749
C          3.46226       70.90528        8.76029
O          2.73537       71.31165        9.65559
C          3.18901       68.36086        8.78664
C          2.75494       68.06146        7.37876
O          3.12726       68.84712        6.35210
O          2.26305       66.97459        7.14033
H          4.71119       68.72777       10.79835
H          4.87254       69.41578        8.05428
H          2.33434       68.43161        9.49125
H          3.78416       67.46098        9.06314
N          3.65656       71.64068        7.63352
C          3.12163       72.96684        7.37382
C          2.04673       72.93820        6.28397
O          1.61026       73.99613        5.85118
C          4.31409       73.86027        7.01417
H          4.22347       71.23015        6.89463
H          2.62621       73.39745        8.26971
H          3.99460       74.89669        6.78578
H          5.01121       73.88931        7.88137
H          4.86700       73.44688        6.14166
N          1.51908       71.75179        5.85533
C          0.32743       71.64467        5.01511
C         -0.68165       70.58260        5.51318
O         -1.77306       70.53477        4.96121
C          0.72805       71.41988        3.54168
C          1.75419       70.33858        3.34902
O          2.84341       70.60781        2.87193
O          1.48865       69.07769        3.69454
H          1.94278       70.88670        6.18322
H         -0.22956       72.60937        5.04018
H          1.17342       72.36312        3.15994
H         -0.17707       71.20753        2.92978
N         -0.42147       69.72694        6.55739
C         -1.39655       68.75821        7.04918
C         -1.53815       67.50177        6.19993
O         -2.34806       66.65460        6.55021
H          0.46265       69.77906        7.07127
H         -2.38142       69.25914        7.17827
H         -1.07239       68.41453        8.05509
N         -0.78836       67.30201        5.07627
C         -0.96471       66.14054        4.20519
C         -0.41857       64.83213        4.80182
O         -0.58187       63.78662        4.18858
C         -0.37773       66.40690        2.79033
C          1.10048       66.18908        2.60445
N          1.58268       65.87368        1.37772
O          1.85643       66.25561        3.55421
H         -0.14103       68.03051        4.79485
H         -2.05951       66.04779        4.03657
H         -0.64341       67.42647        2.43080
H         -0.87135       65.69366        2.10087
H          0.94585       65.77211        0.57625
H          2.58347       65.70039        1.22570
N          0.25180       64.82808        5.99191
C          0.82804       63.64173        6.61048
C          2.05945       63.13815        5.88527
O          2.25769       61.93315        5.81408
H          0.35567       65.70762        6.50541
H          0.06135       62.84510        6.73007
H          1.16385       63.92818        7.62950
N          2.94652       64.02227        5.33789
C          4.12878       63.62535        4.55511
C          5.21112       64.77695        4.54165
O          4.86429       65.80937        5.41561
C          3.73018       63.30716        3.07807
C          4.92200       62.83604        2.24622
O          2.75908       62.29539        2.95561
H          2.74315       65.02005        5.45926
H          4.57035       62.71248        5.01757
H          3.35153       64.24284        2.63139
H          1.96642       62.52837        3.49102
H          5.75727       63.56326        2.25247
H          5.27568       61.85929        2.64010
H          4.59972       62.69589        1.19158
N          6.51665       64.24892        4.97366
C          7.57158       65.27045        5.16345
C          8.03681       65.88023        3.82895
O          8.48003       65.13653        2.96369
C          8.79790       64.63819        5.89822
C          8.38985       63.78419        7.12642
C          9.77409       65.75228        6.31863
C          9.58770       63.08894        7.78465
H          6.84347       63.43014        4.41390
H          7.18551       66.06156        5.84445
H          9.30933       63.95265        5.18712
H          7.70742       62.97467        6.79058
H          7.85567       64.40158        7.88054
H         10.70957       65.35711        6.75515
H         10.08490       66.31483        5.43649
H          9.29419       66.44902        7.04123
H          9.23473       62.41368        8.59021
H         10.14139       62.48557        7.03256
H         10.28052       63.82039        8.24694
N          8.06081       67.23909        3.64155
C          8.74160       67.88983        2.50954
C         10.14396       68.27749        2.90506
O         10.51016       68.05975        4.04170
C          8.06532       69.22122        2.13488
C          6.63588       69.08037        1.77095
O          5.69091       69.41553        2.66269
O          6.32151       68.82089        0.62194
H          7.74886       67.83187        4.41576
H          8.79696       67.19784        1.64142
H          8.58889       69.71101        1.28523
H          8.14258       69.92229        2.99591
N         11.00265       68.86887        2.03168
C         12.35388       69.23531        2.41928
C         12.39649       70.37732        3.46795
O         12.95496       70.12680        4.52072
C         13.24771       69.46218        1.18803
C         14.69207       69.39692        1.58736
C         15.46242       70.56219        1.67925
C         15.27100       68.15175        1.89243
C         16.79753       70.48366        2.08463
C         16.60697       68.07621        2.28318
C         17.36970       69.24200        2.38434
H         10.71244       68.98071        1.04662
H         12.78389       68.32704        2.90701
H         13.01729       70.39600        0.66304
H         13.07799       68.65640        0.43946
H         15.02212       71.52659        1.45789
H         14.68481       67.24219        1.81939
H         17.38711       71.38561        2.17021
H         17.04775       67.11408        2.51104
H         18.40300       69.18290        2.69659
N         11.84449       71.63728        3.29469
C         11.85441       72.63819        4.36781
C         11.23952       72.16225        5.67906
O         11.62817       72.65794        6.72967
C         11.03663       73.79626        3.77531
C         11.36425       73.67494        2.30333
C         11.25833       72.16028        2.07997
H         12.91195       72.93802        4.53323
H          9.94618       73.58480        3.86553
H         11.24491       74.78837        4.23392
H         10.75152       74.29940        1.61910
H         12.43297       73.97873        2.18145
H         10.20382       71.81984        1.99679
H         11.82038       71.96713        1.15725
N         10.28418       71.19058        5.70003
C          9.77681       70.60151        6.94054
C         10.88736       69.77960        7.59748
O         11.13654       69.92727        8.78349
C          8.53952       69.72344        6.65204
C          7.38282       70.56543        6.06697
C          6.17853       69.74992        5.71344
O          5.25424       70.27488        5.11605
O          6.10282       68.44779        6.04380
H          9.93777       70.82273        4.79832
H          9.42488       71.39300        7.63846
H          8.18764       69.24187        7.59138
H          8.82510       68.92513        5.94251
H          7.71616       71.06516        5.13661
H          7.07150       71.35132        6.79033
N         11.62222       68.91907        6.84172
C         12.72802       68.12935        7.33418
H         13.53146       68.78961        7.72053
H         12.38453       67.42118        8.11318
H         13.15358       67.53749        6.48957
H         11.41427       68.85451        5.85544
Ca         3.83998       67.67760        4.58824
O          4.64097       66.74863        2.07142
H          4.33263       67.57182        1.61620
H          5.02786       66.19356        1.35097

Ca 1.70



