%chk=loop2.cluster117.chk
%nprocshared=48
%mem=10GB
%nosave
#b3lyp/svp scf=(tight,noincore) Test 
#IOP(5/87=12) Density=Current Pop=(MK,readradii) iop(6/33=2) iop(6/42=6)

loop2.cluster117 

   -2  1 
C         61.55495       29.13967       11.13398
C         61.61087       29.73942        9.76323
O         60.89141       29.29030        8.88715
H         62.28265       29.62849       11.81514
H         60.53718       29.21169       11.56456
H         61.84424       28.06954       11.04411
N         62.52254       30.70910        9.47825
C         62.79099       31.15248        8.11145
C         63.24594       29.96918        7.23571
O         63.14581       30.05638        6.01938
C         63.89289       32.22994        8.16331
C         64.31706       32.72128        6.81327
O         63.51993       33.28674        6.08358
O         65.58732       32.53688        6.40467
H         63.09770       31.08364       10.24849
H         61.85383       31.58832        7.68931
H         64.77955       31.79107        8.67338
H         63.54175       33.09288        8.77221
N         63.73071       28.82129        7.81140
C         64.15461       27.60839        7.10699
C         63.04058       26.82848        6.39916
O         63.29784       25.71287        5.96900
C         65.39871       27.85691        6.25265
H         63.84063       28.79986        8.83373
H         64.48785       26.90117        7.89818
H         65.22375       28.59285        5.44455
H         66.21090       28.23204        6.91533
H         65.75065       26.89937        5.81204
N         61.76354       27.29898        6.33039
C         60.60450       26.48654        5.97867
C         60.66574       25.85908        4.58944
O         60.20938       24.73906        4.40110
C         60.33299       25.50091        7.13644
C         58.89210       25.11795        7.31517
O         58.53985       24.38203        8.38569
O         58.03005       25.53220        6.55654
H         61.55477       28.24761        6.65287
H         59.76223       27.19778        5.96891
H         60.60090       26.01827        8.08331
H         60.98047       24.60212        7.04670
N         61.25980       26.53982        3.57374
C         61.35494       26.05332        2.20459
C         61.04237       27.15137        1.19748
O         61.28830       26.95013        0.01645
H         61.72530       27.43073        3.79741
H         60.74445       25.14060        2.02070
H         62.41967       25.78577        2.03831
N         60.57845       28.37207        1.60604
C         60.49866       29.53562        0.72669
C         60.65583       30.83548        1.54731
O         61.03797       30.75817        2.70736
C         59.23580       29.47946       -0.15793
C         57.96836       29.65327        0.63348
N         57.54265       28.68908        1.48093
O         57.31225       30.67505        0.49887
H         60.33608       28.50856        2.59471
H         61.37523       29.52571        0.04168
H         59.19414       28.53143       -0.73837
H         59.30899       30.29085       -0.91142
H         58.06085       27.80445        1.57656
H         56.67654       28.82101        2.02241
N         60.39866       32.06535        0.99412
C         60.63196       33.34931        1.66747
C         60.28487       33.34091        3.13633
O         61.19120       33.54242        3.93631
H         60.05325       32.10886        0.02844
H         60.10382       34.15681        1.12261
H         61.72257       33.56249        1.60081
N         59.04045       32.99131        3.58255
C         58.90453       32.39963        4.91290
C         58.07886       33.14812        5.94065
O         57.29137       34.02442        5.60568
C         58.37689       30.94591        4.70385
C         59.06506       29.92714        5.59542
O         56.98194       30.85271        4.86773
H         58.27295       32.86643        2.90165
H         59.91803       32.33158        5.36205
H         58.64091       30.59916        3.68003
H         56.56275       31.49701        4.24131
H         60.16551       29.97259        5.43667
H         58.84382       30.07476        6.66142
H         58.69967       28.92846        5.29729
N         58.17434       32.74591        7.23804
C         57.29520       33.14083        8.32550
C         56.42011       31.94993        8.64131
O         56.65469       30.88038        8.08310
C         58.19310       33.59878        9.52524
C         58.63192       35.05443        9.25146
C         57.54916       33.43352       10.91042
C         59.48068       35.68092       10.35412
H         58.87502       32.02350        7.46106
H         56.58260       33.93540        8.01171
H         59.09129       32.93831        9.57608
H         57.72876       35.69149        9.12369
H         59.21065       35.07420        8.30281
H         58.27343       33.68744       11.71189
H         56.64927       34.06721       11.00811
H         57.30202       32.36485       11.09680
H         58.88570       35.79877       11.28465
H         60.37881       35.06253       10.55616
H         59.79416       36.69618       10.03518
N         55.32974       32.05223        9.45942
C         54.49190       30.89439        9.70320
C         53.10628       31.27820       10.19415
O         52.49187       32.13666        9.56883
C         55.26776       29.89359       10.60384
C         54.98416       28.45623       10.28646
O         55.86306       27.52773       10.69084
O         54.12349       28.14866        9.47664
H         55.05993       32.97310        9.84201
H         54.31614       30.45010        8.69596
H         55.17702       30.15158       11.67788
H         56.35086       29.98533       10.38952
N         52.49973       30.63093       11.23297
C         51.09993       30.84255       11.57034
C         50.59016       29.55366       12.22334
O         50.08139       28.74130       11.46023
C         50.87599       32.19896       12.27709
C         49.44780       32.64501       12.51614
C         48.34994       32.11765       11.80347
C         49.22210       33.67337       13.44805
C         47.06370       32.62491       12.01733
C         47.93301       34.16451       13.66659
C         46.85583       33.64666       12.94633
H         52.98720       29.84407       11.68430
H         50.57097       30.89298       10.58957
H         51.33833       33.00936       11.67478
H         51.44192       32.22219       13.21990
H         48.47599       31.33939       11.06671
H         50.05020       34.09391       14.00584
H         46.22757       32.23144       11.45374
H         47.77193       34.95520       14.38789
H         45.86042       34.04081       13.10462
N         50.78175       29.18417       13.54410
C         51.04913       30.08287       14.66679
C         52.47478       30.53303       14.88959
O         52.67171       31.52182       15.58379
C         50.72690       29.20658       15.89763
C         49.79818       28.13676       15.35923
C         50.40615       27.86416       14.00153
H         50.30458       30.90874       14.65081
H         51.64132       28.65650       16.22552
H         50.34003       29.77398       16.77204
H         49.73212       27.23666       16.00893
H         48.79276       28.57684       15.20510
H         51.34905       27.28178       14.12601
H         49.72231       27.29797       13.33533
N         53.51681       29.73236       14.51786
C         54.89666       29.95493       14.96502
C         55.44040       31.32850       14.59624
O         56.49833       31.68499       15.09831
C         55.81154       28.81957       14.43634
C         55.48415       27.45274       15.07542
C         56.18055       27.29234       16.39716
O         57.39154       27.13233       16.42767
O         55.47988       27.29723       17.54569
H         53.30679       28.89167       13.96084
H         54.90275       29.92834       16.07935
H         56.89063       29.03900       14.59403
H         55.64577       28.75276       13.34572
H         55.84160       26.62907       14.42139
H         54.38660       27.32267       15.18803
N         54.74530       32.19028       13.80094
C         55.14096       33.57049       13.66263
H         56.15320       33.64447       13.23014
H         54.40839       34.10558       13.02183
H         55.13838       34.05065       14.66562
H         53.88684       31.89014       13.32421
Ca        56.18435       25.85893        9.23153
O         53.56120       24.88708        9.10097
H         52.99583       25.50871        9.62376
H         52.96706       24.53297        8.39375
O         57.95907       27.93074        8.43631
H         58.79252       28.38613        8.17602
H         57.25313       28.60311        8.28812
O         55.67650       23.80682        7.22826
H         55.88604       24.05472        6.29339
H         55.44436       22.84630        7.18786
O         55.28995       27.07747        6.57137
H         55.76723       27.15603        5.70758
H         54.82163       27.94310        6.67747
O         56.22924       23.73172       10.80635
H         56.23081       22.75035       10.69320
H         56.42498       23.89351       11.76221

Ca 1.70



