%chk=loop2.cluster156.chk
%nprocshared=48
%mem=10GB
%nosave
#b3lyp/svp scf=(tight,noincore) Test 
#IOP(5/87=12) Density=Current Pop=(MK,readradii) iop(6/33=2) iop(6/42=6)

loop2.cluster156 

   -2  1 
C         67.69923       89.44876       96.52816
C         68.91505       89.05421       97.31172
O         68.81034       88.21232       98.18811
H         66.89543       89.77835       97.21821
H         67.92587       90.27711       95.82386
H         67.34664       88.57571       95.93955
N         70.12431       89.60332       97.02054
C         71.35719       89.22437       97.70362
C         71.35991       89.72795       99.14580
O         71.69917       88.97077      100.04289
C         72.55613       89.75449       96.90452
C         73.85616       89.29750       97.49811
O         74.74703       90.20279       97.94054
O         74.10867       88.10531       97.58306
H         70.17731       90.28443       96.24690
H         71.45425       88.11443       97.68427
H         72.51908       90.86259       96.85534
H         72.49451       89.35839       95.86359
N         70.90732       90.98583       99.43545
C         70.69121       91.49256      100.79450
C         69.70740       90.61678      101.57655
O         69.78480       90.54359      102.79526
C         72.01166       91.75256      101.53389
H         70.60359       91.58564       98.65462
H         70.20133       92.48513      100.69461
H         72.64290       92.44425      100.93495
H         71.80692       92.24704      102.50904
H         72.57711       90.81717      101.72005
N         68.75575       89.90855      100.89990
C         67.76562       89.00861      101.49205
C         68.42895       88.02770      102.44591
O         68.01711       87.89935      103.59105
C         66.57699       89.77808      102.11183
C         66.16675       90.92810      101.23485
O         66.89071       91.90787      101.13947
O         65.02509       90.84849      100.52133
H         68.73649       89.98831       99.87703
H         67.33699       88.43696      100.63687
H         66.79773       90.17112      103.12631
H         65.73068       89.05891      102.19284
N         69.56664       87.40151      102.05134
C         70.45302       86.71937      102.97502
C         69.98676       85.38989      103.51765
O         68.93301       84.88763      103.15105
H         69.90678       87.57917      101.10059
H         70.65643       87.40023      103.82803
H         71.42180       86.53986      102.46096
N         70.80844       84.75496      104.40725
C         70.56269       83.46517      105.04619
C         70.33805       82.37251      104.02898
O         69.33205       81.67768      104.08374
C         69.47139       83.58199      106.12559
C         69.91004       84.59443      107.15665
N         69.30204       85.79849      107.23866
O         70.85280       84.33981      107.89315
H         71.68955       85.22818      104.65614
H         71.49290       83.18031      105.58549
H         69.31721       82.60596      106.64088
H         68.51063       83.87941      105.65724
H         68.53742       86.04288      106.59369
H         69.62874       86.50006      107.91946
N         71.28068       82.14905      103.07160
C         71.14987       81.09404      102.08626
C         70.43668       81.55522      100.83923
O         70.21210       80.73359       99.96135
H         72.11277       82.75791      103.03239
H         70.62000       80.22365      102.52777
H         72.16414       80.73818      101.80237
N         70.08214       82.86324      100.66218
C         69.43214       83.31600       99.44065
C         68.00172       82.81188       99.39177
O         67.43413       82.50164      100.42798
C         69.41319       84.85878       99.32026
C         70.82252       85.48043       99.46004
O         68.82523       85.19051       98.08162
H         70.32299       83.55332      101.38111
H         70.01385       82.91472       98.57967
H         68.77834       85.27528      100.13370
H         69.28096       85.97017       97.68218
H         71.27798       85.26721      100.44673
H         71.50714       85.13170       98.66335
H         70.74217       86.57894       99.37598
N         67.34727       82.75414       98.19974
C         65.96391       82.29774       98.06545
C         64.98908       83.09857       98.92031
O         65.26651       84.23268       99.28690
C         65.51730       82.24146       96.57118
C         65.65835       83.62600       95.86978
C         66.29130       81.11954       95.85331
C         65.19825       83.63006       94.41059
H         67.87916       83.00209       97.35695
H         65.92961       81.26187       98.47400
H         64.44283       81.95251       96.53202
H         66.70313       83.99802       95.87739
H         65.03405       84.35883       96.42271
H         66.04215       80.14506       96.32771
H         65.99770       81.03675       94.78912
H         67.38861       81.26782       95.91181
H         65.21283       84.67108       94.02336
H         65.88480       83.03358       93.77388
H         64.16718       83.23019       94.32360
N         63.87164       82.46786       99.38439
C         62.97240       83.01156      100.39092
C         63.12473       82.15644      101.64060
O         62.16668       81.59394      102.14956
C         61.52117       83.07417       99.86566
C         60.53006       83.64056      100.85981
O         60.93160       84.09944      102.06329
O         59.34511       83.67855      100.57163
H         63.72085       81.50335       99.08314
H         63.27344       84.04547      100.66921
H         61.19123       82.05384       99.58651
H         61.49480       83.71499       98.95832
N         64.35422       82.08580      102.20842
C         64.56616       81.63021      103.57177
C         64.79064       80.12806      103.79803
O         64.30408       79.65316      104.82078
C         65.77651       82.40048      104.15308
C         65.71324       82.47320      105.65643
C         66.45284       81.59269      106.45675
C         64.89070       83.43987      106.26520
C         66.35798       81.66943      107.85107
C         64.80926       83.52096      107.65610
C         65.53756       82.63234      108.44937
H         65.10364       82.63042      101.76104
H         63.68921       81.97023      104.17031
H         65.77530       83.45582      103.79917
H         66.72502       81.95733      103.78213
H         67.08613       80.84229      106.00157
H         64.31964       84.13372      105.65860
H         66.91810       80.98097      108.46865
H         64.17858       84.27073      108.11778
H         65.46519       82.69010      109.52749
N         65.64854       79.34148      103.05512
C         66.17065       79.63848      101.73270
C         65.30491       78.87656      100.71130
O         65.82698       78.14099       99.88317
C         67.59291       79.08927      101.83090
C         67.46370       77.86000      102.74679
C         66.22911       78.14346      103.61868
H         66.17879       80.70342      101.47998
H         68.12400       78.89559      100.87107
H         68.17153       79.85381      102.38778
H         67.27908       76.94119      102.15642
H         68.39528       77.72998      103.34821
H         65.50000       77.30323      103.62584
H         66.58293       78.35542      104.65252
N         63.94510       78.97705      100.77466
C         63.01270       78.11212      100.04486
C         62.51499       78.72413       98.75168
O         62.17109       79.89292       98.72077
C         61.77521       77.84409      100.93226
C         62.04747       76.84927      102.07348
C         62.16405       75.41596      101.60226
O         62.25469       74.42736      102.51064
O         62.12167       75.13385      100.41371
H         63.55779       79.54368      101.53878
H         63.48525       77.13821       99.80082
H         60.93112       77.43257      100.33565
H         61.42175       78.81409      101.34929
H         61.17347       76.88463      102.75522
H         62.95177       77.14117      102.65182
N         62.29022       77.92438       97.67276
C         61.74774       78.44009       96.43371
H         60.79385       78.98069       96.61844
H         62.48003       79.12676       95.96025
H         61.54189       77.59995       95.73646
H         62.46630       76.91110       97.74750
Ca        64.30960       92.29951       98.92349
O         62.75611       92.79521      101.30004
H         62.29760       93.47397      101.85409
H         63.48635       92.45730      101.87634
O         62.58675       95.21484       99.39842
H         62.27480       95.93312      100.00377
H         62.24336       95.47601       98.50758
O         63.43336       90.83829       96.61414
H         63.53376       89.85978       96.72520
H         63.05419       90.95403       95.70770
O         62.44661       89.91712       99.42578
H         62.82294       89.00224       99.38393
H         61.82592       89.89875      100.19646
O         65.67032       94.44706       99.96120
H         66.49276       94.89870      100.26877
H         65.47857       93.78219      100.66768
O         61.30812       92.82071       97.88035
H         60.66404       92.13242       97.57896
H         60.88901       93.67943       97.62199

Ca 1.70



