%chk=loop2.cluster27.chk
%nprocshared=48
%mem=10GB
%nosave
#b3lyp/svp scf=(tight,noincore) Test 
#IOP(5/87=12) Density=Current Pop=(MK,readradii) iop(6/33=2) iop(6/42=6)

loop2.cluster27 

   -2  1 
C         78.03001       42.55393       35.20414
C         77.56458       42.75662       33.79625
O         76.36960       42.74935       33.56535
H         78.83151       43.28648       35.43648
H         77.19392       42.71230       35.91806
H         78.42762       41.52464       35.31818
N         78.48465       42.92178       32.80303
C         78.18287       43.17000       31.38833
C         77.50697       44.52635       31.14365
O         78.12174       45.42571       30.58573
C         79.45693       42.97962       30.50782
C         80.66072       43.83935       30.83569
O         81.31438       43.69614       32.00486
O         81.10167       44.61111       30.00005
H         79.46724       42.85067       33.08525
H         77.48682       42.38624       31.01524
H         79.16683       43.16010       29.44782
H         79.77779       41.91862       30.58103
N         76.18377       44.68394       31.43637
C         75.41106       45.88547       31.14753
C         74.68700       46.35981       32.40429
O         74.65033       45.61136       33.37234
C         74.38027       45.46916       30.09335
H         75.66137       43.88243       31.79880
H         76.06709       46.68968       30.75821
H         73.69677       46.28298       29.80294
H         74.91029       45.10504       29.18792
H         73.76509       44.62688       30.48720
N         74.04751       47.56730       32.49592
C         74.08971       48.64916       31.51076
C         75.49986       49.20500       31.35978
O         76.19560       49.33485       32.35005
C         73.25232       49.86246       31.99403
C         71.78055       49.70464       32.22323
O         71.14859       50.67412       32.60991
O         71.13477       48.54102       32.07767
H         73.51692       47.73869       33.35637
H         73.68321       48.32590       30.53563
H         73.36447       50.68340       31.25477
H         73.65826       50.20752       32.96550
N         75.90778       49.75143       30.18362
C         77.15809       50.49035       30.08003
C         78.36356       49.55899       30.06116
O         78.43148       48.76029       29.13925
H         75.27116       49.73550       29.37354
H         77.16037       51.28253       30.84886
H         77.16859       51.03804       29.11418
N         79.39413       49.59436       30.96859
C         79.48064       50.46760       32.13504
C         79.63434       49.64509       33.41779
O         80.38411       50.02841       34.30454
C         80.61809       51.48627       31.89147
C         80.25920       52.38437       30.72510
N         80.95692       52.33733       29.56526
O         79.31203       53.15018       30.82740
H         80.19335       48.96095       30.80401
H         78.55604       51.03671       32.30458
H         81.55945       50.93047       31.68229
H         80.79146       52.13081       32.78000
H         81.74385       51.68380       29.44683
H         80.68880       52.94297       28.77402
N         78.87946       48.51933       33.59518
C         78.78386       47.79333       34.85715
C         77.92832       48.57789       35.83527
O         78.35903       48.85451       36.94632
H         78.32017       48.16854       32.80644
H         79.78983       47.53773       35.25625
H         78.24981       46.83635       34.66093
N         76.68363       48.97580       35.45194
C         75.77328       49.81555       36.22689
C         74.48922       49.05463       36.44369
O         73.96145       48.51365       35.48473
C         75.50415       51.12369       35.44145
C         74.38750       51.96392       36.09709
O         76.70555       51.85279       35.37335
H         76.36308       48.67709       34.52398
H         76.20473       50.09509       37.21287
H         75.17974       50.87372       34.41125
H         76.49428       52.77544       35.07426
H         74.19919       52.88370       35.50418
H         73.42881       51.40178       36.12052
H         74.66981       52.24340       37.13244
N         73.91779       48.96593       37.67734
C         72.75967       48.11530       37.93766
C         71.52081       48.81311       38.45826
O         71.59952       49.86303       39.08767
C         73.14015       46.94188       38.88507
C         73.98845       45.87588       38.15739
C         73.89224       47.44175       40.13834
C         73.20054       45.12240       37.07680
H         74.35527       49.47686       38.46034
H         72.40568       47.68726       36.99086
H         72.21186       46.43524       39.23452
H         74.31014       45.11409       38.89607
H         74.89854       46.33643       37.71771
H         73.30302       48.21169       40.67964
H         74.08703       46.60004       40.83350
H         74.88275       47.86991       39.87152
H         72.88160       45.77069       36.23900
H         73.83754       44.32695       36.64246
H         72.30076       44.65222       37.52621
N         70.31274       48.21202       38.23396
C         69.03731       48.64374       38.78563
C         68.17019       47.45514       39.17217
O         68.40016       46.33571       38.72743
C         68.26429       49.55757       37.80175
C         68.39547       49.14798       36.36099
O         69.26235       49.80932       35.56958
O         67.72309       48.23955       35.90070
H         70.30776       47.35825       37.65178
H         69.21626       49.21435       39.72585
H         68.70812       50.56842       37.87393
H         67.18918       49.66844       38.07649
N         67.12895       47.65864       40.01909
C         66.12526       46.65722       40.36917
C         66.74533       45.38067       40.94879
O         67.63413       45.49999       41.78369
C         65.17718       47.29212       41.41861
C         63.90676       46.52222       41.66740
C         63.66792       45.92296       42.91406
C         62.92763       46.43635       40.66125
C         62.47133       45.23749       43.14554
C         61.73322       45.75103       40.89781
C         61.50522       45.15169       42.13884
H         67.02497       48.61013       40.41112
H         65.56241       46.44373       39.44042
H         64.86081       48.30446       41.08491
H         65.75280       47.42574       42.36219
H         64.40652       45.98636       43.70302
H         63.09096       46.90445       39.69784
H         62.29122       44.77622       44.10740
H         60.98259       45.68894       40.12032
H         60.57809       44.62462       42.32192
N         66.30041       44.11910       40.61425
C         66.79542       42.91894       41.27476
C         68.15146       42.46321       40.76778
O         68.72011       41.53827       41.32911
C         65.75641       41.84907       40.87772
C         64.51921       42.67361       40.54358
C         65.14132       43.84260       39.79849
H         66.76853       43.09940       42.37392
H         66.05714       41.38061       39.91054
H         65.61398       41.03616       41.62141
H         63.74881       42.12572       39.95967
H         64.07155       43.05438       41.48774
H         65.49538       43.49834       38.80067
H         64.42667       44.66151       39.66166
N         68.64306       42.97072       39.60070
C         69.81471       42.41999       38.92775
C         71.11559       42.71695       39.64099
O         72.13733       42.18640       39.22268
C         69.86584       42.94627       37.47693
C         68.69272       42.36497       36.67019
C         68.66734       42.87867       35.26932
O         69.51632       42.52767       34.46537
O         67.67519       43.69997       34.88354
H         68.10240       43.69593       39.11251
H         69.71035       41.31214       38.87995
H         70.81481       42.65023       36.98253
H         69.81463       44.06126       37.49234
H         67.73367       42.64088       37.15340
H         68.75464       41.25490       36.64175
N         71.17788       43.54486       40.71931
C         72.42890       43.78564       41.39939
H         73.16570       44.21333       40.69162
H         72.27644       44.49870       42.23468
H         72.82455       42.82960       41.80446
H         70.33284       44.02081       41.06570
Ca        69.05349       48.69745       32.94798
O         66.19813       48.28266       32.98145
H         65.60741       47.98420       32.24560
H         65.58370       48.51891       33.72040
O         68.83922       46.01732       32.89767
H         68.20048       45.72273       32.20283
H         68.47344       45.66492       33.74330
O         71.21106       47.48015       34.55479
H         70.81729       46.96112       35.29690
H         71.53047       48.32160       34.96665
O         68.29064       47.78790       30.54112
H         67.43162       48.15627       30.21835
H         68.47409       47.00150       29.97121

Ca 1.70



