%chk=loop2.cluster80.chk
%nprocshared=48
%mem=10GB
%nosave
#b3lyp/svp scf=(tight,noincore) Test 
#IOP(5/87=12) Density=Current Pop=(MK,readradii) iop(6/33=2) iop(6/42=6)

loop2.cluster80 

   -2  1 
C         82.16903       86.52719       42.00454
C         83.55935       86.54249       42.56442
O         83.92231       87.49194       43.24320
H         81.50540       87.21860       42.56513
H         82.22374       86.86250       40.94793
H         81.73854       85.50341       42.03156
N         84.39772       85.49840       42.31786
C         85.79389       85.46245       42.74062
C         85.89890       84.68804       44.04251
O         86.51952       83.63501       44.10178
C         86.61991       84.93981       41.54503
C         88.08868       84.82196       41.82392
O         88.66929       83.77176       41.59848
O         88.77701       85.87790       42.29536
H         84.02440       84.68252       41.80601
H         86.16382       86.48467       42.97532
H         86.48301       85.66508       40.71318
H         86.22971       83.95428       41.20271
N         85.27135       85.19573       45.14342
C         85.17394       84.52712       46.43104
C         83.70496       84.16119       46.65168
O         82.85896       84.67775       45.93231
C         85.71242       85.48028       47.51595
H         84.77763       86.09354       45.04987
H         85.76381       83.58579       46.41770
H         85.20892       86.46977       47.44609
H         85.55544       85.10152       48.54326
H         86.80304       85.64084       47.37158
N         83.29528       83.21759       47.55085
C         84.16371       82.53579       48.50535
C         84.28295       81.06082       48.20996
O         83.65486       80.57004       47.28265
C         83.57448       82.70548       49.91339
C         83.46239       84.14470       50.28848
O         84.18604       84.62362       51.31634
O         82.71908       84.88698       49.66527
H         82.29114       82.97721       47.56675
H         85.19199       82.93661       48.48249
H         84.21813       82.19701       50.65944
H         82.56650       82.24113       49.95687
N         85.10560       80.28866       48.98511
C         85.26050       78.85547       48.80035
C         85.84162       78.55887       47.43942
O         86.52818       79.41781       46.90359
H         85.65005       80.73777       49.73595
H         84.28496       78.36313       48.95665
H         85.95649       78.46363       49.57426
N         85.67151       77.36716       46.79710
C         84.98241       76.19657       47.34589
C         83.45982       76.33510       47.39825
O         82.80291       75.42646       47.89138
C         85.33792       74.93806       46.51409
C         86.83549       74.72834       46.39781
N         87.46756       73.81666       47.16809
O         87.48409       75.39064       45.60095
H         86.12724       77.27777       45.88037
H         85.36159       76.01879       48.37749
H         84.90552       74.99535       45.48986
H         84.88380       74.05333       47.01136
H         86.94724       73.26229       47.86151
H         88.48783       73.69196       47.08615
N         82.82556       77.43054       46.89367
C         81.38751       77.60314       46.95505
C         80.92317       77.74436       48.37819
O         80.02210       77.02480       48.78695
H         83.37136       78.17596       46.44610
H         80.86558       76.76667       46.43741
H         81.12105       78.54341       46.42648
N         81.46655       78.71056       49.17741
C         80.96859       78.99972       50.51514
C         80.31191       80.36711       50.44233
O         80.60376       81.25406       51.22797
C         82.11757       78.94073       51.54725
C         81.55798       78.88786       52.97154
O         82.90236       77.79602       51.33040
H         82.19938       79.31647       48.79259
H         80.18746       78.25880       50.78751
H         82.74698       79.85341       51.39700
H         83.82620       78.02078       51.62091
H         80.82234       79.69547       53.15852
H         81.04693       77.91219       53.12469
H         82.38179       78.97945       53.70783
N         79.46933       80.60761       49.40931
C         78.88579       81.90332       49.08972
C         77.81542       82.31731       50.08546
O         77.45059       81.53142       50.94856
C         78.25437       81.81180       47.65925
C         79.35601       81.58417       46.58905
C         77.10506       80.76959       47.60564
C         78.79732       81.39872       45.17879
H         79.32116       79.83437       48.75384
H         79.69075       82.67317       49.08443
H         77.80139       82.77396       47.40169
H         79.99299       80.70504       46.81210
H         80.01401       82.48085       46.59170
H         76.62353       80.75462       46.61004
H         77.43323       79.73799       47.83257
H         76.30890       81.03663       48.32928
H         79.62780       81.40511       44.44348
H         78.28635       80.41595       45.10085
H         78.07910       82.20526       44.92571
N         77.19532       83.52562       49.93419
C         75.96695       83.87338       50.63135
C         74.77344       83.60798       49.70324
O         74.97236       83.28691       48.54926
C         76.02087       85.30875       51.23756
C         76.34096       86.49969       50.34121
O         77.59355       86.78972       49.91483
O         75.45978       87.30613       50.10224
H         77.51529       84.15072       49.18884
H         75.80214       83.17279       51.47781
H         76.73283       85.33554       52.08791
H         75.01407       85.49231       51.67152
N         73.49714       83.66772       50.18603
C         72.28169       83.35985       49.41074
C         72.21168       84.12948       48.09318
O         72.12579       83.49844       47.04110
C         72.09610       81.82507       49.23425
C         70.63904       81.40088       49.04170
C         70.05261       81.28686       47.76451
C         69.86254       81.07335       50.17296
C         68.72425       80.85030       47.63148
C         68.53996       80.63948       50.03212
C         67.97228       80.52448       48.76341
H         73.36625       83.93266       51.17114
H         71.42950       83.67506       50.05265
H         72.41830       81.34862       50.18463
H         72.76248       81.38505       48.46006
H         70.61690       81.51712       46.87318
H         70.28550       81.14975       51.16620
H         68.27747       80.75500       46.64937
H         67.95685       80.38519       50.90903
H         66.95018       80.17860       48.65823
N         72.23033       85.49701       48.03659
C         72.11935       86.23063       46.79285
C         73.31323       86.03131       45.87323
O         73.17321       86.18299       44.67120
C         71.92240       87.68554       47.22661
C         72.38835       87.75724       48.68146
C         72.30997       86.32984       49.21791
H         71.20993       85.90199       46.23816
H         72.38966       88.45196       46.56707
H         70.82816       87.86078       47.24172
H         73.45175       88.06834       48.67609
H         71.80745       88.48126       49.29740
H         73.22748       86.12393       49.80684
H         71.41331       86.15842       49.84405
N         74.52168       85.69588       46.38986
C         75.70761       85.45735       45.57065
C         75.50045       84.21427       44.71125
O         75.70345       84.28008       43.50540
C         76.90677       85.40635       46.53393
C         78.30921       85.41294       45.89744
C         79.32192       85.85299       46.92496
O         79.91432       84.97949       47.75841
O         79.35840       87.03704       47.22232
H         74.60945       85.62594       47.41168
H         75.88711       86.33842       44.91606
H         76.77387       84.57256       47.22880
H         76.82497       86.34011       47.13539
H         78.32384       86.19889       45.11425
H         78.56976       84.44660       45.42647
N         75.00871       83.06608       45.25670
C         74.65329       81.90988       44.46202
H         73.83255       82.17345       43.75904
H         75.53064       81.53568       43.89717
H         74.28097       81.09899       45.12683
H         74.82233       83.02695       46.26192
Ca        79.47338       85.56641       49.86755
O         80.53853       88.75209       49.77715
H         80.00090       89.33462       50.37058
H         81.43099       89.18031       49.75080
O         79.71400       83.82449       51.84777
H         80.60508       83.66146       51.44798
H         79.90018       84.34997       52.66207
O         81.74312       86.62321       52.12246
H         82.14621       86.87884       52.98812
H         82.52483       86.41915       51.55753

Ca 1.70



