%chk=loop2.cluster31.chk
%nprocshared=48
%mem=10GB
%nosave
#b3lyp/svp scf=(tight,noincore) Test 
#IOP(5/87=12) Density=Current Pop=(MK,readradii) iop(6/33=2) iop(6/42=6)

loop2.cluster31 

   -2  1 
C         48.51025       46.00721        5.25522
C         47.65673       47.10331        4.68195
O         47.45941       48.08372        5.38540
H         49.48987       46.43839        5.54958
H         48.00635       45.62130        6.16567
H         48.71577       45.15415        4.59383
N         47.08872       47.07163        3.44036
C         47.15890       45.98939        2.45296
C         45.75591       45.48501        2.15532
O         44.87106       46.29404        1.94772
C         47.96858       46.37084        1.17638
C         47.94686       47.78190        0.65188
O         48.68107       48.08257       -0.27566
O         47.19840       48.73342        1.21850
H         46.50833       47.88591        3.19606
H         47.70411       45.10966        2.82212
H         47.70287       45.67084        0.35034
H         49.03691       46.19413        1.41827
N         45.50838       44.13156        2.18390
C         44.22776       43.42563        2.03608
C         43.57487       43.51897        0.65818
O         43.43702       42.50124       -0.00610
C         43.24041       43.77432        3.15660
H         46.31558       43.51914        2.37252
H         44.47063       42.34892        2.19410
H         42.75650       44.75968        3.00308
H         42.44655       42.99438        3.19670
H         43.76023       43.77298        4.13834
N         43.09313       44.70327        0.19988
C         42.34934       44.88431       -1.03536
C         43.07962       45.79888       -1.98668
O         43.67944       46.75246       -1.53437
C         40.94347       45.39827       -0.68485
C         40.75195       46.48730        0.37255
O         41.71499       47.33715        0.84491
O         39.64554       46.55498        0.88547
H         43.19835       45.52379        0.78403
H         42.20254       43.91911       -1.56996
H         40.45603       44.50290       -0.23440
H         40.35674       45.63144       -1.60096
N         43.12764       45.50139       -3.32519
C         43.85224       46.26953       -4.33743
C         43.16095       47.56348       -4.72610
O         42.68934       47.68654       -5.84827
H         42.65792       44.64157       -3.64633
H         43.88962       45.64493       -5.25679
H         44.90116       46.44786       -4.01872
N         43.07998       48.57773       -3.83527
C         42.37684       49.82933       -4.05381
C         43.12255       50.94837       -3.31974
O         42.51719       51.96194       -2.99727
C         40.91757       49.63427       -3.55155
C         40.79219       49.24785       -2.09977
N         39.59406       48.92751       -1.56941
O         41.77501       49.21864       -1.39495
H         43.49701       48.44320       -2.91832
H         42.30402       50.08649       -5.13423
H         40.46556       48.81509       -4.15084
H         40.32299       50.55654       -3.71717
H         38.74661       48.92260       -2.14991
H         39.52343       48.67342       -0.57375
N         44.45552       50.81630       -3.01495
C         45.17872       51.78339       -2.20944
C         44.95996       51.57756       -0.68256
O         43.70879       50.98102       -0.43720
H         44.99013       50.02499       -3.39674
H         44.92343       52.80392       -2.56224
H         46.26970       51.64541       -2.37172
N         45.00176       52.87584        0.02339
C         46.15882       53.79272       -0.14195
C         47.18383       53.77000        0.99635
O         48.20257       54.43471        0.86230
C         45.61604       55.24525       -0.21810
C         44.70501       55.46644       -1.42357
O         44.89707       55.53749        0.95878
H         44.50911       52.90007        0.94371
H         46.70092       53.56513       -1.08399
H         46.47783       55.94726       -0.33609
H         45.22093       56.40724        1.30994
H         45.26369       55.26131       -2.36043
H         43.81277       54.80765       -1.37175
H         44.36294       56.52347       -1.44260
N         46.93503       53.13629        2.18183
C         47.75002       53.29752        3.38359
C         47.75854       54.77573        3.74361
O         48.68831       55.47282        3.35870
C         49.16653       52.65670        3.29524
C         49.02603       51.18576        2.82589
C         49.83165       52.72495        4.69151
C         50.33043       50.39183        2.78305
H         46.07336       52.60587        2.29327
H         47.24441       52.73483        4.19308
H         49.79911       53.21623        2.57018
H         48.59462       51.17646        1.80146
H         48.32600       50.65192        3.50426
H         49.85015       53.76126        5.08807
H         49.27384       52.09057        5.41575
H         50.88498       52.38233        4.65288
H         50.78432       50.31104        3.79189
H         50.10613       49.35894        2.44195
H         51.05284       50.85716        2.08134
N         46.69445       55.38045        4.34518
C         45.56058       54.67036        4.94032
C         45.98260       53.92775        6.19461
O         45.62425       52.76701        6.35641
C         44.36932       55.62221        5.21789
C         44.59180       56.89706        6.00537
O         45.80124       57.25056        6.47382
O         43.64947       57.65095        6.18166
H         46.71585       56.40687        4.40921
H         45.14361       53.93156        4.21868
H         43.57283       55.03378        5.72654
H         43.97543       55.93423        4.22778
N         46.81030       54.52129        7.09606
C         47.34252       53.82574        8.25494
C         46.35197       53.85878        9.41355
O         45.42460       54.66319        9.36444
C         48.70900       54.46919        8.62628
C         48.65302       55.88837        9.15908
C         48.87670       56.98209        8.30352
C         48.45140       56.12351       10.53189
C         48.89088       58.28494        8.81084
C         48.48176       57.42879       11.03661
C         48.70124       58.50790       10.17662
H         47.18448       55.44664        6.86725
H         47.56906       52.78793        7.93930
H         49.32585       54.45622        7.70212
H         49.30475       53.87465        9.33585
H         49.04249       56.82568        7.24555
H         48.29822       55.29693       11.21236
H         49.06223       59.12138        8.14568
H         48.34678       57.60365       12.09671
H         48.73174       59.51662       10.56916
N         46.50513       53.08750       10.53506
C         47.48543       52.01957       10.69735
C         47.28551       50.83424        9.76494
O         46.40670       50.85730        8.91646
C         47.27996       51.57827       12.14798
C         46.79184       52.85478       12.80481
C         45.80538       53.37873       11.76350
H         48.49798       52.43560       10.59511
H         46.43787       50.85214       12.20480
H         48.18661       51.12294       12.60247
H         46.37896       52.73072       13.82637
H         47.65712       53.55685       12.85155
H         44.84116       52.82525       11.78250
H         45.65094       54.46806       11.93620
N         48.09960       49.74712        9.89140
C         48.03331       48.58983        9.00594
C         49.21328       47.63368        9.26413
O         48.98355       46.45653        9.50613
C         46.66825       47.84025        9.11093
C         46.30673       47.40968       10.54905
C         45.20943       46.38192       10.54936
O         44.03872       46.63427       11.16347
O         45.39349       45.29460       10.02322
H         48.81951       49.76543       10.62539
H         48.14715       48.93620        7.95491
H         46.73797       46.94914        8.44762
H         45.82893       48.45090        8.71444
H         46.00256       48.30722       11.13086
H         47.17115       46.94927       11.06573
N         50.51840       48.02600        9.16844
C         50.95314       49.38267        8.90859
H         52.01181       49.36298        8.57257
H         50.35057       49.86574        8.11361
H         50.93467       49.97373        9.84839
H         51.25035       47.30718        9.27930
Ca        43.52470       48.75106        0.37190
O         45.01534       50.34682        2.33445
H         45.41066       50.35557        3.24096
H         45.77716       50.52960        1.73250
O         41.56256       50.29744        1.63425
H         41.45003       50.68049        0.72937
H         40.97993       50.84874        2.21023
O         43.09097       48.59025        3.49255
H         43.74329       48.30474        4.18007
H         42.25212       48.12065        3.72696
O         45.72215       48.55101       -1.37422
H         46.31792       49.24665       -1.00633
H         46.12976       48.30966       -2.24103

Ca 1.70



