%chk=loop2.cluster164.chk
%nprocshared=48
%mem=10GB
%nosave
#b3lyp/svp scf=(tight,noincore) Test 
#IOP(5/87=12) Density=Current Pop=(MK,readradii) iop(6/33=2) iop(6/42=6)

loop2.cluster164 

   -2  1 
C         78.88032       42.55122       35.10353
C         78.62389       42.49048       33.62512
O         77.63035       41.90854       33.21493
H         79.78011       43.16106       35.33601
H         78.01272       43.00342       35.63031
H         79.04468       41.52166       35.47837
N         79.48064       43.09942       32.76122
C         79.27970       43.13740       31.31725
C         78.79799       44.51867       30.97930
O         79.47737       45.29559       30.31895
C         80.50422       42.62582       30.52060
C         81.84985       43.06472       31.02820
O         82.29462       42.61864       32.22022
O         82.58274       43.74157       30.32698
H         80.27099       43.63309       33.15330
H         78.44044       42.48366       30.99013
H         80.36982       42.91512       29.45331
H         80.50782       41.51590       30.55598
N         77.55025       44.85498       31.40120
C         76.90221       46.11918       31.12476
C         75.95453       46.46226       32.27950
O         75.55245       45.55980       33.00572
C         76.13545       45.98505       29.80475
H         76.99706       44.11852       31.86619
H         77.67812       46.89833       31.00778
H         76.85178       45.76294       28.98415
H         75.40497       45.14962       29.86585
H         75.59010       46.91002       29.54038
N         75.52654       47.72939       32.53771
C         75.96964       48.90956       31.80868
C         77.43477       49.18602       32.09656
O         78.03353       48.51202       32.92449
C         75.22098       50.17994       32.26809
C         73.72737       50.20803       32.26449
O         73.17795       51.22759       32.64788
O         72.96480       49.13460       32.00972
H         74.86901       47.85300       33.30996
H         75.78914       48.76031       30.72836
H         75.54213       51.03313       31.63956
H         75.51070       50.39197       33.32195
N         78.05770       50.22871       31.48221
C         79.40917       50.61735       31.81600
C         80.40283       49.53506       31.44612
O         80.16368       48.81820       30.48713
H         77.54720       50.79146       30.78820
H         79.43400       50.86787       32.89627
H         79.67181       51.53627       31.25021
N         81.57500       49.36909       32.12569
C         81.96133       50.19837       33.25764
C         81.40559       49.66442       34.57449
O         81.63108       50.29358       35.59761
C         83.49659       50.30331       33.36352
C         84.14018       50.79994       32.09074
N         85.19853       50.14412       31.55847
O         83.72258       51.81451       31.55231
H         82.22680       48.63627       31.80287
H         81.60327       51.23994       33.09617
H         83.92820       49.31765       33.64526
H         83.73755       51.02932       34.16889
H         85.58933       49.31141       32.02332
H         85.64993       50.49250       30.69988
N         80.70787       48.48524       34.63652
C         80.27555       47.92376       35.90794
C         79.20738       48.73799       36.60230
O         78.96017       48.48484       37.77486
H         80.53662       47.93442       33.78665
H         81.17179       47.86051       36.56453
H         79.89271       46.89082       35.76741
N         78.55519       49.75817       35.96922
C         77.65775       50.65441       36.68019
C         76.33566       49.98436       36.94819
O         75.55086       49.80210       36.03342
C         77.52990       51.99278       35.93012
C         76.57269       52.94949       36.65033
O         78.81364       52.56060       35.87003
H         78.76402       49.95549       34.98193
H         78.14196       50.90351       37.65159
H         77.15649       51.81094       34.89405
H         78.75935       53.34402       35.26530
H         76.82913       53.01893       37.72852
H         76.63459       53.96077       36.19816
H         75.52645       52.59111       36.54707
N         76.06115       49.53880       38.19915
C         74.87278       48.76865       38.53180
C         73.60403       49.61712       38.52678
O         73.66068       50.78774       38.88856
C         75.06200       48.07960       39.92503
C         76.33967       47.19460       40.01419
C         75.09425       49.09620       41.08811
C         76.40105       46.07116       38.98126
H         76.79017       49.66219       38.91433
H         74.76339       47.95165       37.78489
H         74.19112       47.40831       40.10458
H         76.34227       46.73171       41.01435
H         77.28384       47.77435       39.96917
H         75.34332       48.58987       42.04523
H         75.85142       49.88898       40.92033
H         74.10213       49.57387       41.22084
H         75.41345       45.58687       38.86312
H         76.73199       46.46194       37.99753
H         77.13316       45.30588       39.32056
N         72.39335       49.02046       38.32563
C         71.13010       49.66014       38.70098
C         70.07059       48.64002       39.04531
O         70.09503       47.52314       38.54875
C         70.60171       50.71824       37.70000
C         70.30456       50.15042       36.33963
O         71.04697       50.52788       35.28481
O         69.39809       49.34818       36.18783
H         72.39702       48.01495       38.09542
H         71.32263       50.17871       39.66737
H         71.35939       51.52170       37.60768
H         69.66692       51.18171       38.09170
N         69.11765       48.95657       39.95188
C         68.08103       48.03042       40.36527
C         68.68220       46.77210       41.00501
O         69.50763       46.92309       41.89649
C         67.18883       48.71797       41.41974
C         65.97124       47.87321       41.61862
C         65.83496       47.06343       42.75403
C         64.99260       47.84080       40.61316
C         64.73871       46.20474       42.86462
C         63.89493       46.99254       40.73281
C         63.77207       46.16632       41.85287
H         69.13460       49.90428       40.36421
H         67.46815       47.78739       39.47103
H         66.86644       49.73273       41.09858
H         67.77646       48.84129       42.35860
H         66.59345       47.07025       43.52788
H         65.09555       48.46441       39.73207
H         64.64660       45.55837       43.72638
H         63.15121       46.96502       39.94795
H         62.93119       45.49262       41.93294
N         68.28508       45.50063       40.66696
C         68.77654       44.33058       41.36920
C         70.11906       43.87688       40.84600
O         70.65061       42.90789       41.37387
C         67.69355       43.28800       41.07145
C         67.29514       43.64473       39.64676
C         67.26959       45.17699       39.68699
H         68.83481       44.49308       42.46875
H         67.99422       42.22903       41.23596
H         66.81556       43.50578       41.71990
H         68.13068       43.32138       38.98574
H         66.35685       43.17491       39.28176
H         67.49044       45.58020       38.67551
H         66.29303       45.54095       40.05600
N         70.71655       44.48598       39.77971
C         71.95460       43.97325       39.22623
C         73.14593       44.18707       40.14515
O         74.20987       43.66333       39.84633
C         72.19593       44.46131       37.78742
C         71.01469       44.06662       36.86911
C         71.49655       43.73259       35.48656
O         72.22352       44.49818       34.88046
O         71.19551       42.53588       34.94649
H         70.24253       45.25748       39.29803
H         71.83739       42.87234       39.12458
H         73.11004       43.93111       37.44550
H         72.39193       45.55492       37.70718
H         70.24906       44.87475       36.87022
H         70.50901       43.14787       37.23926
N         73.03054       44.86574       41.32419
C         74.10896       44.88993       42.28417
H         74.98551       45.39697       41.86772
H         73.78711       45.41646       43.20647
H         74.39303       43.84923       42.54750
H         72.14831       45.32657       41.58425
Ca        71.17432       49.33079       33.35958
O         68.77560       47.58232       33.44306
H         67.94879       47.69906       33.97414
H         68.70906       46.66883       33.06761
O         70.17052       48.40027       30.86126
H         70.07161       47.43397       30.67149
H         70.01532       48.84829       29.99327
O         72.05488       46.46786       32.40457
H         71.61407       45.71994       32.87495
H         72.94332       46.11396       32.15313
O         70.98539       47.39055       35.43167
H         71.06289       46.53004       34.96946
H         70.94054       47.15232       36.38394
O         73.31458       48.44090       34.90177
H         73.76610       47.86637       35.56720
H         73.35667       49.36054       35.25866

Ca 1.70



