%chk=loop2.cluster122.chk
%nprocshared=48
%mem=10GB
%nosave
#b3lyp/svp scf=(tight,noincore) Test 
#IOP(5/87=12) Density=Current Pop=(MK,readradii) iop(6/33=2) iop(6/42=6)

loop2.cluster122 

   -2  1 
C         50.27875       13.78851       18.32840
C         49.65152       12.45174       18.05589
O         49.36619       11.72103       18.98484
H         51.27194       13.83707       17.83629
H         49.63152       14.59649       17.92680
H         50.41458       13.95635       19.41813
N         49.44731       12.04212       16.77801
C         48.80198       10.77193       16.43385
C         49.44303        9.57091       17.12737
O         48.76041        8.59281       17.38222
C         48.94766       10.54335       14.91894
C         48.09759        9.40812       14.43165
O         48.66991        8.25787       14.02976
O         46.88412        9.53133       14.38512
H         49.76172       12.66554       16.01889
H         47.72597       10.84632       16.71934
H         50.02290       10.32791       14.72151
H         48.67324       11.44952       14.34022
N         50.77892        9.57447       17.39167
C         51.54863        8.46019       17.93467
C         50.95058        7.79182       19.18237
O         50.89408        6.57082       19.24081
C         51.91852        7.49279       16.80261
H         51.31511       10.41533       17.13518
H         52.51958        8.89529       18.24986
H         52.68164        6.76434       17.15080
H         51.02923        6.95172       16.42079
H         52.36749        8.06892       15.96113
N         50.52555        8.55129       20.23952
C         50.04049        8.01991       21.51909
C         48.75457        7.19838       21.39189
O         48.41510        6.48447       22.32808
C         51.11055        7.19466       22.28469
C         52.45839        7.80932       22.59818
O         53.28617        7.10851       23.15589
O         52.82307        9.05874       22.24856
H         50.54041        9.57171       20.13766
H         49.78821        8.87640       22.16965
H         51.31068        6.26412       21.71430
H         50.67776        6.89421       23.26569
N         47.95758        7.28339       20.28827
C         46.75996        6.47276       20.12974
C         45.75831        6.69369       21.23938
O         45.84329        7.68954       21.94285
H         48.20667        7.92930       19.53776
H         47.06188        5.40485       20.11993
H         46.27292        6.69359       19.15292
N         44.78036        5.76684       21.45994
C         43.76916        5.87971       22.51133
C         42.93407        7.13866       22.32531
O         42.69956        7.87018       23.27814
C         44.40849        5.77468       23.92189
C         44.88506        4.37462       24.23359
N         44.47283        3.75049       25.36483
O         45.65110        3.80376       23.47182
H         44.75150        4.93295       20.85302
H         43.06015        5.02969       22.39623
H         43.66331        6.05548       24.69603
H         45.25683        6.48345       24.00978
H         43.85317        4.22944       26.03570
H         44.79326        2.79569       25.58323
N         42.42163        7.43017       21.09800
C         41.56827        8.58017       20.83879
C         42.29910        9.90677       20.77866
O         41.70293       10.87036       20.31649
H         42.62009        6.79202       20.31169
H         40.71288        8.61057       21.54667
H         41.14866        8.43844       19.81920
N         43.59459       10.03581       21.18645
C         44.38679       11.22312       20.93104
C         44.75061       11.93105       22.21446
O         45.22869       11.29887       23.14675
C         45.69629       10.85301       20.21451
C         45.49772        9.92078       19.01893
O         46.27927       12.05048       19.78060
H         44.06685        9.25519       21.64217
H         43.83821       11.92049       20.25778
H         46.36710       10.32445       20.93742
H         47.24120       11.87628       19.70976
H         46.48117        9.71700       18.54636
H         45.08487        8.94762       19.35708
H         44.81416       10.37259       18.27331
N         44.63584       13.28379       22.27963
C         45.06408       14.07454       23.43096
C         46.53039       13.83671       23.74631
O         47.28820       13.55500       22.83365
C         44.75654       15.57082       23.16157
C         44.91574       16.40373       24.44695
C         45.58370       16.15439       21.98824
C         44.33608       17.80591       24.29354
H         44.24723       13.77005       21.45882
H         44.45725       13.73258       24.29942
H         43.68078       15.60394       22.87962
H         45.98159       16.46103       24.76087
H         44.33795       15.90503       25.25271
H         46.66192       16.21555       22.24681
H         45.48667       15.54750       21.06543
H         45.22486       17.16866       21.72393
H         43.27892       17.73603       23.95584
H         44.36335       18.32494       25.27230
H         44.91648       18.40386       23.56333
N         46.98224       13.86781       25.03575
C         48.31077       13.40105       25.41089
C         48.21700       12.62740       26.72369
O         48.97699       12.86435       27.64984
C         49.33074       14.56023       25.36305
C         50.76471       14.10082       25.40450
O         51.17116       13.29061       24.58724
O         51.62462       14.63821       26.29021
H         46.31074       14.07550       25.78084
H         48.62890       12.64741       24.65748
H         49.13032       15.29046       26.17474
H         49.20289       15.08072       24.39135
N         47.29369       11.62719       26.81331
C         47.24138       10.66207       27.90395
C         46.85709       11.14819       29.31759
O         47.44502       10.59988       30.24561
C         46.43039        9.39277       27.51489
C         44.92462        9.53436       27.53496
C         44.20315        9.02263       28.62657
C         44.22473       10.15278       26.48128
C         42.81398        9.14919       28.67830
C         42.83280       10.27859       26.53964
C         42.12923        9.78092       27.63925
H         46.69777       11.45972       25.99477
H         48.27684       10.25544       27.98056
H         46.70781        8.61341       28.25874
H         46.75801        8.98937       26.53044
H         44.72122        8.54203       29.44736
H         44.74684       10.53921       25.62088
H         42.27116        8.76562       29.53209
H         42.29940       10.76478       25.73310
H         41.05343        9.88410       27.68716
N         45.84148       12.03683       29.62520
C         45.01528       12.74811       28.65735
C         45.45169       14.19742       28.45853
O         44.93310       14.84476       27.55758
C         43.62901       12.82434       29.36227
C         43.78459       12.05174       30.67759
C         45.27185       12.09472       30.96030
H         44.95208       12.21918       27.69879
H         43.37962       13.87828       29.62968
H         42.78395       12.43623       28.75507
H         43.13877       12.42185       31.50638
H         43.53300       10.99668       30.47934
H         45.50305       13.05692       31.44647
H         45.58863       11.28174       31.65140
N         46.21371       14.83316       29.39132
C         46.33551       16.28037       29.45998
C         47.45337       16.76493       28.57642
O         48.55358       16.23287       28.64547
C         46.54444       16.72608       30.92219
C         45.28960       16.43516       31.77086
C         45.46629       16.90735       33.18321
O         46.44512       16.39139       33.95024
O         44.71427       17.75010       33.64681
H         46.57679       14.29904       30.18715
H         45.38240       16.76592       29.14637
H         46.72053       17.82382       30.94154
H         47.43518       16.21721       31.35364
H         45.06772       15.34891       31.78964
H         44.41389       16.95454       31.31950
N         47.23555       17.81396       27.73532
C         48.24216       18.33923       26.83919
H         49.19357       17.76990       26.88144
H         47.84782       18.29494       25.80324
H         48.44953       19.39925       27.09786
H         46.31479       18.27851       27.74171
Ca        51.88001       11.03864       22.76572
O         49.51151       12.02362       21.79643
H         50.19569       12.24159       21.12130
H         49.42894       12.87455       22.28439
O         53.24005       10.66983       25.22776
H         52.56032       10.11516       25.68664
H         54.10768       10.26715       25.48048
O         52.53574       13.99373       21.95829
H         52.14257       14.83157       22.31034
H         52.82391       14.21982       21.03866
O         49.94302       10.23601       24.48935
H         50.11679        9.26196       24.50861
H         49.20516       10.34907       23.83920
O         54.80350       11.21960       22.17368
H         55.28994       12.07732       22.25365
H         54.89499       10.96837       21.22049
O         52.38258       11.16226       20.07954
H         52.77372       10.25436       20.10440
H         52.13515       11.29774       19.13496

Ca 1.70



