%chk=loop2.cluster143.chk
%nprocshared=48
%mem=10GB
%nosave
#b3lyp/svp scf=(tight,noincore) Test 
#IOP(5/87=12) Density=Current Pop=(MK,readradii) iop(6/33=2) iop(6/42=6)

loop2.cluster143 

   -2  1 
C          7.27184       69.52808       10.95106
C          6.42324       69.84465        9.76031
O          6.73601       70.76820        9.02192
H          8.14762       70.20818       10.99870
H          6.66736       69.64354       11.87422
H          7.63495       68.48026       10.88016
N          5.32736       69.08577        9.49475
C          4.49945       69.30987        8.31981
C          3.76877       70.63244        8.42801
O          3.21503       70.91491        9.48334
C          3.49162       68.15274        8.14232
C          3.26733       67.87436        6.69323
O          2.72659       68.68559        5.97590
O          3.74336       66.74139        6.16475
H          5.11716       68.28977       10.11770
H          5.18209       69.29015        7.44365
H          2.53488       68.32461        8.68442
H          3.93840       67.21546        8.53043
N          3.67315       71.46760        7.35578
C          2.93612       72.72663        7.40135
C          1.64516       72.66451        6.58045
O          0.89449       73.62831        6.58323
C          3.85387       73.84301        6.90407
H          4.09847       71.17843        6.46245
H          2.64045       72.96085        8.44821
H          3.38529       74.83686        7.05802
H          4.81651       73.81302        7.45933
H          4.06879       73.70305        5.82209
N          1.33270       71.54922        5.85471
C          0.11406       71.37855        5.07393
C         -0.67175       70.11520        5.48690
O         -1.73498       69.88190        4.92707
C          0.48897       71.41133        3.57511
C          1.46370       70.36314        3.14281
O          2.56195       70.68312        2.71628
O          1.10658       69.07496        3.15571
H          2.00466       70.79232        5.81543
H         -0.56714       72.24104        5.23410
H          0.95407       72.40025        3.37256
H         -0.41832       71.31668        2.94505
N         -0.24607       69.29449        6.50058
C         -1.02643       68.17533        7.02152
C         -1.01596       66.90190        6.19642
O         -1.58671       65.91972        6.65228
H          0.61418       69.52631        7.01178
H         -2.06898       68.50306        7.22550
H         -0.57830       67.88195        7.99563
N         -0.38071       66.81771        4.99294
C         -0.35381       65.57904        4.22105
C          0.53118       64.49290        4.85406
O          0.52462       63.36838        4.37263
C         -0.02319       65.85585        2.72965
C          1.39710       66.33237        2.30336
N          1.87053       65.50664        1.19130
O          2.33116       66.31844        3.34993
H          0.04806       67.65430        4.60193
H         -1.39794       65.18979        4.20281
H         -0.73793       66.62218        2.35485
H         -0.27916       64.92700        2.17370
H          1.17863       65.53506        0.40654
H          2.78186       65.87008        0.83732
N          1.31778       64.76584        5.93896
C          2.15929       63.78459        6.61808
C          3.19875       63.16648        5.70405
O          3.42816       61.96829        5.75826
H          1.33978       65.72493        6.30950
H          1.54481       63.00242        7.11103
H          2.70614       64.32990        7.42107
N          3.85667       63.96162        4.82660
C          4.85861       63.52820        3.86181
C          5.80303       64.70025        3.66781
O          5.35589       65.82383        3.47804
C          4.18939       63.11839        2.54708
C          5.20490       62.80755        1.44134
O          3.40720       61.97124        2.77009
H          3.55999       64.93447        4.78329
H          5.42936       62.65436        4.25186
H          3.57216       63.97448        2.21131
H          2.46885       62.19095        2.54296
H          4.66340       62.63284        0.48940
H          5.90013       63.65839        1.27726
H          5.80090       61.90510        1.69447
N          7.13514       64.50834        3.79328
C          8.01840       65.61238        4.12864
C          8.52653       66.29174        2.87739
O          9.10308       65.62792        2.02593
C          9.20238       65.16856        5.05312
C          8.80918       64.02659        6.03534
C          9.72692       66.39382        5.83442
C          9.92414       63.61622        6.98398
H          7.46369       63.54466        3.87800
H          7.42984       66.31836        4.75466
H         10.01992       64.76776        4.41552
H          8.61938       63.10386        5.45853
H          7.89414       64.28060        6.61472
H         10.63809       66.14219        6.41207
H          9.99834       67.21482        5.15180
H          8.95262       66.76593        6.54324
H         10.86829       63.47210        6.41680
H         10.06073       64.38132        7.77326
H          9.64876       62.65541        7.46809
N          8.41135       67.63852        2.73890
C          9.05670       68.38156        1.66779
C         10.40039       68.85181        2.17346
O         10.63621       68.74854        3.36103
C          8.16615       69.57969        1.29171
C          6.78789       69.13522        0.89591
O          5.72274       69.51809        1.62365
O          6.62810       68.41972       -0.07856
H          8.01256       68.17193        3.51573
H          9.23143       67.72005        0.79112
H          8.61408       70.16421        0.46287
H          8.07492       70.24476        2.18280
N         11.36541       69.33207        1.34693
C         12.66938       69.75459        1.85599
C         12.55921       70.91648        2.85078
O         13.18642       70.82887        3.89202
C         13.65771       70.03528        0.70671
C         15.05101       70.40637        1.17751
C         15.64855       71.59564        0.72520
C         15.77446       69.56461        2.04704
C         16.94451       71.93308        1.12763
C         17.06508       69.91530        2.45660
C         17.65109       71.09531        1.99358
H         11.18301       69.35494        0.33011
H         13.10701       68.89399        2.41285
H         13.25952       70.82427        0.04043
H         13.74256       69.10559        0.10304
H         15.11638       72.25363        0.05007
H         15.34460       68.64116        2.41057
H         17.40253       72.84384        0.76455
H         17.61385       69.26830        3.12938
H         18.65416       71.35921        2.30350
N         11.76356       72.01587        2.62993
C         11.59361       73.07087        3.62489
C         11.12670       72.52146        4.96789
O         11.67966       72.88992        5.99709
C         10.49643       73.95728        3.01146
C         10.64635       73.71507        1.52115
C         10.95934       72.22746        1.45275
H         12.54704       73.63627        3.71439
H          9.49304       73.56387        3.28462
H         10.55673       75.02427        3.31937
H          9.77664       74.03116        0.90483
H         11.55205       74.26201        1.18023
H         10.03815       71.62179        1.54793
H         11.47654       72.02333        0.49609
N         10.12339       71.59650        5.01808
C          9.65229       70.97087        6.25303
C         10.80392       70.22407        6.94921
O         10.93671       70.33074        8.15857
C          8.46560       70.01635        5.95221
C          7.18583       70.70379        5.37696
C          6.14763       69.66673        4.94446
O          5.02171       70.00643        4.27795
O          6.33886       68.48745        5.17649
H          9.70574       71.29077        4.12350
H          9.26376       71.74310        6.95077
H          8.17119       69.47751        6.87910
H          8.82882       69.27210        5.22370
H          7.45669       71.31519        4.49177
H          6.75062       71.39364        6.13710
N         11.68873       69.47228        6.23248
C         12.84299       68.81793        6.81426
H         13.60791       69.57613        7.08597
H         12.55840       68.21131        7.69717
H         13.30345       68.13935        6.05970
H         11.57722       69.39982        5.22855
Ca         3.67700       68.25155        3.51132

Ca 1.70



