%chk=loop2.cluster129.chk
%nprocshared=48
%mem=10GB
%nosave
#b3lyp/svp scf=(tight,noincore) Test 
#IOP(5/87=12) Density=Current Pop=(MK,readradii) iop(6/33=2) iop(6/42=6)

loop2.cluster129 

   -2  1 
C         57.59532       86.74210       15.26991
C         57.70534       85.90999       16.51501
O         56.72032       85.72413       17.21328
H         58.10264       87.71827       15.42870
H         58.10488       86.22271       14.43160
H         56.53685       86.92703       14.99252
N         58.89787       85.34157       16.83331
C         59.13669       84.56227       18.04553
C         59.55654       85.46073       19.21604
O         59.60926       84.98833       20.34009
C         60.30327       83.59854       17.73563
C         60.70242       82.69127       18.86165
O         59.82835       81.79421       19.35275
O         61.83707       82.74118       19.31074
H         59.66655       85.44224       16.15135
H         58.22423       83.96969       18.29729
H         61.18503       84.21663       17.44728
H         60.02450       82.96863       16.86515
N         59.95354       86.75011       18.98881
C         60.55578       87.62780       19.99344
C         59.66171       87.82928       21.20160
O         60.10542       87.71326       22.33962
C         61.96658       87.14668       20.33911
H         59.89279       87.12921       18.03704
H         60.67239       88.62097       19.50449
H         62.48533       87.90707       20.95996
H         61.93791       86.17979       20.88235
H         62.54734       87.01087       19.40025
N         58.35602       88.12596       20.99489
C         57.34886       88.33565       22.01703
C         57.21187       87.12262       22.93535
O         57.18358       87.27300       24.14425
C         57.59190       89.63984       22.77911
C         57.80090       90.91956       21.98230
O         58.11088       91.90643       22.62898
O         57.73603       91.05857       20.62172
H         58.04735       88.18137       20.02375
H         56.37360       88.45051       21.51597
H         58.50885       89.50340       23.39279
H         56.74725       89.80569       23.48435
N         57.10729       85.87675       22.39642
C         56.85772       84.67906       23.18382
C         55.46291       84.70058       23.76461
O         54.53325       85.07344       23.06409
H         57.19938       85.76839       21.37775
H         57.63783       84.51411       23.95991
H         56.91009       83.81876       22.49473
N         55.24001       84.25332       25.03506
C         53.93741       84.27822       25.69817
C         52.80672       83.73257       24.83097
O         51.82953       84.42745       24.58317
C         53.71403       85.66636       26.33322
C         54.75189       85.86927       27.42138
N         55.98228       86.34496       27.12654
O         54.49649       85.53011       28.56708
H         56.03897       83.89388       25.57721
H         53.97380       83.57517       26.55884
H         52.71275       85.69014       26.81531
H         53.74703       86.48900       25.58479
H         56.21031       86.62416       26.16896
H         56.70488       86.42942       27.85733
N         52.89562       82.46025       24.34261
C         51.86152       81.82625       23.53401
C         52.24109       81.76026       22.06679
O         51.48042       81.20809       21.28434
H         53.75276       81.91948       24.53352
H         50.90108       82.38042       23.59168
H         51.67899       80.80582       23.93988
N         53.39080       82.33569       21.61316
C         53.73395       82.42872       20.20086
C         52.85163       83.46710       19.52531
O         52.64549       84.53407       20.08962
C         55.20771       82.88858       20.02383
C         56.20478       81.94244       20.69013
O         55.54002       82.91736       18.65993
H         54.03400       82.76104       22.28841
H         53.65408       81.43055       19.71529
H         55.34357       83.89897       20.48232
H         55.22964       83.77935       18.29936
H         56.16079       80.94238       20.21303
H         57.22912       82.35450       20.55900
H         56.01151       81.82927       21.77489
N         52.43196       83.27505       18.24264
C         51.76976       84.32599       17.45463
C         52.63193       85.58288       17.39363
O         53.82645       85.49544       17.62517
C         51.42963       83.82178       16.01817
C         52.71480       83.40757       15.23130
C         50.38545       82.69543       16.10296
C         52.43186       82.77022       13.87049
H         52.64490       82.36886       17.80596
H         50.82861       84.60083       17.98286
H         50.94444       84.64990       15.45395
H         53.34203       82.68350       15.79035
H         53.32906       84.31939       15.06895
H         50.77091       81.81099       16.64831
H         49.47803       83.07242       16.62109
H         50.06459       82.37768       15.09047
H         51.74852       83.40511       13.27123
H         53.38433       82.63366       13.31570
H         51.98388       81.76191       14.00590
N         52.06782       86.80923       17.19482
C         52.84296       88.03692       17.34283
C         52.36839       88.75915       18.58148
O         51.98538       89.92502       18.52840
C         52.80709       88.91794       16.09024
C         53.76804       90.08629       16.22656
O         53.80594       90.93138       15.34758
O         54.59392       90.17535       17.31237
H         51.05596       86.87607       17.04819
H         53.90456       87.78391       17.51119
H         51.76728       89.27189       15.92530
H         53.12011       88.32145       15.20570
N         52.40289       88.10375       19.76397
C         52.10776       88.72324       21.03355
C         50.70161       89.32385       21.10817
O         50.60752       90.48995       21.45269
C         52.38081       87.72075       22.17598
C         52.39031       88.39920       23.50958
C         51.28633       88.29772       24.36594
C         53.51206       89.14532       23.90258
C         51.29827       88.95035       25.59935
C         53.52791       89.78291       25.14325
C         52.41872       89.69103       25.98933
H         52.72032       87.12203       19.76092
H         52.83263       89.54765       21.17961
H         53.38015       87.25304       22.03334
H         51.65699       86.88676       22.17826
H         50.41468       87.73006       24.06964
H         54.37295       89.22010       23.24937
H         50.43774       88.88292       26.25082
H         54.39813       90.35012       25.44595
H         52.42679       90.19401       26.94608
N         49.55658       88.60093       20.85745
C         49.48449       87.21017       20.45316
C         48.91668       87.11468       19.02043
O         48.26280       86.13912       18.69019
C         48.44574       86.74169       21.47850
C         47.39558       87.86305       21.40424
C         48.25945       89.12401       21.27055
H         50.41624       86.62323       20.49126
H         48.04319       85.72045       21.32305
H         48.92714       86.77602       22.48266
H         46.81858       87.71849       20.46679
H         46.67787       87.89218       22.25373
H         47.83408       89.87814       20.56999
H         48.35873       89.56285       22.28609
N         49.02789       88.18743       18.18300
C         48.17975       88.39089       17.01182
C         48.40780       87.44773       15.83874
O         49.50715       87.38842       15.30581
C         48.36221       89.84405       16.53137
C         47.26958       90.27450       15.54844
C         47.51868       91.67973       15.09258
O         48.51884       91.94404       14.44420
O         46.64473       92.65577       15.40152
H         49.61464       88.97483       18.48163
H         47.13051       88.30301       17.36577
H         49.37559       89.96512       16.08766
H         48.28726       90.52371       17.41032
H         46.28794       90.21705       16.07016
H         47.23576       89.60974       14.66016
N         47.34150       86.79779       15.28943
C         47.41971       86.10354       14.01985
H         47.09099       86.79888       13.21571
H         48.44495       85.74470       13.79118
H         46.72231       85.24055       14.02269
H         46.40565       86.95492       15.69037
Ca        56.32650       90.74787       18.78399
O         56.65609       92.12784       15.25369
H         56.05277       92.57084       14.60601
H         56.10764       91.41537       15.66004
O         56.24979       93.36596       20.25081
H         55.50509       93.97546       20.47240
H         56.80669       93.36720       21.06662
O         58.50600       92.71872       18.00992
H         58.38557       93.48097       17.39027
H         59.30389       92.95190       18.54721
O         55.90133       88.20879       18.73279
H         55.51057       87.97094       19.60610
H         56.65719       87.59609       18.60129
O         54.56131       93.26865       17.56104
H         53.68366       92.84452       17.38809
H         54.62821       93.98147       16.87838
O         58.56452       89.89815       17.12460
H         59.35426       89.30466       17.08381
H         58.69465       90.53606       16.37896
O         54.13059       91.24240       20.10685
H         54.14593       91.65551       21.00363
H         53.52688       91.80743       19.56685

Ca 1.70



