%chk=loop2.cluster125.chk
%nprocshared=48
%mem=10GB
%nosave
#b3lyp/svp scf=(tight,noincore) Test 
#IOP(5/87=12) Density=Current Pop=(MK,readradii) iop(6/33=2) iop(6/42=6)

loop2.cluster125 

   -2  1 
C         86.56585       78.61090        5.89108
C         86.60149       77.22831        6.49590
O         86.91530       77.12024        7.67204
H         86.70509       79.37888        6.68239
H         87.37870       78.72660        5.14398
H         85.58182       78.81011        5.41737
N         86.24956       76.10451        5.79797
C         85.74433       76.11814        4.42900
C         86.40773       75.03751        3.51934
O         85.64644       73.86397        3.57884
C         84.18834       76.07489        4.42699
C         83.51734       75.10087        5.37470
O         84.13268       74.19165        5.89901
O         82.24649       75.32839        5.75309
H         86.24053       75.21454        6.31021
H         86.00121       77.09328        3.97040
H         83.78516       75.94758        3.39687
H         83.85877       77.07176        4.77727
N         86.37373       75.56190        2.13078
C         86.78688       74.74432        0.96695
C         85.62257       73.91724        0.47758
O         84.99005       74.30500       -0.49784
C         88.08983       73.94725        1.14539
H         86.85896       76.48757        2.07794
H         86.99481       75.47726        0.15164
H         87.99353       73.14182        1.90052
H         88.36610       73.47969        0.17316
H         88.91953       74.61950        1.44778
N         85.25559       72.77518        1.11537
C         84.06319       72.02636        0.76078
C         83.43144       71.38161        1.97583
O         83.96123       71.49146        3.07782
C         84.38962       71.02217       -0.36310
C         85.47883       70.04166       -0.02242
O         85.27351       69.09278        0.91012
O         86.53587       70.06922       -0.63311
H         85.85732       72.41111        1.86253
H         83.28818       72.73026        0.38141
H         84.70849       71.61523       -1.24474
H         83.48493       70.45147       -0.65384
N         82.27535       70.68225        1.84465
C         81.64921       69.99289        2.95130
C         80.20282       70.36122        3.11271
O         79.66311       71.11254        2.30517
H         81.84134       70.60340        0.91066
H         82.18497       70.16247        3.89880
H         81.68955       68.90301        2.74196
N         79.47802       69.76422        4.09552
C         78.02471       69.80582        4.14035
C         77.50427       70.15035        5.52409
O         78.29142       70.35959        6.44136
C         77.52686       68.39918        3.73774
C         78.07364       67.98326        2.39337
N         79.24917       67.31428        2.30869
O         77.46508       68.27413        1.37491
H         79.96773       69.12541        4.74616
H         77.61721       70.54533        3.41507
H         76.42006       68.34771        3.69945
H         77.85696       67.66001        4.50142
H         79.78320       67.08070        3.15935
H         79.63336       67.04515        1.39124
N         76.16071       70.14486        5.75636
C         75.58060       70.25724        7.08120
C         75.17382       68.88003        7.57025
O         75.41423       67.90703        6.86576
H         75.52113       69.92347        4.97773
H         74.68545       70.91308        7.02113
H         76.29863       70.70255        7.80399
N         74.58652       68.67489        8.78189
C         74.32285       69.72912        9.76196
C         75.29430       69.62743       10.93118
O         75.42741       70.59074       11.67259
C         72.85127       69.66007       10.23798
C         71.89009       70.01689        9.09748
O         72.57276       68.36709       10.71953
H         74.36351       67.70082        9.04113
H         74.50833       70.72892        9.32309
H         72.70503       70.39932       11.05788
H         71.68229       68.39852       11.15755
H         72.09151       71.05285        8.75105
H         72.00467       69.31888        8.24163
H         70.83948       69.97116        9.45605
N         76.02702       68.49522       11.13363
C         77.02838       68.30751       12.16736
C         76.41660       68.43912       13.55489
O         76.26842       69.55373       14.03526
C         78.31391       69.14800       11.96922
C         78.87248       69.06984       10.52119
C         79.37628       68.67726       12.97837
C         79.01524       67.65465        9.94426
H         75.86153       67.67936       10.53332
H         77.37494       67.27505       12.02656
H         78.10837       70.22115       12.17647
H         79.86534       69.56999       10.50786
H         78.20768       69.63818        9.83529
H         79.00903       68.82059       14.01356
H         79.60522       67.59996       12.83640
H         80.31398       69.25941       12.87675
H         78.01672       67.20504        9.76423
H         79.52937       67.70703        8.96262
H         79.59439       66.98946       10.61442
N         75.98013       67.35439       14.25752
C         76.07779       65.98632       13.76050
C         77.50872       65.48635       13.85454
O         78.06295       65.05188       12.85246
C         75.05289       65.03243       14.41814
C         75.01440       64.85522       15.91891
O         74.30345       63.98275       16.38765
O         75.65741       65.68563       16.75700
H         75.52339       67.52483       15.16410
H         75.75618       65.96036       12.69328
H         75.21744       64.03532       13.95443
H         74.03420       65.36620       14.12033
N         78.17196       65.54720       15.03898
C         79.54525       65.12123       15.23246
C         79.56398       63.92187       16.18640
O         78.52959       63.65752       16.79070
C         80.37691       66.32717       15.74357
C         79.89275       66.95687       17.03662
C         78.82580       67.87974       17.03837
C         80.54169       66.66351       18.24647
C         78.42020       68.49032       18.22870
C         80.12894       67.27502       19.43531
C         79.07210       68.18942       19.42589
H         77.68247       65.91728       15.85054
H         79.96007       64.81559       14.26299
H         80.40116       67.11964       14.97391
H         81.43581       66.05723       15.85243
H         78.31582       68.13675       16.12031
H         81.36514       65.96136       18.26670
H         77.60471       69.20328       18.22147
H         80.63352       67.04461       20.36402
H         78.76121       68.66831       20.34575
N         80.66823       63.12556       16.39389
C         81.98333       63.27247       15.77646
C         82.05459       63.11269       14.26880
O         81.04297       62.90964       13.61244
C         82.80021       62.15325       16.43340
C         82.14282       62.02863       17.79021
C         80.66856       62.09939       17.41448
H         82.40983       64.24033       16.08371
H         82.61408       61.19095       15.90224
H         83.89387       62.34759       16.45284
H         82.43584       61.12788       18.36761
H         82.39954       62.94039       18.37810
H         80.32480       61.14195       16.96237
H         80.06766       62.35332       18.31525
N         83.27674       63.15189       13.66290
C         83.45859       63.08343       12.22529
C         84.37368       64.20044       11.67896
O         84.77736       64.06926       10.53159
C         84.05875       61.70775       11.85197
C         83.21743       60.52810       12.36336
C         83.69878       59.23922       11.76047
O         82.95003       58.57597       11.06017
O         84.95935       58.81715       11.97511
H         84.11969       63.20969       14.25115
H         82.48426       63.14297       11.68876
H         85.09694       61.61126       12.23791
H         84.08654       61.64837       10.74010
H         82.15264       60.67893       12.08149
H         83.28265       60.46396       13.47158
N         84.77755       65.32033       12.36698
C         84.27818       65.77854       13.64932
H         83.20750       65.54581       13.79888
H         84.94507       65.45542       14.47654
H         84.29516       66.88981       13.64796
H         85.41988       65.96462       11.87977
Ca        85.86190       72.28217        5.23053
O         84.97329       69.15378        5.45460
H         85.04981       68.40707        6.10021
H         84.60524       68.73891        4.63432
O         87.83453       70.38457        6.16425
H         88.43058       70.56226        6.93269
H         88.45248       70.23915        5.40586
O         82.86023       71.33687        6.04722
H         82.41839       70.45374        6.12625
H         82.20703       71.90196        5.56192
O         87.89063       73.43798        6.37941
H         87.92317       73.51273        7.36410
H         88.82578       73.35216        6.07798
O         85.59675       71.86066        8.15159
H         85.07042       72.51320        8.67765
H         86.52182       71.95695        8.49014
O         86.92497       70.54795        3.37523
H         86.25467       70.31983        2.69205
H         87.70961       69.99490        3.14542

Ca 1.70



