%chk=loop2.cluster87.chk
%nprocshared=48
%mem=10GB
%nosave
#b3lyp/svp scf=(tight,noincore) Test 
#IOP(5/87=12) Density=Current Pop=(MK,readradii) iop(6/33=2) iop(6/42=6)

loop2.cluster87 

   -2  1 
C         58.35402       28.94301       12.91840
C         58.79791       28.93878       11.48280
O         58.03557       28.54470       10.61962
H         57.31740       28.55503       13.02326
H         59.03635       28.31680       13.52913
H         58.37563       29.98504       13.30385
N         60.02606       29.41863       11.15104
C         60.48797       29.54839        9.76643
C         60.76295       28.20580        9.07433
O         60.74228       28.15368        7.85213
C         61.73223       30.44622        9.76349
C         62.20550       30.83260        8.39651
O         63.47094       30.56432        8.02549
O         61.46304       31.43202        7.63506
H         60.61414       29.79004       11.91242
H         59.68592       30.07796        9.21168
H         62.54440       29.93061       10.32070
H         61.47725       31.38421       10.30390
N         60.98866       27.07487        9.80716
C         61.07579       25.71898        9.25531
C         59.80368       25.38907        8.50395
O         59.84464       24.76882        7.44947
C         62.34917       25.45763        8.43620
H         61.01264       27.15762       10.83238
H         61.12014       25.03657       10.13092
H         63.24564       25.73351        9.02827
H         62.41843       24.36983        8.20600
H         62.35440       26.01715        7.47748
N         58.62150       25.82973        9.01377
C         57.32312       25.70448        8.38572
C         57.36691       25.73959        6.87002
O         56.86565       24.82966        6.22334
C         56.57184       24.52601        9.02324
C         55.13323       24.56634        8.62928
O         54.59211       23.61750        8.08633
O         54.43682       25.66158        8.94736
H         58.64294       26.34024        9.90495
H         56.77361       26.62072        8.65627
H         56.61104       24.65468       10.12980
H         57.05166       23.56252        8.75958
N         57.95266       26.79406        6.23370
C         57.99311       26.85810        4.78368
C         58.65584       28.10266        4.22957
O         59.16593       28.93000        4.97118
H         58.36257       27.55262        6.79791
H         56.94983       26.84350        4.40346
H         58.52889       25.96584        4.39147
N         58.66970       28.27875        2.87997
C         59.24156       29.45399        2.21586
C         58.49593       30.73877        2.54683
O         57.38340       30.66711        3.03583
C         59.22292       29.27904        0.67475
C         57.83336       29.03192        0.09617
N         57.21789       29.97120       -0.65617
O         57.26660       27.96807        0.29645
H         58.27087       27.52118        2.31346
H         60.29447       29.55786        2.55810
H         59.87933       28.43347        0.38092
H         59.65515       30.19767        0.22437
H         57.66248       30.88192       -0.83250
H         56.27987       29.78645       -1.04447
N         59.02957       31.96156        2.22849
C         58.30937       33.21035        2.45892
C         58.17684       33.44686        3.93376
O         59.18385       33.73001        4.57388
H         59.96345       32.00511        1.79417
H         57.32021       33.14665        1.95849
H         58.86165       34.06824        2.01590
N         56.99446       33.21117        4.57384
C         56.97271       32.99357        6.01368
C         55.70389       33.49603        6.67353
O         54.77147       33.90710        5.98855
C         57.23183       31.46729        6.22581
C         57.60910       31.03979        7.63508
O         56.12827       30.69441        5.83612
H         56.19226       32.88400        4.00989
H         57.80995       33.56180        6.47752
H         58.12308       31.20321        5.61354
H         56.00700       30.76691        4.86214
H         56.73947       31.05815        8.31485
H         57.94697       29.98307        7.60452
H         58.43055       31.67827        8.02125
N         55.60380       33.46596        8.02986
C         54.40783       33.81713        8.78093
C         53.71110       32.56194        9.21867
O         54.35285       31.52239        9.26536
C         54.76979       34.70594       10.00371
C         53.49382       35.13645       10.76149
C         55.75133       33.98847       10.97751
C         53.73500       36.35723       11.63980
H         56.40963       33.10964        8.55117
H         53.70178       34.35334        8.10667
H         55.25675       35.61592        9.59268
H         53.10146       34.28968       11.37109
H         52.71029       35.43835       10.03511
H         55.32928       33.02039       11.32858
H         56.73459       33.78252       10.51290
H         55.97436       34.59739       11.87155
H         54.04438       37.20646       10.99286
H         52.79162       36.63045       12.15442
H         54.51641       36.17589       12.40175
N         52.37380       32.54583        9.47286
C         51.67421       31.30115        9.71906
C         50.20684       31.44801        9.38138
O         49.91584       31.88139        8.27046
C         52.00794       30.72428       11.12073
C         51.83328       29.23889       11.09555
O         52.89750       28.49930       10.77542
O         50.72989       28.71987       11.12152
H         51.82961       33.41506        9.34299
H         52.05531       30.58620        8.95931
H         51.48332       31.22857       11.95934
H         53.08916       30.87349       11.31739
N         49.21986       31.05520       10.23156
C         47.82676       31.06616        9.83947
C         47.00723       30.15726       10.75305
O         46.38427       29.25102       10.21660
C         47.27035       32.50530        9.73261
C         45.88430       32.52317        9.14480
C         45.69743       32.38137        7.75866
C         44.76814       32.69409        9.97636
C         44.40780       32.42032        7.21786
C         43.48242       32.71513        9.43524
C         43.30122       32.58336        8.05669
H         49.46265       30.65301       11.14220
H         47.76306       30.61221        8.82138
H         47.91468       33.14554        9.09368
H         47.26051       33.00083       10.71678
H         46.54918       32.25936        7.10004
H         44.89287       32.79901       11.04144
H         44.26564       32.32607        6.14912
H         42.62741       32.83705       10.08678
H         42.30350       32.60928        7.63949
N         46.95267       30.28087       12.12616
C         47.57477       31.30420       12.95032
C         48.58541       30.76003       13.96532
O         48.87611       31.47070       14.91150
C         46.33197       31.79292       13.70750
C         45.37159       30.57589       13.78860
C         46.02626       29.50663       12.91478
H         48.09335       32.12421       12.42695
H         46.48866       32.34671       14.65756
H         45.84944       32.51489       13.02002
H         45.19952       30.18226       14.81302
H         44.39987       30.89210       13.34742
H         46.61811       28.85157       13.58249
H         45.30804       28.86159       12.36369
N         49.13787       29.51706       13.84717
C         49.98419       28.89533       14.87793
C         51.36538       29.54976       14.99628
O         52.34074       28.98624       14.51625
C         50.11442       27.36626       14.60437
C         48.74852       26.64917       14.51700
C         47.94647       26.79158       15.77985
O         48.35257       26.18440       16.91014
O         46.92078       27.45384       15.78397
H         48.88933       28.96141       13.01922
H         49.48174       28.96956       15.86698
H         50.71340       26.89745       15.41739
H         50.65177       27.20222       13.64440
H         48.89262       25.56937       14.30356
H         48.16867       27.05459       13.66612
N         51.53038       30.70879       15.70046
C         52.81020       31.37366       15.85075
H         53.62488       30.87679       15.28447
H         52.72246       32.41963       15.48703
H         53.08522       31.39622       16.92628
H         50.73000       31.13031       16.18430
Ca        52.84761       27.18615        8.97755
O         54.62013       27.29444        6.13020
H         54.80435       26.44463        5.65967
H         54.73721       27.98743        5.43318
O         51.85275       28.07806        5.40458
H         52.16912       28.67225        4.67832
H         51.41866       27.31960        4.94216
O         55.50364       28.65712        8.94233
H         54.86176       29.32158        9.26850
H         55.85589       28.28727        9.78462
O         50.80367       25.56617        8.71706
H         50.14541       26.00576        9.31094
H         51.35724       25.01140        9.32396
O         53.20683       30.01079        6.88111
H         53.10086       30.90932        6.48170
H         54.16798       29.81033        6.79748
O         50.40817       28.74886        7.94352
H         49.53325       28.52609        8.34832
H         50.18161       29.23050        7.10906

Ca 1.70



