%chk=loop2.cluster42.chk
%nprocshared=48
%mem=10GB
%nosave
#b3lyp/svp scf=(tight,noincore) Test 
#IOP(5/87=12) Density=Current Pop=(MK,readradii) iop(6/33=2) iop(6/42=6)

loop2.cluster42 

   -2  1 
C         64.15819       37.39658      -19.47142
C         64.45292       36.34155      -20.48126
O         65.40922       35.59894      -20.31799
H         63.13463       37.23691      -19.07151
H         64.88802       37.35310      -18.63740
H         64.21246       38.38943      -19.96324
N         63.63370       36.20147      -21.55546
C         63.82968       35.17069      -22.55918
C         65.10472       35.46856      -23.33594
O         65.12285       36.38118      -24.15066
C         62.54087       35.08262      -23.38395
C         62.41518       33.93869      -24.31442
O         61.34701       33.77153      -24.86191
O         63.41778       33.06675      -24.51477
H         62.81081       36.82127      -21.62467
H         63.92740       34.20784      -22.03073
H         62.36683       36.02772      -23.93943
H         61.70918       34.94353      -22.65481
N         66.26055       34.83506      -22.97772
C         67.58212       35.23816      -23.45249
C         67.89672       34.73127      -24.85003
O         68.86190       35.18793      -25.44707
C         68.63322       34.70763      -22.47161
H         66.21159       34.14675      -22.21748
H         67.62858       36.35106      -23.43164
H         68.36383       35.02287      -21.43912
H         68.64603       33.59562      -22.49900
H         69.64489       35.09607      -22.70548
N         67.13839       33.75127      -25.41223
C         67.30937       33.26549      -26.77915
C         66.02975       33.52579      -27.57905
O         65.96693       33.13019      -28.73449
C         67.81144       31.79172      -26.81172
C         66.88558       30.79400      -26.20485
O         66.91297       29.63253      -26.57824
O         66.33298       31.10451      -25.03306
H         66.37145       33.35902      -24.85538
H         68.11549       33.83050      -27.29371
H         68.77057       31.73647      -26.24958
H         68.02506       31.48682      -27.85799
N         65.01300       34.29461      -27.05948
C         63.90551       34.78713      -27.86221
C         62.89721       33.74804      -28.29974
O         62.06967       34.07011      -29.14045
H         65.08465       34.67128      -26.10788
H         64.34690       35.26596      -28.76413
H         63.36188       35.57844      -27.30317
N         62.91959       32.47290      -27.81794
C         62.16838       31.39916      -28.47217
C         60.67507       31.31501      -28.11792
O         59.98156       30.47990      -28.67983
C         62.92464       30.07227      -28.25764
C         62.66351       29.39251      -26.93936
N         62.33696       28.07896      -26.91934
O         62.77039       30.01066      -25.89173
H         63.63015       32.22584      -27.11400
H         62.24977       31.58829      -29.56521
H         64.01561       30.27729      -28.34860
H         62.66266       29.37193      -29.07552
H         62.28425       27.54041      -27.79678
H         62.17515       27.58974      -26.02997
N         60.12691       32.12979      -27.17515
C         58.71936       32.12321      -26.79129
C         58.44750       31.45140      -25.45087
O         57.31696       31.52227      -24.98956
H         60.73174       32.80491      -26.72261
H         58.08634       31.63418      -27.56070
H         58.38744       33.18398      -26.72740
N         59.40552       30.72443      -24.80090
C         59.16097       30.02196      -23.53848
C         60.24197       30.30571      -22.51858
O         61.42208       30.28247      -22.83911
C         59.03833       28.49389      -23.73222
C         57.62415       28.10116      -24.16192
O         59.97068       28.01960      -24.66731
H         60.32811       30.61065      -25.24109
H         58.20202       30.34571      -23.07679
H         59.16937       27.98239      -22.74641
H         60.76816       27.72254      -24.16004
H         57.54551       26.99609      -24.23222
H         56.89788       28.43557      -23.38543
H         57.34961       28.56046      -25.13194
N         59.87605       30.51863      -21.22546
C         60.81394       30.77026      -20.14393
C         61.41864       29.46425      -19.65818
O         60.70506       28.49712      -19.42482
C         60.11037       31.60129      -19.04399
C         59.68775       32.96568      -19.66386
C         61.02905       31.84408      -17.82914
C         58.55319       33.62587      -18.89753
H         58.87040       30.50317      -20.99277
H         61.61350       31.43438      -20.50672
H         59.21321       31.03261      -18.71460
H         59.29418       32.83457      -20.69329
H         60.57086       33.64114      -19.74848
H         61.30272       30.88591      -17.34230
H         61.95975       32.35716      -18.14910
H         60.53420       32.47702      -17.06603
H         57.67125       32.94859      -18.91753
H         58.83364       33.84104      -17.84961
H         58.27405       34.57240      -19.40667
N         62.75946       29.40106      -19.45651
C         63.50220       28.21618      -19.06555
C         63.79323       28.29297      -17.58364
O         63.44028       29.28741      -16.97539
C         64.85821       28.24842      -19.82354
C         64.76497       28.51396      -21.30194
O         63.57258       28.60131      -21.92176
O         65.78911       28.70130      -21.93909
H         63.29235       30.26192      -19.56342
H         62.91644       27.29770      -19.28860
H         65.42613       27.31122      -19.66960
H         65.45255       29.09591      -19.40783
N         64.43350       27.30072      -16.91366
C         64.84753       27.45916      -15.52272
C         65.95472       28.54364      -15.37872
O         65.76895       29.42344      -14.55589
C         65.22187       26.10345      -14.90292
C         65.41221       26.19790      -13.40548
C         66.69262       26.05812      -12.85525
C         64.31204       26.41312      -12.54726
C         66.87939       26.14127      -11.47285
C         64.50319       26.48145      -11.16171
C         65.78691       26.34916      -10.62633
H         64.62815       26.41151      -17.40582
H         63.95761       27.79421      -14.93973
H         66.12586       25.70865      -15.40452
H         64.39879       25.37317      -15.08193
H         67.54529       25.89699      -13.50100
H         63.30930       26.51163      -12.94683
H         67.87321       26.04244      -11.05855
H         63.65737       26.63532      -10.50177
H         65.93607       26.40604       -9.55553
N         67.08915       28.59820      -16.17686
C         68.07890       29.68584      -16.08977
C         67.58254       31.06936      -16.53841
O         68.36110       32.01412      -16.48846
C         69.23822       29.16761      -16.95595
C         68.53820       28.30082      -17.98322
C         67.46267       27.59980      -17.15313
H         68.45454       29.80118      -15.05072
H         69.92007       29.94452      -17.36897
H         69.84451       28.47347      -16.33323
H         68.03516       28.98476      -18.70359
H         69.19984       27.61053      -18.55155
H         66.66601       27.30187      -17.84478
H         67.86253       26.71337      -16.61639
N         66.29173       31.28046      -16.90607
C         65.70448       32.59598      -17.16553
C         64.79939       32.96356      -15.99099
O         64.88927       34.07439      -15.49072
C         64.90214       32.54015      -18.47042
C         65.79781       32.29533      -19.69494
C         65.01256       32.02810      -20.94346
O         65.66244       31.70423      -22.06037
O         63.79778       32.05038      -20.95005
H         65.66406       30.47286      -16.94628
H         66.47048       33.39779      -17.26481
H         64.33184       33.48039      -18.63210
H         64.18103       31.71630      -18.35432
H         66.43330       31.40105      -19.52638
H         66.46230       33.17018      -19.85901
N         63.97059       32.02862      -15.44436
C         63.17973       32.22425      -14.25247
H         62.12815       31.93009      -14.45745
H         63.57489       31.54389      -13.46588
H         63.21329       33.26526      -13.87951
H         63.95131       31.09938      -15.84046
Ca        64.61318       30.65798      -23.73101
O         64.77604       27.96304      -24.65308
H         65.14579       27.09583      -24.94575
H         65.26218       28.62428      -25.19932

Ca 1.70



