%chk=loop2.cluster43.chk
%nprocshared=48
%mem=10GB
%nosave
#b3lyp/svp scf=(tight,noincore) Test 
#IOP(5/87=12) Density=Current Pop=(MK,readradii) iop(6/33=2) iop(6/42=6)

loop2.cluster43 

   -2  1 
C         39.06790       44.14677        2.21186
C         37.76547       44.85781        2.45295
O         37.80782       45.96465        2.96990
H         39.90388       44.76222        2.61661
H         39.08573       43.16935        2.73251
H         39.24251       44.01430        1.12386
N         36.54760       44.33905        2.10586
C         36.30814       43.03686        1.48825
C         35.31057       42.19203        2.28613
O         34.68954       42.69855        3.20893
C         35.84777       43.21298        0.01434
C         34.77652       44.24125       -0.33535
O         34.47506       44.38167       -1.50944
O         34.26457       45.10910        0.56425
H         35.72963       44.91857        2.29670
H         37.24663       42.44526        1.47003
H         35.53831       42.22391       -0.38720
H         36.74321       43.53086       -0.56155
N         35.17390       40.85356        1.99290
C         34.27494       39.89739        2.65782
C         32.86082       39.95316        2.09643
O         32.34517       38.92551        1.67737
C         34.37032       39.92093        4.18774
H         35.79887       40.46295        1.27318
H         34.63685       38.88077        2.38339
H         35.43829       39.83325        4.48443
H         33.93664       40.83683        4.63290
H         33.83300       39.04195        4.60883
N         32.20886       41.13499        1.97899
C         30.95245       41.30105        1.26799
C         31.17758       42.22799        0.09177
O         31.79555       43.25019        0.27257
C         29.85228       41.80965        2.22127
C         30.19039       42.68765        3.42479
O         31.08028       43.71152        3.42322
O         29.61847       42.44299        4.47535
H         32.65117       41.98152        2.34258
H         30.56857       40.34828        0.83840
H         29.46074       40.87891        2.69394
H         28.96951       42.19170        1.66253
N         30.76019       41.90110       -1.16718
C         30.93057       42.77780       -2.32331
C         29.92087       43.91154       -2.33743
O         29.05432       43.93227       -3.19951
H         30.31672       40.98507       -1.32407
H         30.75790       42.17158       -3.23771
H         31.97018       43.17124       -2.38440
N         29.99175       44.89603       -1.40444
C         29.09450       46.03609       -1.32248
C         29.86923       47.34780       -1.35683
O         29.23274       48.39344       -1.41042
C         28.26538       45.92192       -0.01719
C         29.07009       46.07361        1.26444
N         28.62822       46.86349        2.26780
O         30.10507       45.45018        1.41688
H         30.72419       44.84206       -0.71541
H         28.38883       46.01425       -2.18197
H         27.79649       44.91504       -0.01253
H         27.44455       46.67124       -0.02077
H         27.73036       47.35993        2.19508
H         29.17013       46.93711        3.14077
N         31.24042       47.38104       -1.27418
C         31.99949       48.60905       -1.21390
C         32.68209       48.75105        0.13108
O         32.56897       47.85290        0.95734
H         31.79061       46.51685       -1.20183
H         31.33027       49.47909       -1.34946
H         32.74919       48.60830       -2.03036
N         33.36627       49.87678        0.47632
C         33.54534       51.00788       -0.43892
C         34.90195       51.70246       -0.25377
O         35.15108       52.69018       -0.93525
C         32.33626       51.97108       -0.28114
C         32.41235       52.87230        0.94853
O         32.21535       52.77345       -1.42861
H         33.64157       49.97457        1.46309
H         33.52161       50.63341       -1.48200
H         31.42149       51.34094       -0.17176
H         31.25500       52.77000       -1.68885
H         31.47295       53.45748        1.03595
H         32.54624       52.27294        1.87056
H         33.25237       53.59089        0.83828
N         35.80439       51.26736        0.68352
C         37.02818       51.95614        1.07600
C         36.83217       53.46755        1.16494
O         37.40597       54.18352        0.35795
C         38.27266       51.50686        0.25662
C         38.25753       49.96685        0.06370
C         39.54376       51.98735        1.00200
C         39.48539       49.42312       -0.66178
H         35.60872       50.41202        1.21484
H         37.26637       51.58455        2.09180
H         38.25352       51.95807       -0.75980
H         37.37599       49.72312       -0.56882
H         38.14858       49.43192        1.03312
H         40.47213       51.67740        0.48599
H         39.56870       53.09462        1.06513
H         39.56743       51.58842        2.04094
H         40.36992       49.44233        0.00831
H         39.30076       48.36809       -0.95461
H         39.69264       50.01782       -1.57606
N         36.00602       54.04763        2.08556
C         35.32052       53.33418        3.16234
C         36.29985       52.73805        4.16619
O         36.12674       51.60140        4.58112
C         34.28835       54.25151        3.86957
C         34.76495       55.51384        4.55728
O         33.86687       56.28674        5.19428
O         35.93089       55.86270        4.53120
H         35.87766       55.06990        2.02209
H         34.71534       52.50890        2.73150
H         33.75688       53.63658        4.62565
H         33.54726       54.57207        3.10769
N         37.40966       53.43993        4.51712
C         38.46009       52.92135        5.38579
C         38.01174       52.86117        6.85284
O         37.00574       53.47421        7.17917
C         39.71109       53.82566        5.17923
C         39.58468       55.23808        5.71890
C         39.19899       56.30427        4.88370
C         39.91664       55.50559        7.05773
C         39.14002       57.60851        5.38632
C         39.87110       56.81321        7.55093
C         39.48281       57.86367        6.71626
H         37.56891       54.33393        4.04750
H         38.71127       51.90830        5.01197
H         39.89306       53.87174        4.08281
H         40.65128       53.40488        5.56465
H         38.94525       56.12955        3.84644
H         40.23302       54.70451        7.70943
H         38.83944       58.42391        4.74078
H         40.14665       57.01330        8.57844
H         39.45402       58.87630        7.09818
N         38.72949       52.18221        7.81366
C         39.90345       51.36577        7.56400
C         39.56338       50.04755        6.89569
O         38.42275       49.84480        6.49390
C         40.47927       51.12990        8.97104
C         39.88592       52.27304        9.78691
C         38.47116       52.32932        9.22765
H         40.65897       51.93158        7.00367
H         40.06436       50.18987        9.39587
H         41.59119       51.07243        8.98731
H         39.95577       52.12206       10.88471
H         40.40541       53.21735        9.51519
H         37.91535       51.43067        9.58262
H         37.92603       53.25350        9.51303
N         40.50368       49.06692        6.81255
C         40.20056       47.74751        6.29134
C         41.39106       47.06469        5.59299
O         41.38035       45.84288        5.54005
C         39.60348       46.87879        7.43747
C         40.59113       46.60622        8.58774
C         39.96875       45.73462        9.64338
O         38.99250       46.21982       10.43461
O         40.36325       44.59024        9.80353
H         41.39918       49.21024        7.29760
H         39.39879       47.81958        5.52180
H         39.27625       45.90273        7.01468
H         38.69691       47.38078        7.84307
H         40.93041       47.55015        9.06622
H         41.47956       46.08640        8.17430
N         42.41915       47.71889        4.95872
C         42.57797       49.15435        4.82298
H         43.48486       49.36273        4.21449
H         41.70358       49.59912        4.30486
H         42.77168       49.64809        5.79104
H         43.13884       47.13599        4.50331
Ca        32.72469       44.62356        2.14742
O         34.69673       46.79414        3.30231
H         35.51141       46.68538        3.85420
H         34.47229       47.75251        3.37184
O         33.08838       45.28036        5.11984
H         33.93589       44.97552        5.53075
H         32.56283       45.65337        5.87085
O         31.71526       47.69868        3.69497
H         31.02314       47.69643        4.40127
H         31.43366       48.42317        3.08261

Ca 1.70



