%chk=loop2.cluster62.chk
%nprocshared=48
%mem=10GB
%nosave
#b3lyp/svp scf=(tight,noincore) Test 
#IOP(5/87=12) Density=Current Pop=(MK,readradii) iop(6/33=2) iop(6/42=6)

loop2.cluster62 

   -2  1 
C         92.86086       79.19934       29.51624
C         94.25951       78.85191       29.92562
O         95.17563       79.60397       29.62369
H         92.21364       79.29255       30.41460
H         92.83900       80.16190       28.96175
H         92.46712       78.39563       28.86154
N         94.49146       77.71630       30.64513
C         95.81746       77.31038       31.10466
C         95.99177       77.82186       32.53478
O         96.17436       77.04798       33.46658
C         95.92264       75.77583       30.93418
C         97.29650       75.19170       31.11362
O         98.36313       75.98017       31.34541
O         97.45211       73.98550       31.00409
H         93.68399       77.12717       30.90261
H         96.59770       77.78442       30.46710
H         95.60493       75.51555       29.90032
H         95.21657       75.28819       31.64186
N         95.90667       79.16518       32.75294
C         95.85105       79.82182       34.06017
C         94.85720       81.01123       33.96065
O         94.35890       81.23901       32.86399
C         97.27956       80.21791       34.44347
H         95.81250       79.76049       31.92297
H         95.46939       79.10010       34.80993
H         97.69644       80.92324       33.69524
H         97.34603       80.66234       35.44980
H         97.91810       79.30630       34.45819
N         94.45437       81.82020       34.98815
C         94.91939       81.83786       36.37369
C         94.69824       80.53252       37.11520
O         93.97811       79.67001       36.63866
C         94.20759       83.00470       37.12184
C         94.59275       84.34076       36.53205
O         95.72147       84.74533       36.75371
O         93.93610       84.84145       35.45435
H         93.75324       82.53038       34.73111
H         96.00586       82.04214       36.37772
H         94.50027       83.01477       38.19129
H         93.10622       82.88310       37.08975
N         95.36120       80.31871       38.29488
C         95.30215       79.07934       39.06520
C         95.74522       77.90084       38.23053
O         96.64028       78.07918       37.41603
H         95.98806       81.05953       38.64158
H         94.30101       78.93494       39.49714
H         96.00747       79.17552       39.91964
N         95.21844       76.64466       38.35804
C         94.29420       76.20638       39.41397
C         92.90307       76.82262       39.35606
O         92.14811       76.66421       40.30758
C         94.10359       74.67053       39.34096
C         95.37829       73.89490       39.59316
N         95.47739       73.07922       40.66635
O         96.32180       73.98963       38.82269
H         95.57939       75.93435       37.70615
H         94.74519       76.46606       40.39833
H         93.69634       74.39365       38.34117
H         93.35057       74.36450       40.09874
H         94.69480       72.98444       41.32908
H         96.34411       72.54873       40.83558
N         92.47027       77.48122       38.25326
C         91.13131       78.01943       38.13555
C         90.86770       79.14849       39.10032
O         89.83459       79.12862       39.75508
H         93.09001       77.55567       37.43806
H         90.37559       77.21379       38.27275
H         91.01463       78.39652       37.10781
N         91.71847       80.21658       39.18235
C         91.44324       81.36552       40.04195
C         90.86120       82.48201       39.18049
O         91.16033       83.64666       39.39585
C         92.73643       81.77133       40.80887
C         92.43098       82.62602       42.03859
O         93.41240       80.62089       41.24597
H         92.54683       80.24257       38.58053
H         90.66573       81.07885       40.77904
H         93.39836       82.33424       40.10569
H         94.38568       80.82810       41.20543
H         91.96019       83.59051       41.76935
H         91.75031       82.06039       42.71090
H         93.37144       82.83080       42.59402
N         90.07277       82.15866       38.11300
C         89.63041       83.11689       37.11021
C         88.66826       84.15003       37.63711
O         88.16415       84.05772       38.74599
C         89.02059       82.42276       35.83873
C         90.10288       81.91251       34.85783
C         87.95490       81.35520       36.16289
C         91.11200       80.93372       35.43379
H         89.87205       81.17228       37.94923
H         90.52036       83.69808       36.78197
H         88.48371       83.18340       35.23402
H         90.67437       82.78734       34.47676
H         89.59788       81.43721       33.98947
H         88.36800       80.46119       36.66844
H         87.15776       81.78934       36.80252
H         87.48857       80.99538       35.22295
H         91.70456       81.40949       36.23474
H         90.59095       80.05103       35.82827
H         91.81529       80.61655       34.63616
N         88.41802       85.20813       36.82393
C         87.59511       86.34852       37.15436
C         86.40469       86.39101       36.20790
O         86.24974       85.49695       35.40797
C         88.49197       87.61339       37.12568
C         89.13724       87.94534       35.78369
O         89.95991       87.09919       35.11157
O         88.85314       89.00438       35.25165
H         88.86680       85.21360       35.90354
H         87.17340       86.24900       38.17954
H         89.27885       87.49847       37.89889
H         87.86356       88.48004       37.43228
N         85.48764       87.38630       36.30688
C         84.16900       87.35838       35.67087
C         84.14040       86.95931       34.19058
O         83.49831       85.96668       33.85191
C         83.19119       86.58202       36.59492
C         81.90361       87.35936       36.74210
C         80.93239       87.36528       35.73059
C         81.71783       88.16312       37.88418
C         79.78789       88.16119       35.86622
C         80.58382       88.96408       38.00726
C         79.61785       88.96338       37.00037
H         85.63593       88.10834       37.02226
H         83.82288       88.41301       35.71918
H         83.64861       86.56857       37.60874
H         83.05976       85.50621       36.34410
H         81.06353       86.76269       34.84170
H         82.46985       88.19343       38.66431
H         79.03810       88.16702       35.08696
H         80.46243       89.59436       38.87932
H         78.74171       89.59061       37.09677
N         84.77093       87.70070       33.22619
C         84.70115       87.42238       31.79725
C         85.34195       86.09532       31.41474
O         84.82073       85.37540       30.58080
C         85.50486       88.58524       31.18683
C         85.30126       89.69466       32.20590
C         85.47207       88.93672       33.51301
H         83.64074       87.48718       31.45857
H         86.59403       88.35361       31.21017
H         85.22457       88.83934       30.14205
H         85.97917       90.56706       32.09504
H         84.24465       90.04270       32.14091
H         86.54467       88.69762       33.68682
H         85.06281       89.53682       34.34625
N         86.52307       85.75432       31.99490
C         87.26953       84.52911       31.70774
C         86.50476       83.27190       32.07893
O         86.53327       82.32009       31.30886
C         88.64805       84.63053       32.40838
C         89.60823       85.38279       31.47101
C         90.87385       85.78000       32.14865
O         91.64335       84.86127       32.75851
O         91.22196       86.94560       32.13029
H         86.91039       86.40703       32.69033
H         87.46437       84.44421       30.61555
H         89.09971       83.63671       32.60195
H         88.54526       85.14102       33.39450
H         89.12551       86.29683       31.05627
H         89.85405       84.70853       30.61991
N         85.79436       83.18544       33.23012
C         84.99166       82.03053       33.56073
H         84.06773       82.04313       32.94456
H         85.55405       81.08905       33.38594
H         84.69796       82.07526       34.63095
H         85.76734       83.98310       33.85926
Ca        92.06356       86.17685       35.29220
O         92.38493       89.24255       33.61934
H         92.00801       89.08304       32.72094
H         92.48145       90.22558       33.65096
O         91.97367       86.14801       37.91033
H         92.18124       85.18215       37.88275
H         92.68509       86.54032       38.47108
O         94.92034       87.07021       33.41188
H         95.19500       88.00067       33.61143
H         95.74127       86.53452       33.55357
O         94.58061       87.73051       36.40548
H         95.07540       87.93991       37.23512
H         95.10257       86.99696       36.00135

Ca 1.70



