%chk=loop2.cluster153.chk
%nprocshared=48
%mem=10GB
%nosave
#b3lyp/svp scf=(tight,noincore) Test 
#IOP(5/87=12) Density=Current Pop=(MK,readradii) iop(6/33=2) iop(6/42=6)

loop2.cluster153 

   -2  1 
C         87.53140      102.09493       45.12740
C         87.45216      102.67676       46.50565
O         86.41027      103.21475       46.85162
H         88.56030      101.75487       44.89139
H         86.83535      101.23467       45.03701
H         87.24030      102.87476       44.39228
N         88.53706      102.63635       47.33982
C         88.56276      103.27989       48.65297
C         87.98609      102.36936       49.74005
O         88.61888      102.17086       50.76821
C         90.02287      103.70368       48.95488
C         90.16971      104.59695       50.15453
O         91.02708      104.26801       51.13995
O         89.55644      105.65055       50.21304
H         89.41377      102.23566       46.97311
H         87.95564      104.21150       48.59100
H         90.40447      104.27075       48.08106
H         90.65681      102.79543       49.07804
N         86.75153      101.81807       49.58557
C         86.10320      100.99690       50.59007
C         85.52702       99.74343       49.93140
O         85.54268       99.66374       48.71176
C         85.02139      101.88261       51.19832
H         86.20949      102.02348       48.74700
H         86.82825      100.69220       51.37595
H         84.44568      101.37609       51.96844
H         85.50676      102.76080       51.67591
H         84.32911      102.24637       50.40870
N         85.04468       98.68021       50.63559
C         85.04947       98.53670       52.08215
C         86.12878       97.54916       52.46758
O         86.70126       96.91287       51.59112
C         83.63395       98.08634       52.53172
C         82.68911       99.26119       52.43705
O         82.87877      100.21714       53.16432
O         81.63502       99.31018       51.60419
H         84.73178       97.86653       50.09368
H         85.34116       99.47190       52.59205
H         83.63525       97.75400       53.59184
H         83.30837       97.21821       51.91029
N         86.52303       97.42509       53.76858
C         87.56325       96.48869       54.16552
C         88.90364       96.76900       53.50034
O         89.11214       97.86983       53.01375
H         86.06707       97.99911       54.49509
H         87.21531       95.48427       53.87800
H         87.70306       96.50252       55.26911
N         89.87784       95.81129       53.42079
C         89.70613       94.45091       53.91777
C         88.93845       93.57697       52.91430
O         88.74093       92.40021       53.18009
C         91.08855       93.84325       54.24804
C         91.02824       92.88306       55.41065
N         90.95420       93.36762       56.67648
O         91.09933       91.67883       55.22126
H         90.76711       96.05542       52.95564
H         89.14529       94.50577       54.87653
H         91.78067       94.64341       54.58687
H         91.54802       93.39360       53.34132
H         90.94247       94.38597       56.84566
H         90.95083       92.73180       57.48731
N         88.45282       94.10710       51.74500
C         87.63528       93.35824       50.80890
C         86.40722       92.85953       51.50436
O         86.13009       91.66837       51.45701
H         88.61233       95.09522       51.51984
H         88.20869       92.52268       50.35460
H         87.31406       94.04270       49.98935
N         85.61369       93.73698       52.17748
C         84.40718       93.33790       52.87112
C         83.27543       93.87393       52.03294
O         82.44879       94.62462       52.52367
C         84.43052       93.89750       54.32647
C         83.40049       93.21286       55.22775
O         85.69779       93.70084       54.89714
H         85.84950       94.73587       52.15947
H         84.33470       92.22879       52.90335
H         84.22931       94.99736       54.27300
H         85.80966       94.41068       55.58649
H         83.45364       93.65024       56.24872
H         82.36841       93.32735       54.84290
H         83.64603       92.13106       55.30684
N         83.22571       93.56088       50.70592
C         82.27342       94.16186       49.78356
C         81.05603       93.28334       49.61224
O         81.03230       92.16552       50.11283
C         82.95363       94.58815       48.44026
C         83.79179       95.86118       48.67395
C         83.77990       93.47161       47.77517
C         84.51324       96.39305       47.43373
H         83.91065       92.88714       50.33619
H         81.84099       95.07621       50.25053
H         82.14696       94.86134       47.72976
H         84.54505       95.70479       49.47727
H         83.07832       96.64099       49.01353
H         84.74406       93.31389       48.30404
H         83.21102       92.52015       47.74616
H         84.02124       93.75545       46.72868
H         84.75022       97.46705       47.58015
H         85.45933       95.84091       47.26836
H         83.89948       96.29040       46.52266
N         79.94235       93.80398       49.01958
C         78.64645       93.15203       49.02349
C         78.09693       93.02946       47.62059
O         77.83078       94.03926       46.98525
C         77.64396       94.00483       49.82585
C         78.11726       94.31386       51.21153
O         77.97439       93.40885       52.19644
O         78.55840       95.42187       51.46592
H         79.98576       94.75190       48.64089
H         78.72121       92.15145       49.50147
H         76.65225       93.50495       49.87601
H         77.49749       94.97407       49.29925
N         77.82254       91.80625       47.11254
C         77.08726       91.58117       45.87012
C         77.77960       92.17649       44.63864
O         78.94205       91.88755       44.43612
C         76.89132       90.06452       45.73007
C         76.07979       89.65308       44.53799
C         76.68967       89.51820       43.28089
C         74.71535       89.35921       44.68321
C         75.94380       89.08072       42.18521
C         73.97063       88.93285       43.58242
C         74.58558       88.78671       42.33570
H         78.07721       90.98751       47.68813
H         76.08547       92.03474       46.00031
H         76.36225       89.73168       46.65127
H         77.86705       89.53125       45.71427
H         77.74442       89.73083       43.15734
H         74.23189       89.46381       45.64730
H         76.42153       88.96140       41.22205
H         72.91899       88.70788       43.69887
H         74.01058       88.44209       41.48749
N         77.09584       92.97179       43.73908
C         77.71149       93.55431       42.54146
C         78.80383       94.58173       42.81314
O         79.42331       95.05903       41.86629
C         76.52174       94.23026       41.83597
C         75.34501       93.38547       42.28833
C         75.66508       93.14577       43.75895
H         78.11125       92.71399       41.93430
H         76.35255       95.24090       42.27250
H         76.63271       94.33002       40.73374
H         74.34032       93.82296       42.10692
H         75.41139       92.40771       41.75736
H         75.41892       94.01897       44.40113
H         75.10096       92.23904       44.06320
N         79.08488       94.99322       44.07880
C         80.18286       95.88485       44.41920
C         81.51004       95.18234       44.13103
O         82.45581       95.82598       43.70713
C         80.02677       96.30554       45.88665
C         80.93820       97.45491       46.30638
C         80.58905       97.87455       47.68582
O         80.57875       96.96369       48.65940
O         80.30507       99.03602       47.93569
H         78.49772       94.64377       44.84198
H         80.09317       96.81253       43.81162
H         80.17437       95.42015       46.53864
H         78.98256       96.66370       46.02141
H         80.82788       98.32712       45.63140
H         81.98313       97.12398       46.29532
N         81.57733       93.81941       44.20133
C         82.70329       93.05789       43.70829
H         83.60791       93.24196       44.31748
H         82.45311       91.97282       43.74457
H         82.88989       93.31729       42.64415
H         80.77310       93.29559       44.55068
Ca        80.39777       97.75736       50.64994
O         79.39208       99.60754       53.44855
H         79.51611       99.67314       54.42621
H         80.10262      100.19149       53.09145
O         77.61773       97.75074       48.92295
H         76.64755       97.56359       48.96315
H         77.89512       97.39135       48.04420
O         80.84751       96.94715       53.13439
H         80.94975       96.70365       54.08336
H         80.61456       96.10509       52.67324
O         78.65142      100.46767       50.70396
H         77.69832      100.60503       50.47528
H         78.91630      101.29835       51.17358

Ca 1.70



