%chk=holoCaM_loop3_58.0.chk
%nprocshared=48
%mem=10GB
%nosave
#b3lyp/svp scf=(tight,noincore) Test 
#IOP(5/87=12) Density=Current Pop=(MK,readradii) iop(6/33=2) iop(6/42=6)

holoCaM_loop3_58.0 

   0   1
   C     74.51000000    35.63000000    27.94000000
   C     75.99000000    35.34000000    27.79000000
   O     76.48000000    34.33000000    28.28000000
   H     73.95100000    34.69600000    27.89300000
   H     74.32900000    36.11300000    28.90000000
   H     74.18500000    36.28900000    27.13500000
   N     76.67000000    36.19000000    27.02000000
   C     78.03000000    35.89000000    26.59000000
   C     79.05000000    36.27000000    27.65000000
   O     79.26000000    37.47000000    27.78000000
   C     78.23000000    36.71000000    25.32000000
   C     79.61000000    36.56000000    24.70000000
   O     80.32000000    35.58000000    25.02000000
   O     79.97000000    37.48000000    23.93000000
   H     76.23000000    37.01000000    26.63000000
   H     78.11000000    34.83000000    26.34000000
   H     78.16000000    37.75000000    25.67000000
   H     77.48000000    36.45000000    24.57000000
   N     79.50000000    35.40000000    28.56000000
   C     80.02000000    35.67000000    29.89000000
   C     81.41000000    36.28000000    29.78000000
   O     81.60000000    37.36000000    30.34000000
   C     79.90000000    34.41000000    30.74000000
   C     78.50000000    33.85000000    30.96000000
   C     77.62000000    34.92000000    31.62000000
   C     78.23000000    35.41000000    32.93000000
   N     77.29000000    36.36000000    33.55000000
   H     79.28000000    34.46000000    28.28000000
   H     79.38000000    36.40000000    30.38000000
   H     80.45000000    34.59000000    31.67000000
   H     80.53000000    33.67000000    30.24000000
   H     78.59000000    32.92000000    31.52000000
   H     78.05000000    33.53000000    30.02000000
   H     76.72000000    34.41000000    31.96000000
   H     77.29000000    35.70000000    30.93000000
   H     79.16000000    35.95000000    32.76000000
   H     78.29000000    34.57000000    33.62000000
   H     76.58000000    35.80000000    34.00000000
   H     77.79000000    36.79000000    34.31000000
   H     76.88000000    37.02000000    32.91000000
   N     82.39000000    35.72000000    29.07000000
   C     83.64000000    36.36000000    28.72000000
   C     83.50000000    37.48000000    27.70000000
   O     84.39000000    38.32000000    27.59000000
   C     84.69000000    35.34000000    28.29000000
   C     84.50000000    34.67000000    26.94000000
   O     83.41000000    34.85000000    26.35000000
   O     85.43000000    33.97000000    26.48000000
   H     82.18000000    34.79000000    28.74000000
   H     84.06000000    36.83000000    29.62000000
   H     84.80000000    34.60000000    29.08000000
   H     85.60000000    35.93000000    28.18000000
   N     82.40000000    37.60000000    26.94000000
   C     81.97000000    38.77000000    26.21000000
   C     82.79000000    38.83000000    24.92000000
   O     82.93000000    39.90000000    24.35000000
   H     81.75000000    36.85000000    27.10000000
   H     82.15000000    39.60000000    26.89000000
   H     80.93000000    38.74000000    25.90000000
   N     83.32000000    37.70000000    24.43000000
   C     84.14000000    37.63000000    23.24000000
   C     83.35000000    37.68000000    21.94000000
   O     83.89000000    37.63000000    20.84000000
   C     84.99000000    36.37000000    23.31000000
   C     84.21000000    35.09000000    23.09000000
   N     84.84000000    33.93000000    22.87000000
   O     82.98000000    34.99000000    23.12000000
   H     83.21000000    36.87000000    24.99000000
   H     84.74000000    38.54000000    23.25000000
   H     85.54000000    36.37000000    24.25000000
   H     85.79000000    36.33000000    22.57000000
   H     85.84000000    33.80000000    22.92000000
   H     84.35000000    33.14000000    22.49000000
   N     82.02000000    37.80000000    21.98000000
   C     81.19000000    38.14000000    20.84000000
   C     80.40000000    36.96000000    20.31000000
   O     79.79000000    37.06000000    19.25000000
   H     81.61000000    37.80000000    22.91000000
   H     81.71000000    38.52000000    19.96000000
   H     80.48000000    38.85000000    21.26000000
   N     80.40000000    35.84000000    21.03000000
   C     79.87000000    34.56000000    20.59000000
   C     79.63000000    33.57000000    21.71000000
   O     80.38000000    33.56000000    22.69000000
   C     80.81000000    33.87000000    19.60000000
   C     82.28000000    33.75000000    19.91000000
   C     82.84000000    32.56000000    20.38000000
   C     83.20000000    34.77000000    19.62000000
   C     84.23000000    32.35000000    20.45000000
   C     84.59000000    34.61000000    19.65000000
   C     85.11000000    33.36000000    20.03000000
   O     86.45000000    33.13000000    19.88000000
   H     80.69000000    35.94000000    21.99000000
   H     78.90000000    34.74000000    20.12000000
   H     80.84000000    34.42000000    18.66000000
   H     80.43000000    32.85000000    19.46000000
   H     82.23000000    31.73000000    20.69000000
   H     82.87000000    35.75000000    19.31000000
   H     84.60000000    31.39000000    20.79000000
   H     85.30000000    35.35000000    19.32000000
   H     86.90000000    33.97000000    19.75000000
   N     78.67000000    32.65000000    21.57000000
   C     78.26000000    31.69000000    22.57000000
   C     78.85000000    30.31000000    22.35000000
   O     78.79000000    29.69000000    21.29000000
   C     76.74000000    31.61000000    22.55000000
   C     76.09000000    32.93000000    22.96000000
   C     76.19000000    30.43000000    23.35000000
   C     76.32000000    33.27000000    24.43000000
   H     78.14000000    32.77000000    20.71000000
   H     78.59000000    32.06000000    23.54000000
   H     76.48000000    31.33000000    21.53000000
   H     75.08000000    33.09000000    22.60000000
   H     76.66000000    33.68000000    22.41000000
   H     76.46000000    29.49000000    22.88000000
   H     76.68000000    30.47000000    24.33000000
   H     75.10000000    30.36000000    23.35000000
   H     75.89000000    34.22000000    24.75000000
   H     75.81000000    32.52000000    25.04000000
   H     77.37000000    33.23000000    24.69000000
   N     79.36000000    29.74000000    23.44000000
   C     79.77000000    28.36000000    23.61000000
   C     78.72000000    27.40000000    24.17000000
   O     77.68000000    27.88000000    24.61000000
   C     81.08000000    28.35000000    24.39000000
   O     81.10000000    29.11000000    25.58000000
   H     79.40000000    30.34000000    24.25000000
   H     79.93000000    27.94000000    22.62000000
   H     81.91000000    28.69000000    23.77000000
   H     81.27000000    27.30000000    24.62000000
   H     80.82000000    30.01000000    25.39000000
   N     78.97000000    26.09000000    24.14000000
   C     78.14000000    25.00000000    24.61000000
   C     77.69000000    25.19000000    26.05000000
   O     76.56000000    24.88000000    26.40000000
   C     78.91000000    23.69000000    24.43000000
   H     79.88000000    25.72000000    23.89000000
   H     77.18000000    25.04000000    24.11000000
   H     79.11000000    23.53000000    23.38000000
   H     79.77000000    23.45000000    25.06000000
   H     78.26000000    22.84000000    24.63000000
   N     78.59000000    25.68000000    26.92000000
   C     78.26000000    26.12000000    28.26000000
   C     77.30000000    27.30000000    28.27000000
   O     76.38000000    27.34000000    29.09000000
   C     79.54000000    26.42000000    29.04000000
   H     79.53000000    25.80000000    26.56000000
   H     77.82000000    25.30000000    28.82000000
   H     79.93000000    27.36000000    28.64000000
   H     79.20000000    26.43000000    30.07000000
   H     80.25000000    25.62000000    28.86000000
   N     77.53000000    28.37000000    27.50000000
   C     76.79000000    29.61000000    27.51000000
   C     75.42000000    29.42000000    26.88000000
   O     74.50000000    30.10000000    27.31000000
   C     77.60000000    30.74000000    26.87000000
   C     78.78000000    31.28000000    27.68000000
   C     79.70000000    32.02000000    26.73000000
   O     80.20000000    33.12000000    27.06000000
   O     79.96000000    31.57000000    25.59000000
   H     78.28000000    28.39000000    26.82000000
   H     76.72000000    29.89000000    28.56000000
   H     76.91000000    31.56000000    26.68000000
   H     77.98000000    30.36000000    25.92000000
   H     79.39000000    30.44000000    28.00000000
   H     78.45000000    31.84000000    28.55000000
   N     75.31000000    28.45000000    25.97000000
   C     73.96000000    28.16000000    25.54000000
   H     73.32500000    29.02600000    25.73000000
   H     73.95800000    27.93500000    24.47300000
   H     73.57800000    27.30200000    26.09300000
   H     76.16000000    28.03000000    25.62000000
  Ca     81.70000000    33.50000000    24.97000000
   O     83.28000000    31.86000000    26.42000000
   H     84.11000000    32.34000000    26.51000000
   H     83.52000000    30.95000000    26.55000000

Ca 1.70



