%chk=holoCaM_loop3_56.0.chk
%nprocshared=48
%mem=10GB
%nosave
#b3lyp/svp scf=(tight,noincore) Test 
#IOP(5/87=12) Density=Current Pop=(MK,readradii) iop(6/33=2) iop(6/42=6)

holoCaM_loop3_56.0 

   0   1
   C     86.35000000    36.08000000    23.14000000
   C     87.69000000    35.80000000    22.47000000
   O     88.50000000    35.00000000    22.93000000
   H     85.58200000    35.45000000    22.69200000
   H     86.42300000    35.86100000    24.20500000
   H     86.08600000    37.12800000    23.00100000
   N     88.04000000    36.59000000    21.45000000
   C     89.36000000    36.52000000    20.84000000
   C     90.48000000    37.07000000    21.70000000
   O     90.58000000    38.29000000    21.87000000
   C     89.26000000    37.29000000    19.53000000
   C     90.46000000    37.03000000    18.62000000
   O     90.41000000    37.45000000    17.44000000
   O     91.44000000    36.45000000    19.14000000
   H     87.44000000    37.26000000    21.00000000
   H     89.63000000    35.53000000    20.47000000
   H     89.11000000    38.34000000    19.78000000
   H     88.35000000    37.02000000    19.00000000
   N     91.31000000    36.23000000    22.33000000
   C     92.26000000    36.68000000    23.32000000
   C     93.56000000    37.20000000    22.73000000
   O     94.54000000    37.41000000    23.45000000
   C     92.52000000    35.60000000    24.35000000
   C     91.23000000    34.98000000    24.87000000
   C     90.37000000    36.10000000    25.46000000
   C     89.29000000    35.60000000    26.40000000
   N     88.64000000    36.77000000    27.01000000
   H     91.23000000    35.23000000    22.17000000
   H     91.84000000    37.56000000    23.81000000
   H     93.10000000    36.02000000    25.18000000
   H     93.17000000    34.81000000    23.97000000
   H     91.44000000    34.28000000    25.68000000
   H     90.67000000    34.45000000    24.10000000
   H     89.94000000    36.74000000    24.69000000
   H     90.96000000    36.74000000    26.11000000
   H     89.84000000    34.97000000    27.10000000
   H     88.54000000    35.11000000    25.78000000
   H     88.12000000    37.25000000    26.29000000
   H     87.95000000    36.56000000    27.72000000
   H     89.27000000    37.45000000    27.42000000
   N     93.58000000    37.44000000    21.42000000
   C     94.82000000    37.80000000    20.75000000
   C     94.44000000    38.74000000    19.61000000
   O     95.18000000    39.71000000    19.44000000
   C     95.70000000    36.66000000    20.25000000
   C     95.03000000    35.58000000    19.41000000
   O     94.30000000    35.91000000    18.45000000
   O     95.04000000    34.35000000    19.66000000
   H     92.71000000    37.29000000    20.93000000
   H     95.42000000    38.43000000    21.41000000
   H     96.27000000    36.23000000    21.06000000
   H     96.50000000    37.03000000    19.60000000
   N     93.24000000    38.63000000    19.03000000
   C     92.85000000    39.60000000    18.03000000
   C     93.26000000    39.25000000    16.61000000
   O     93.24000000    40.12000000    15.73000000
   H     92.56000000    37.96000000    19.34000000
   H     93.23000000    40.58000000    18.32000000
   H     91.76000000    39.56000000    17.94000000
   N     93.61000000    37.98000000    16.39000000
   C     93.94000000    37.48000000    15.07000000
   C     92.72000000    37.34000000    14.17000000
   O     92.88000000    37.08000000    12.98000000
   C     94.82000000    36.23000000    15.09000000
   C     94.18000000    34.95000000    15.61000000
   N     94.98000000    33.88000000    15.65000000
   O     93.02000000    34.84000000    16.03000000
   H     93.46000000    37.35000000    17.16000000
   H     94.55000000    38.28000000    14.64000000
   H     95.63000000    36.37000000    15.81000000
   H     95.26000000    36.00000000    14.13000000
   H     95.95000000    33.89000000    15.38000000
   H     94.56000000    33.00000000    15.91000000
   N     91.50000000    37.62000000    14.64000000
   C     90.20000000    37.67000000    14.02000000
   C     89.37000000    36.39000000    14.09000000
   O     88.36000000    36.25000000    13.40000000
   H     91.48000000    37.75000000    15.65000000
   H     90.22000000    37.89000000    12.96000000
   H     89.54000000    38.42000000    14.46000000
   N     89.85000000    35.35000000    14.78000000
   C     89.29000000    34.02000000    14.84000000
   C     89.40000000    33.47000000    16.26000000
   O     90.40000000    33.74000000    16.92000000
   C     89.89000000    33.07000000    13.81000000
   C     91.00000000    33.60000000    12.93000000
   C     92.29000000    33.25000000    13.35000000
   C     90.75000000    34.38000000    11.80000000
   C     93.40000000    33.70000000    12.62000000
   C     91.86000000    34.86000000    11.08000000
   C     93.15000000    34.46000000    11.46000000
   O     94.23000000    35.00000000    10.81000000
   H     90.80000000    35.43000000    15.12000000
   H     88.22000000    34.09000000    14.63000000
   H     89.11000000    33.00000000    13.05000000
   H     90.08000000    32.09000000    14.23000000
   H     92.32000000    32.71000000    14.29000000
   H     89.76000000    34.64000000    11.45000000
   H     94.43000000    33.45000000    12.78000000
   H     91.65000000    35.50000000    10.23000000
   H     94.03000000    35.59000000    10.08000000
   N     88.53000000    32.54000000    16.65000000
   C     88.54000000    31.76000000    17.87000000
   C     89.15000000    30.40000000    17.54000000
   O     88.86000000    29.79000000    16.51000000
   C     87.14000000    31.72000000    18.47000000
   C     86.38000000    33.03000000    18.65000000
   C     87.04000000    30.89000000    19.75000000
   C     87.09000000    34.22000000    19.28000000
   H     87.88000000    32.22000000    15.94000000
   H     89.16000000    32.33000000    18.56000000
   H     86.57000000    31.20000000    17.70000000
   H     85.44000000    32.80000000    19.16000000
   H     86.09000000    33.34000000    17.65000000
   H     87.39000000    29.86000000    19.66000000
   H     87.54000000    31.48000000    20.52000000
   H     85.98000000    30.91000000    19.97000000
   H     87.93000000    34.44000000    18.62000000
   H     86.42000000    35.06000000    19.49000000
   H     87.50000000    33.89000000    20.23000000
   N     89.97000000    29.85000000    18.44000000
   C     90.49000000    28.50000000    18.44000000
   C     90.06000000    27.76000000    19.70000000
   O     89.43000000    28.32000000    20.59000000
   C     92.02000000    28.51000000    18.37000000
   O     92.61000000    29.31000000    19.37000000
   H     90.22000000    30.41000000    19.25000000
   H     90.12000000    27.97000000    17.56000000
   H     92.28000000    28.93000000    17.40000000
   H     92.38000000    27.48000000    18.41000000
   H     92.27000000    30.20000000    19.32000000
   N     90.12000000    26.43000000    19.74000000
   C     89.58000000    25.60000000    20.80000000
   C     90.05000000    25.97000000    22.20000000
   O     89.25000000    25.85000000    23.12000000
   C     89.94000000    24.13000000    20.57000000
   H     90.52000000    26.02000000    18.91000000
   H     88.50000000    25.66000000    20.70000000
   H     91.00000000    23.97000000    20.76000000
   H     89.33000000    23.42000000    21.13000000
   H     89.92000000    23.79000000    19.54000000
   N     91.17000000    26.67000000    22.38000000
   C     91.58000000    27.18000000    23.68000000
   C     90.85000000    28.46000000    24.07000000
   O     90.86000000    28.72000000    25.27000000
   C     93.08000000    27.43000000    23.80000000
   H     91.77000000    26.89000000    21.60000000
   H     91.39000000    26.38000000    24.40000000
   H     93.40000000    27.80000000    24.77000000
   H     93.69000000    26.58000000    23.51000000
   H     93.34000000    28.20000000    23.08000000
   N     90.21000000    29.16000000    23.14000000
   C     89.46000000    30.38000000    23.38000000
   C     87.97000000    30.07000000    23.30000000
   O     87.22000000    30.88000000    23.84000000
   C     89.85000000    31.49000000    22.42000000
   C     91.33000000    31.56000000    22.07000000
   C     91.53000000    32.46000000    20.85000000
   O     92.08000000    33.57000000    20.94000000
   O     91.17000000    32.10000000    19.71000000
   H     90.39000000    28.83000000    22.20000000
   H     89.65000000    30.74000000    24.39000000
   H     89.41000000    32.49000000    22.55000000
   H     89.33000000    31.21000000    21.50000000
   H     91.92000000    30.67000000    21.88000000
   H     91.90000000    31.91000000    22.93000000
   N     87.51000000    29.04000000    22.60000000
   C     86.18000000    28.48000000    22.66000000
   H     85.49600000    29.10700000    22.08800000
   H     86.18900000    27.47500000    22.23800000
   H     85.85000000    28.43600000    23.69800000
   H     88.24000000    28.44000000    22.24000000
  Ca     92.43000000    34.05000000    18.40000000
   O     93.62000000    31.69000000    17.53000000
   H     94.54000000    31.69000000    17.79000000
   H     93.55000000    31.02000000    16.85000000

Ca 1.70



