%chk=holoCaM_loop3_55.0.chk
%nprocshared=48
%mem=10GB
%nosave
#b3lyp/svp scf=(tight,noincore) Test 
#IOP(5/87=12) Density=Current Pop=(MK,readradii) iop(6/33=2) iop(6/42=6)

holoCaM_loop3_55.0 

   0   1
   C     69.87000000    51.95000000    90.81000000
   C     70.08000000    52.54000000    92.20000000
   O     70.59000000    51.89000000    93.11000000
   H     69.14200000    52.55300000    90.26600000
   H     70.81600000    51.94800000    90.26900000
   H     69.50000000    50.92900000    90.90000000
   N     69.50000000    53.72000000    92.44000000
   C     69.05000000    54.35000000    93.66000000
   C     67.75000000    53.75000000    94.16000000
   O     66.72000000    53.85000000    93.49000000
   C     68.85000000    55.81000000    93.26000000
   C     68.45000000    56.78000000    94.36000000
   O     68.36000000    57.99000000    94.08000000
   O     68.53000000    56.46000000    95.57000000
   H     69.15000000    54.14000000    91.59000000
   H     69.77000000    54.16000000    94.46000000
   H     68.16000000    56.01000000    92.44000000
   H     69.76000000    56.20000000    92.81000000
   N     67.72000000    53.27000000    95.41000000
   C     66.60000000    52.45000000    95.83000000
   C     65.42000000    53.17000000    96.45000000
   O     64.26000000    52.78000000    96.35000000
   C     67.25000000    51.26000000    96.55000000
   C     68.22000000    50.39000000    95.76000000
   C     67.66000000    49.87000000    94.44000000
   C     68.72000000    48.97000000    93.82000000
   N     68.16000000    48.31000000    92.63000000
   H     68.47000000    53.47000000    96.05000000
   H     66.13000000    52.05000000    94.93000000
   H     66.41000000    50.62000000    96.80000000
   H     67.75000000    51.60000000    97.46000000
   H     68.49000000    49.61000000    96.48000000
   H     69.13000000    50.94000000    95.54000000
   H     67.41000000    50.67000000    93.74000000
   H     66.84000000    49.17000000    94.58000000
   H     69.14000000    48.19000000    94.45000000
   H     69.55000000    49.62000000    93.54000000
   H     67.32000000    47.82000000    92.86000000
   H     67.93000000    49.03000000    91.96000000
   H     68.78000000    47.66000000    92.16000000
   N     65.72000000    54.33000000    97.04000000
   C     64.79000000    55.21000000    97.72000000
   C     64.67000000    56.53000000    96.97000000
   O     63.87000000    57.38000000    97.35000000
   C     65.29000000    55.64000000    99.09000000
   C     66.66000000    56.31000000    99.08000000
   O     67.64000000    55.70000000    98.58000000
   O     66.79000000    57.52000000    99.34000000
   H     66.71000000    54.50000000    97.09000000
   H     63.76000000    54.85000000    97.74000000
   H     65.35000000    54.71000000    99.64000000
   H     64.60000000    56.29000000    99.64000000
   N     65.53000000    56.80000000    95.98000000
   C     65.36000000    57.93000000    95.10000000
   C     65.68000000    59.25000000    95.79000000
   O     64.87000000    60.17000000    95.67000000
   H     66.36000000    56.23000000    95.86000000
   H     64.30000000    57.95000000    94.83000000
   H     65.93000000    57.83000000    94.18000000
   N     66.83000000    59.36000000    96.46000000
   C     67.46000000    60.59000000    96.90000000
   C     68.48000000    61.22000000    95.96000000
   O     69.09000000    62.24000000    96.28000000
   C     67.90000000    60.47000000    98.35000000
   C     69.27000000    59.80000000    98.45000000
   N     70.20000000    60.35000000    99.23000000
   O     69.66000000    58.88000000    97.73000000
   H     67.38000000    58.52000000    96.50000000
   H     66.60000000    61.26000000    96.98000000
   H     67.14000000    59.96000000    98.94000000
   H     68.05000000    61.46000000    98.77000000
   H     69.90000000    61.11000000    99.84000000
   H     71.06000000    59.85000000    99.39000000
   N     68.72000000    60.67000000    94.76000000
   C     69.71000000    61.09000000    93.79000000
   C     71.09000000    60.50000000    94.00000000
   O     71.93000000    60.71000000    93.12000000
   H     68.34000000    59.75000000    94.63000000
   H     69.78000000    62.18000000    93.78000000
   H     69.41000000    60.85000000    92.77000000
   N     71.39000000    59.70000000    95.02000000
   C     72.71000000    59.18000000    95.28000000
   C     72.70000000    57.69000000    95.59000000
   O     72.02000000    57.14000000    96.45000000
   C     73.23000000    59.85000000    96.55000000
   C     73.52000000    61.32000000    96.44000000
   C     72.59000000    62.27000000    96.87000000
   C     74.76000000    61.73000000    95.94000000
   C     72.85000000    63.65000000    96.82000000
   C     74.96000000    63.12000000    95.84000000
   C     74.04000000    64.12000000    96.22000000
   O     74.30000000    65.46000000    96.22000000
   H     70.67000000    59.66000000    95.74000000
   H     73.41000000    59.35000000    94.46000000
   H     74.09000000    59.37000000    97.04000000
   H     72.47000000    59.73000000    97.33000000
   H     71.65000000    61.88000000    97.24000000
   H     75.54000000    60.99000000    95.89000000
   H     72.16000000    64.31000000    97.32000000
   H     75.89000000    63.47000000    95.44000000
   H     75.13000000    65.64000000    95.77000000
   N     73.61000000    56.87000000    95.05000000
   C     73.91000000    55.50000000    95.40000000
   C     74.88000000    55.45000000    96.57000000
   O     76.04000000    55.83000000    96.43000000
   C     74.33000000    54.63000000    94.21000000
   C     73.52000000    54.91000000    92.94000000
   C     74.10000000    53.16000000    94.56000000
   C     74.10000000    54.24000000    91.70000000
   H     74.25000000    57.32000000    94.41000000
   H     73.06000000    55.00000000    95.86000000
   H     75.38000000    54.83000000    93.99000000
   H     73.59000000    55.99000000    92.78000000
   H     72.47000000    54.66000000    93.06000000
   H     74.59000000    52.46000000    93.89000000
   H     74.45000000    52.92000000    95.56000000
   H     73.05000000    52.88000000    94.47000000
   H     73.54000000    54.51000000    90.81000000
   H     75.09000000    54.69000000    91.61000000
   H     74.13000000    53.15000000    91.76000000
   N     74.33000000    54.99000000    97.69000000
   C     75.17000000    54.62000000    98.81000000
   C     75.78000000    53.25000000    98.55000000
   O     75.29000000    52.42000000    97.80000000
   C     74.41000000    54.77000000   100.12000000
   O     73.37000000    53.81000000   100.17000000
   H     73.34000000    54.79000000    97.81000000
   H     76.00000000    55.34000000    98.81000000
   H     73.97000000    55.76000000   100.19000000
   H     75.02000000    54.59000000   101.00000000
   H     72.59000000    53.98000000    99.63000000
   N     76.86000000    52.90000000    99.26000000
   C     77.47000000    51.59000000    99.30000000
   C     76.49000000    50.43000000    99.45000000
   O     76.61000000    49.47000000    98.69000000
   C     78.66000000    51.53000000   100.24000000
   H     77.24000000    53.56000000    99.92000000
   H     77.78000000    51.40000000    98.27000000
   H     79.21000000    52.47000000   100.22000000
   H     78.34000000    51.20000000   101.23000000
   H     79.40000000    50.81000000    99.89000000
   N     75.45000000    50.55000000   100.28000000
   C     74.52000000    49.48000000   100.59000000
   C     73.56000000    49.19000000    99.45000000
   O     73.00000000    48.10000000    99.36000000
   C     73.81000000    49.77000000   101.91000000
   H     75.35000000    51.42000000   100.77000000
   H     75.12000000    48.60000000   100.81000000
   H     73.57000000    50.81000000   102.15000000
   H     72.87000000    49.22000000   101.99000000
   H     74.34000000    49.43000000   102.80000000
   N     73.41000000    50.20000000    98.59000000
   C     72.59000000    50.12000000    97.40000000
   C     73.41000000    49.63000000    96.21000000
   O     72.86000000    49.00000000    95.31000000
   C     71.94000000    51.46000000    97.07000000
   C     71.10000000    52.07000000    98.19000000
   C     70.68000000    53.50000000    97.88000000
   O     71.41000000    54.40000000    98.37000000
   O     69.75000000    53.90000000    97.15000000
   H     73.92000000    51.05000000    98.78000000
   H     71.79000000    49.40000000    97.56000000
   H     71.39000000    51.30000000    96.14000000
   H     72.72000000    52.15000000    96.77000000
   H     71.76000000    51.94000000    99.05000000
   H     70.24000000    51.44000000    98.42000000
   N     74.71000000    49.93000000    96.23000000
   C     75.55000000    49.40000000    95.17000000
   H     76.52200000    49.12500000    95.58000000
   H     75.07700000    48.51900000    94.73700000
   H     75.68300000    50.15800000    94.39800000
   H     75.09000000    50.44000000    97.02000000
  Ca     69.92000000    56.32000000    97.73000000
   O     69.44000000    56.82000000   100.38800000
   H     69.54000000    56.59000000   101.30800000
   H     68.57000000    57.19000000   100.31800000

Ca 1.70



