%chk=holoCaM_loop3_54.0.chk
%nprocshared=48
%mem=10GB
%nosave
#b3lyp/svp scf=(tight,noincore) Test 
#IOP(5/87=12) Density=Current Pop=(MK,readradii) iop(6/33=2) iop(6/42=6)

holoCaM_loop3_54.0 

   0   1
   C     35.67000000    47.13000000    43.62000000
   C     35.86000000    46.60000000    45.03000000
   O     34.85000000    46.13000000    45.55000000
   H     34.98200000    47.97500000    43.64000000
   H     36.63100000    47.45400000    43.22000000
   H     35.25900000    46.34300000    42.98800000
   N     37.06000000    46.51000000    45.62000000
   C     37.24000000    46.07000000    46.99000000
   C     36.87000000    47.15000000    48.00000000
   O     37.45000000    48.23000000    48.01000000
   C     38.67000000    45.58000000    47.18000000
   C     39.11000000    45.02000000    48.53000000
   O     38.31000000    44.96000000    49.49000000
   O     40.27000000    44.58000000    48.67000000
   H     37.90000000    46.70000000    45.09000000
   H     36.49000000    45.29000000    47.11000000
   H     39.37000000    46.40000000    47.00000000
   H     38.85000000    44.76000000    46.49000000
   N     35.91000000    46.81000000    48.86000000
   C     35.14000000    47.79000000    49.60000000
   C     35.77000000    48.21000000    50.92000000
   O     35.66000000    49.35000000    51.37000000
   C     33.72000000    47.23000000    49.71000000
   C     32.68000000    48.17000000    50.31000000
   C     31.31000000    47.54000000    50.53000000
   C     30.37000000    48.60000000    51.10000000
   N     29.02000000    48.11000000    51.42000000
   H     35.57000000    45.86000000    48.82000000
   H     35.18000000    48.67000000    48.97000000
   H     33.75000000    46.28000000    50.25000000
   H     33.37000000    46.87000000    48.75000000
   H     32.50000000    49.04000000    49.67000000
   H     33.05000000    48.47000000    51.29000000
   H     31.33000000    46.81000000    51.34000000
   H     31.04000000    47.03000000    49.60000000
   H     30.37000000    49.28000000    50.24000000
   H     30.88000000    49.07000000    51.94000000
   H     28.63000000    47.45000000    50.76000000
   H     29.07000000    47.56000000    52.27000000
   H     28.34000000    48.85000000    51.54000000
   N     36.46000000    47.21000000    51.47000000
   C     37.24000000    47.22000000    52.69000000
   C     38.76000000    47.29000000    52.51000000
   O     39.43000000    47.85000000    53.37000000
   C     36.78000000    46.09000000    53.59000000
   C     36.84000000    44.77000000    52.84000000
   O     37.95000000    44.19000000    52.74000000
   O     35.84000000    44.27000000    52.28000000
   H     36.37000000    46.38000000    50.90000000
   H     36.96000000    48.14000000    53.20000000
   H     35.76000000    46.37000000    53.85000000
   H     37.29000000    46.08000000    54.55000000
   N     39.30000000    46.70000000    51.44000000
   C     40.66000000    46.96000000    51.01000000
   C     41.63000000    45.82000000    51.29000000
   O     42.82000000    46.10000000    51.40000000
   H     38.83000000    46.22000000    50.68000000
   H     40.95000000    47.89000000    51.49000000
   H     40.56000000    47.10000000    49.94000000
   N     41.18000000    44.62000000    51.68000000
   C     42.09000000    43.56000000    52.04000000
   C     42.77000000    42.84000000    50.88000000
   O     43.55000000    41.89000000    50.95000000
   C     41.27000000    42.58000000    52.88000000
   C     40.28000000    41.75000000    52.08000000
   N     40.15000000    40.48000000    52.46000000
   O     39.58000000    42.23000000    51.18000000
   H     40.19000000    44.40000000    51.65000000
   H     42.95000000    43.90000000    52.61000000
   H     40.70000000    43.21000000    53.57000000
   H     41.89000000    41.81000000    53.33000000
   H     40.63000000    40.02000000    53.21000000
   H     39.59000000    39.87000000    51.88000000
   N     42.50000000    43.38000000    49.69000000
   C     43.00000000    42.94000000    48.41000000
   C     42.14000000    41.88000000    47.73000000
   O     42.71000000    41.07000000    46.99000000
   H     41.67000000    43.96000000    49.68000000
   H     44.02000000    42.60000000    48.55000000
   H     43.05000000    43.84000000    47.80000000
   N     40.83000000    41.88000000    47.95000000
   C     39.90000000    40.82000000    47.60000000
   C     38.53000000    41.48000000    47.45000000
   O     38.11000000    42.38000000    48.18000000
   C     39.87000000    39.69000000    48.62000000
   C     41.15000000    38.90000000    48.67000000
   C     41.96000000    38.96000000    49.81000000
   C     41.61000000    38.10000000    47.61000000
   C     43.19000000    38.29000000    49.92000000
   C     42.82000000    37.39000000    47.63000000
   C     43.56000000    37.50000000    48.82000000
   O     44.77000000    36.87000000    48.73000000
   H     40.45000000    42.60000000    48.56000000
   H     40.24000000    40.49000000    46.62000000
   H     39.10000000    39.01000000    48.25000000
   H     39.64000000    40.17000000    49.57000000
   H     41.55000000    39.41000000    50.70000000
   H     41.14000000    38.20000000    46.65000000
   H     43.68000000    38.27000000    50.88000000
   H     43.25000000    36.82000000    46.82000000
   H     45.02000000    36.42000000    47.92000000
   N     37.78000000    40.86000000    46.55000000
   C     36.41000000    41.15000000    46.17000000
   C     35.58000000    39.87000000    46.23000000
   O     35.93000000    38.78000000    45.78000000
   C     36.32000000    41.80000000    44.80000000
   C     37.26000000    42.98000000    44.55000000
   C     34.90000000    42.30000000    44.55000000
   C     37.70000000    43.15000000    43.10000000
   H     38.17000000    40.03000000    46.11000000
   H     36.02000000    41.74000000    47.00000000
   H     36.54000000    40.96000000    44.14000000
   H     38.21000000    42.83000000    45.05000000
   H     36.83000000    43.89000000    44.99000000
   H     34.66000000    43.10000000    45.25000000
   H     34.83000000    42.71000000    43.54000000
   H     34.23000000    41.44000000    44.52000000
   H     36.88000000    43.42000000    42.44000000
   H     38.42000000    43.97000000    43.08000000
   H     38.04000000    42.18000000    42.73000000
   N     34.36000000    39.87000000    46.78000000
   C     33.27000000    38.91000000    46.76000000
   C     32.06000000    39.46000000    46.02000000
   O     32.11000000    40.53000000    45.43000000
   C     32.96000000    38.31000000    48.13000000
   O     32.24000000    39.26000000    48.89000000
   H     34.07000000    40.76000000    47.14000000
   H     33.64000000    37.99000000    46.30000000
   H     33.88000000    37.99000000    48.62000000
   H     32.29000000    37.46000000    47.96000000
   H     31.83000000    38.69000000    49.55000000
   N     31.04000000    38.59000000    45.96000000
   C     29.85000000    38.90000000    45.19000000
   C     29.11000000    40.11000000    45.73000000
   O     28.68000000    40.97000000    44.96000000
   C     28.92000000    37.69000000    45.17000000
   H     31.05000000    37.78000000    46.55000000
   H     30.08000000    39.22000000    44.18000000
   H     28.09000000    37.76000000    45.89000000
   H     28.55000000    37.44000000    44.18000000
   H     29.56000000    36.86000000    45.45000000
   N     29.06000000    40.22000000    47.06000000
   C     28.46000000    41.35000000    47.73000000
   C     29.19000000    42.65000000    47.41000000
   O     28.47000000    43.65000000    47.31000000
   C     28.41000000    41.08000000    49.23000000
   H     29.22000000    39.40000000    47.63000000
   H     27.39000000    41.46000000    47.54000000
   H     29.40000000    40.97000000    49.67000000
   H     27.89000000    41.92000000    49.68000000
   H     27.89000000    40.14000000    49.42000000
   N     30.49000000    42.65000000    47.11000000
   C     31.19000000    43.89000000    46.88000000
   C     31.02000000    44.34000000    45.43000000
   O     31.04000000    45.52000000    45.11000000
   C     32.66000000    43.66000000    47.22000000
   C     32.90000000    43.51000000    48.72000000
   C     34.36000000    43.22000000    49.05000000
   O     34.78000000    42.09000000    49.38000000
   O     35.13000000    44.21000000    49.11000000
   H     31.01000000    41.81000000    46.89000000
   H     30.81000000    44.67000000    47.54000000
   H     33.26000000    44.50000000    46.87000000
   H     32.98000000    42.80000000    46.62000000
   H     32.35000000    42.62000000    49.02000000
   H     32.50000000    44.44000000    49.12000000
   N     30.78000000    43.40000000    44.52000000
   C     30.46000000    43.75000000    43.15000000
   H     29.64400000    44.47300000    43.14100000
   H     31.33700000    44.18700000    42.67200000
   H     30.15700000    42.85500000    42.60700000
   H     30.78000000    42.45000000    44.86000000
  Ca     37.06000000    42.93000000    50.47000000
   O     37.08000000    40.33000000    50.31000000
   H     37.15000000    39.99000000    51.20000000
   H     36.78000000    39.58000000    49.79000000

Ca 1.70



