%chk=holoCaM_loop3_31.0.chk
%nprocshared=48
%mem=10GB
%nosave
#b3lyp/svp scf=(tight,noincore) Test 
#IOP(5/87=12) Density=Current Pop=(MK,readradii) iop(6/33=2) iop(6/42=6)

holoCaM_loop3_31.0 

   0   1
   C     86.26000000    33.03000000    25.23000000
   C     87.75000000    32.78000000    25.10000000
   O     88.23000000    31.66000000    25.32000000
   H     85.72500000    32.08400000    25.14500000
   H     86.05000000    33.48000000    26.20000000
   H     85.93400000    33.70400000    24.43800000
   N     88.57000000    33.78000000    24.79000000
   C     90.02000000    33.78000000    24.90000000
   C     90.47000000    34.26000000    26.27000000
   O     90.66000000    35.44000000    26.54000000
   C     90.70000000    34.59000000    23.80000000
   C     92.21000000    34.74000000    23.91000000
   O     92.80000000    35.46000000    23.06000000
   O     92.84000000    34.09000000    24.78000000
   H     88.20000000    34.66000000    24.46000000
   H     90.39000000    32.76000000    24.82000000
   H     90.16000000    35.52000000    23.59000000
   H     90.56000000    33.93000000    22.95000000
   N     90.63000000    33.26000000    27.13000000
   C     90.73000000    33.44000000    28.57000000
   C     91.95000000    34.17000000    29.12000000
   O     92.00000000    34.54000000    30.29000000
   C     90.63000000    32.06000000    29.21000000
   C     89.34000000    31.29000000    28.96000000
   C     88.09000000    31.96000000    29.53000000
   C     86.82000000    31.16000000    29.26000000
   N     85.67000000    31.86000000    29.86000000
   H     90.48000000    32.31000000    26.81000000
   H     89.91000000    34.11000000    28.82000000
   H     90.86000000    32.16000000    30.27000000
   H     91.38000000    31.42000000    28.76000000
   H     89.47000000    30.31000000    29.41000000
   H     89.20000000    31.10000000    27.89000000
   H     87.99000000    32.93000000    29.04000000
   H     88.31000000    32.11000000    30.59000000
   H     86.85000000    30.11000000    29.54000000
   H     86.82000000    31.17000000    28.17000000
   H     85.76000000    32.85000000    29.67000000
   H     84.76000000    31.53000000    29.58000000
   H     85.70000000    31.71000000    30.85000000
   N     92.96000000    34.44000000    28.30000000
   C     94.17000000    35.10000000    28.76000000
   C     94.62000000    36.24000000    27.86000000
   O     95.60000000    36.90000000    28.18000000
   C     95.29000000    34.09000000    29.02000000
   C     95.63000000    33.16000000    27.87000000
   O     95.20000000    33.44000000    26.73000000
   O     96.07000000    32.01000000    28.10000000
   H     92.88000000    34.15000000    27.34000000
   H     93.96000000    35.44000000    29.78000000
   H     95.00000000    33.46000000    29.86000000
   H     96.22000000    34.57000000    29.32000000
   N     93.89000000    36.55000000    26.78000000
   C     94.31000000    37.67000000    25.97000000
   C     95.36000000    37.43000000    24.90000000
   O     95.80000000    38.39000000    24.27000000
   H     93.03000000    36.04000000    26.66000000
   H     94.56000000    38.53000000    26.60000000
   H     93.42000000    37.93000000    25.40000000
   N     95.73000000    36.18000000    24.59000000
   C     96.90000000    35.89000000    23.79000000
   C     96.65000000    35.88000000    22.29000000
   O     97.56000000    35.59000000    21.52000000
   C     97.46000000    34.63000000    24.44000000
   C     96.91000000    33.34000000    23.86000000
   N     97.66000000    32.23000000    23.94000000
   O     95.76000000    33.24000000    23.47000000
   H     95.27000000    35.47000000    25.14000000
   H     97.60000000    36.70000000    24.02000000
   H     97.28000000    34.67000000    25.52000000
   H     98.53000000    34.53000000    24.26000000
   H     98.55000000    32.26000000    24.41000000
   H     97.29000000    31.32000000    23.68000000
   N     95.40000000    36.10000000    21.86000000
   C     94.75000000    36.10000000    20.57000000
   C     94.24000000    34.77000000    20.03000000
   O     93.77000000    34.72000000    18.90000000
   H     94.73000000    36.20000000    22.61000000
   H     95.47000000    36.40000000    19.81000000
   H     93.94000000    36.83000000    20.58000000
   N     94.26000000    33.71000000    20.84000000
   C     93.91000000    32.36000000    20.45000000
   C     93.01000000    31.61000000    21.43000000
   O     93.37000000    31.42000000    22.59000000
   C     95.23000000    31.65000000    20.18000000
   C     96.25000000    32.26000000    19.24000000
   C     97.42000000    32.82000000    19.76000000
   C     95.99000000    32.29000000    17.87000000
   C     98.46000000    33.27000000    18.93000000
   C     96.95000000    32.78000000    16.99000000
   C     98.16000000    33.23000000    17.55000000
   O     99.19000000    33.59000000    16.73000000
   H     94.70000000    33.77000000    21.75000000
   H     93.41000000    32.43000000    19.49000000
   H     95.03000000    30.63000000    19.83000000
   H     95.65000000    31.56000000    21.18000000
   H     97.54000000    32.84000000    20.83000000
   H     95.11000000    31.91000000    17.37000000
   H     99.41000000    33.64000000    19.29000000
   H     96.79000000    32.82000000    15.92000000
   H     98.89000000    33.61000000    15.82000000
   N     91.97000000    30.95000000    20.93000000
   C     91.18000000    29.99000000    21.67000000
   C     91.82000000    28.63000000    21.46000000
   O     91.88000000    28.11000000    20.35000000
   C     89.69000000    30.05000000    21.34000000
   C     89.11000000    31.40000000    21.76000000
   C     88.98000000    28.82000000    21.90000000
   C     87.62000000    31.61000000    21.48000000
   H     91.81000000    31.03000000    19.93000000
   H     91.28000000    30.23000000    22.73000000
   H     89.66000000    29.86000000    20.27000000
   H     89.68000000    32.11000000    21.16000000
   H     89.23000000    31.58000000    22.83000000
   H     89.53000000    28.00000000    21.44000000
   H     89.10000000    28.75000000    22.98000000
   H     87.91000000    28.89000000    21.72000000
   H     87.36000000    31.29000000    20.47000000
   H     87.06000000    31.07000000    22.24000000
   H     87.44000000    32.67000000    21.62000000
   N     92.18000000    27.95000000    22.55000000
   C     92.50000000    26.54000000    22.64000000
   C     91.45000000    25.62000000    23.25000000
   O     90.42000000    26.04000000    23.76000000
   C     93.77000000    26.44000000    23.49000000
   O     93.61000000    27.09000000    24.73000000
   H     92.05000000    28.44000000    23.42000000
   H     92.61000000    26.14000000    21.63000000
   H     94.54000000    27.03000000    23.00000000
   H     94.01000000    25.39000000    23.58000000
   H     93.49000000    28.03000000    24.58000000
   N     91.72000000    24.32000000    23.36000000
   C     90.89000000    23.30000000    23.96000000
   C     90.46000000    23.52000000    25.41000000
   O     89.33000000    23.26000000    25.81000000
   C     91.53000000    21.92000000    23.85000000
   H     92.62000000    24.08000000    22.97000000
   H     90.00000000    23.34000000    23.33000000
   H     92.58000000    21.92000000    24.14000000
   H     90.98000000    21.14000000    24.37000000
   H     91.53000000    21.63000000    22.79000000
   N     91.35000000    24.10000000    26.22000000
   C     91.16000000    24.28000000    27.65000000
   C     90.17000000    25.40000000    27.95000000
   O     89.70000000    25.63000000    29.06000000
   C     92.50000000    24.35000000    28.36000000
   H     92.27000000    24.24000000    25.83000000
   H     90.67000000    23.41000000    28.08000000
   H     93.24000000    24.97000000    27.85000000
   H     92.37000000    24.73000000    29.38000000
   H     93.01000000    23.41000000    28.59000000
   N     89.88000000    26.23000000    26.94000000
   C     89.06000000    27.42000000    26.84000000
   C     87.76000000    27.09000000    26.12000000
   O     86.70000000    27.63000000    26.45000000
   C     89.81000000    28.50000000    26.06000000
   C     91.22000000    28.82000000    26.52000000
   C     91.88000000    29.93000000    25.71000000
   O     91.86000000    31.08000000    26.20000000
   O     92.55000000    29.63000000    24.70000000
   H     90.35000000    26.02000000    26.07000000
   H     88.82000000    27.77000000    27.84000000
   H     89.29000000    29.44000000    25.86000000
   H     89.99000000    28.10000000    25.07000000
   H     91.83000000    27.92000000    26.42000000
   H     91.21000000    29.06000000    27.59000000
   N     87.76000000    26.01000000    25.33000000
   C     86.58000000    25.36000000    24.81000000
   H     85.79000000    26.09800000    24.67400000
   H     86.81300000    24.89600000    23.85100000
   H     86.24600000    24.59600000    25.51200000
   H     88.69000000    25.67000000    25.11000000
  Ca     94.01000000    31.83000000    25.14000000
   O     95.04000000    29.95000000    26.66000000
   H     95.20000000    29.02000000    26.87000000
   H     95.43000000    30.43000000    27.39000000

Ca 1.70



