%chk=holoCaM_loop3_46.0.chk
%nprocshared=48
%mem=10GB
%nosave
#b3lyp/svp scf=(tight,noincore) Test 
#IOP(5/87=12) Density=Current Pop=(MK,readradii) iop(6/33=2) iop(6/42=6)

holoCaM_loop3_46.0 

   0   1
   C     93.08000000    59.25000000   104.22200000
   C     94.37000000    59.61000000   103.50200000
   O     95.02000000    58.68000000   103.02200000
   H     92.27700000    59.13800000   103.49300000
   H     93.21400000    58.31200000   104.76200000
   H     92.82300000    60.04200000   104.92600000
   N     94.67000000    60.90000000   103.41200000
   C     95.87000000    61.50000000   102.85200000
   C     97.04000000    61.20000000   103.79200000
   O     97.04000000    61.63000000   104.94200000
   C     95.65000000    63.00000000   102.68200000
   C     96.68000000    63.67000000   101.79200000
   O     96.34000000    64.79000000   101.34200000
   O     97.70000000    63.05000000   101.44200000
   H     94.05000000    61.53000000   103.89200000
   H     96.10000000    61.05000000   101.89200000
   H     95.64000000    63.51000000   103.64200000
   H     94.66000000    63.18000000   102.25200000
   N     98.09000000    60.62000000   103.21200000
   C     99.22000000    60.17000000   104.00200000
   C    100.36000000    61.19000000   104.04200000
   O    101.32000000    61.07000000   104.80200000
   C     99.73000000    58.83000000   103.48200000
   C     98.81000000    57.64000000   103.67200000
   C     99.53000000    56.30000000   103.71200000
   C     98.65000000    55.19000000   104.27200000
   N     99.56000000    54.05000000   104.48200000
   H     97.99000000    60.40000000   102.23200000
   H     98.95000000    60.09000000   105.05200000
   H    100.70000000    58.58000000   103.92200000
   H     99.84000000    59.04000000   102.42200000
   H     98.04000000    57.52000000   102.91200000
   H     98.28000000    57.88000000   104.60200000
   H    100.54000000    56.41000000   104.13200000
   H     99.76000000    56.04000000   102.68200000
   H     97.93000000    55.00000000   103.48200000
   H     98.14000000    55.53000000   105.18200000
   H    100.24000000    53.87000000   103.75200000
   H    100.20000000    54.19000000   105.25200000
   H     99.12000000    53.22000000   104.83200000
   N    100.32000000    62.22000000   103.20200000
   C    101.27000000    63.31000000   103.10200000
   C    100.67000000    64.69000000   103.32200000
   O    101.43000000    65.63000000   103.52200000
   C    102.15000000    63.22000000   101.86200000
   C    101.55000000    63.80000000   100.59200000
   O    102.31000000    64.01000000    99.62200000
   O    100.31000000    63.93000000   100.45200000
   H     99.60000000    62.13000000   102.50200000
   H    101.89000000    63.19000000   103.99200000
   H    102.31000000    62.15000000   101.73200000
   H    103.08000000    63.77000000   102.02200000
   N     99.34000000    64.74000000   103.30200000
   C     98.55000000    65.95000000   103.47200000
   C     98.46000000    66.91000000   102.29200000
   O     97.97000000    68.00000000   102.56200000
   H     98.84000000    63.87000000   103.20200000
   H     98.90000000    66.57000000   104.29200000
   H     97.54000000    65.71000000   103.80200000
   N     98.91000000    66.60000000   101.06200000
   C     99.08000000    67.55000000    99.99200000
   C     97.78000000    68.11000000    99.43200000
   O     97.85000000    68.96000000    98.54200000
   C     99.97000000    67.02000000    98.87200000
   C     99.19000000    66.06000000    97.98200000
   N     99.61000000    65.98000000    96.72200000
   O     98.22000000    65.36000000    98.29200000
   H     99.33000000    65.69000000   100.93200000
   H     99.66000000    68.38000000   100.41200000
   H    100.78000000    66.49000000    99.39200000
   H    100.33000000    67.93000000    98.41200000
   H    100.36000000    66.48000000    96.28200000
   H     99.20000000    65.20000000    96.22200000
   N     96.57000000    67.75000000    99.86200000
   C     95.29000000    68.27000000    99.44200000
   C     94.67000000    67.55000000    98.25200000
   O     93.76000000    68.08000000    97.61200000
   H     96.49000000    66.86000000   100.34200000
   H     95.35000000    69.34000000    99.25200000
   H     94.65000000    68.07000000   100.30200000
   N     95.10000000    66.31000000    98.05200000
   C     94.72000000    65.45000000    96.95200000
   C     95.05000000    64.03000000    97.39200000
   O     95.97000000    63.81000000    98.19200000
   C     95.48000000    65.75000000    95.66200000
   C     95.56000000    67.20000000    95.26200000
   C     96.60000000    68.01000000    95.73200000
   C     94.70000000    67.81000000    94.33200000
   C     96.77000000    69.34000000    95.33200000
   C     94.88000000    69.12000000    93.89200000
   C     95.91000000    69.94000000    94.39200000
   O     96.11000000    71.25000000    94.09200000
   H     95.79000000    65.92000000    98.68200000
   H     93.64000000    65.51000000    96.79200000
   H     95.07000000    65.11000000    94.88200000
   H     96.52000000    65.47000000    95.83200000
   H     97.29000000    67.65000000    96.48200000
   H     93.88000000    67.21000000    93.97200000
   H     97.52000000    69.93000000    95.83200000
   H     94.11000000    69.57000000    93.27200000
   H     95.59000000    71.54000000    93.34200000
   N     94.33000000    63.07000000    96.82200000
   C     94.55000000    61.65000000    97.04200000
   C     95.14000000    61.10000000    95.76200000
   O     94.72000000    61.47000000    94.66200000
   C     93.35000000    60.89000000    97.60200000
   C     92.82000000    61.32000000    98.96200000
   C     93.56000000    59.38000000    97.61200000
   C     93.82000000    61.13000000   100.10200000
   H     93.66000000    63.31000000    96.11200000
   H     95.27000000    61.55000000    97.85200000
   H     92.56000000    60.98000000    96.85200000
   H     91.84000000    60.91000000    99.18200000
   H     92.66000000    62.40000000    98.95200000
   H     92.77000000    58.85000000    98.15200000
   H     93.70000000    58.88000000    96.66200000
   H     94.47000000    59.12000000    98.15200000
   H     94.11000000    60.08000000   100.09200000
   H     94.70000000    61.75000000    99.92200000
   H     93.29000000    61.31000000   101.04200000
   N     96.08000000    60.15000000    95.80200000
   C     96.77000000    59.58000000    94.66200000
   C     96.59000000    58.07000000    94.71200000
   O     96.17000000    57.58000000    95.76200000
   C     98.23000000    60.02000000    94.62200000
   O     98.75000000    59.95000000    95.93200000
   H     96.44000000    59.95000000    96.72200000
   H     96.40000000    59.98000000    93.72200000
   H     98.26000000    61.07000000    94.31200000
   H     98.80000000    59.41000000    93.92200000
   H     99.68000000    59.74000000    95.86200000
   N     96.66000000    57.35000000    93.59200000
   C     96.46000000    55.91000000    93.58200000
   C     97.29000000    55.13000000    94.59200000
   O     96.75000000    54.21000000    95.20200000
   C     96.92000000    55.50000000    92.18200000
   H     96.93000000    57.78000000    92.72200000
   H     95.41000000    55.66000000    93.66200000
   H     96.67000000    54.44000000    92.11200000
   H     96.35000000    56.01000000    91.41200000
   H     98.00000000    55.67000000    92.09200000
   N     98.56000000    55.43000000    94.89200000
   C     99.32000000    54.67000000    95.86200000
   C     98.75000000    54.83000000    97.26200000
   O     98.94000000    54.01000000    98.17200000
   C    100.76000000    55.18000000    95.80200000
   H     98.99000000    56.23000000    94.47200000
   H     99.37000000    53.59000000    95.70200000
   H    101.33000000    54.82000000    94.95200000
   H    100.87000000    56.27000000    95.74200000
   H    101.30000000    54.86000000    96.69200000
   N     97.91000000    55.84000000    97.48200000
   C     97.25000000    56.07000000    98.75200000
   C     95.87000000    55.45000000    98.88200000
   O     95.53000000    54.93000000    99.94200000
   C     97.06000000    57.56000000    99.01200000
   C     98.37000000    58.32000000    99.18200000
   C     98.12000000    59.80000000    99.41200000
   O     98.94000000    60.50000000   100.04200000
   O     97.21000000    60.39000000    98.79200000
   H     97.72000000    56.48000000    96.71200000
   H     97.79000000    55.63000000    99.59200000
   H     96.38000000    57.66000000    99.85200000
   H     96.46000000    57.99000000    98.21200000
   H     98.87000000    58.27000000    98.21200000
   H     98.99000000    57.81000000    99.92200000
   N     95.13000000    55.38000000    97.77200000
   C     93.82000000    54.77000000    97.67200000
   H     93.11600000    55.48900000    97.25300000
   H     93.87400000    53.89500000    97.02400000
   H     93.48300000    54.46800000    98.66300000
   H     95.44000000    55.85000000    96.93200000
  Ca     98.30000000    62.84000000    99.02000000
   O    100.69200000    62.26000000    98.20000000
   H    101.38200000    61.83000000    97.70000000
   H    101.15200000    62.92000000    98.73000000

Ca 1.70



