%chk=holoCaM_loop3_49.0.chk
%nprocshared=48
%mem=10GB
%nosave
#b3lyp/svp scf=(tight,noincore) Test 
#IOP(5/87=12) Density=Current Pop=(MK,readradii) iop(6/33=2) iop(6/42=6)

holoCaM_loop3_49.0 

   0   1
   C     81.46000000    37.91000000     6.20000000
   C     82.55000000    37.84000000     5.13000000
   O     83.10000000    36.79000000     4.84000000
   H     80.54400000    37.46200000     5.81500000
   H     81.78500000    37.36600000     7.08700000
   H     81.27200000    38.95200000     6.46100000
   N     83.01000000    38.99000000     4.63000000
   C     84.32000000    39.17000000     4.04000000
   C     85.38000000    39.15000000     5.13000000
   O     85.35000000    39.94000000     6.07000000
   C     84.24000000    40.45000000     3.20000000
   C     85.67000000    40.93000000     2.97000000
   O     86.11000000    40.49000000     1.89000000
   O     86.33000000    41.50000000     3.87000000
   H     82.46000000    39.81000000     4.82000000
   H     84.53000000    38.26000000     3.48000000
   H     83.64000000    41.30000000     3.54000000
   H     83.78000000    40.28000000     2.23000000
   N     86.43000000    38.33000000     4.98000000
   C     87.24000000    37.87000000     6.09000000
   C     88.57000000    38.59000000     6.26000000
   O     89.48000000    38.08000000     6.91000000
   C     87.38000000    36.36000000     5.90000000
   C     87.67000000    35.52000000     7.14000000
   C     86.38000000    35.31000000     7.94000000
   C     86.64000000    34.28000000     9.03000000
   N     85.60000000    34.17000000    10.07000000
   H     86.45000000    37.73000000     4.17000000
   H     86.61000000    38.08000000     6.95000000
   H     88.27000000    36.24000000     5.29000000
   H     86.51000000    35.97000000     5.36000000
   H     88.54000000    35.80000000     7.74000000
   H     88.00000000    34.61000000     6.65000000
   H     85.49000000    34.99000000     7.41000000
   H     86.16000000    36.30000000     8.34000000
   H     87.42000000    34.66000000     9.69000000
   H     86.97000000    33.32000000     8.65000000
   H     85.18000000    35.05000000    10.34000000
   H     84.80000000    33.71000000     9.66000000
   H     86.02000000    33.64000000    10.82000000
   N     88.57000000    39.81000000     5.72000000
   C     89.77000000    40.62000000     5.75000000
   C     89.66000000    42.13000000     5.70000000
   O     90.58000000    42.82000000     6.15000000
   C     90.69000000    40.31000000     4.57000000
   C     90.01000000    40.02000000     3.24000000
   O     89.84000000    40.83000000     2.30000000
   O     89.59000000    38.85000000     3.09000000
   H     87.81000000    40.21000000     5.19000000
   H     90.38000000    40.23000000     6.56000000
   H     91.23000000    39.39000000     4.77000000
   H     91.43000000    41.09000000     4.41000000
   N     88.56000000    42.55000000     5.09000000
   C     88.27000000    43.96000000     4.90000000
   C     88.30000000    44.52000000     3.49000000
   O     88.30000000    45.75000000     3.44000000
   H     88.01000000    41.84000000     4.61000000
   H     88.99000000    44.60000000     5.41000000
   H     87.31000000    44.16000000     5.38000000
   N     88.17000000    43.71000000     2.44000000
   C     88.07000000    44.39000000     1.17000000
   C     86.63000000    44.52000000     0.69000000
   O     86.44000000    45.35000000    -0.20000000
   C     88.99000000    43.88000000     0.06000000
   C     88.79000000    42.42000000    -0.32000000
   N     89.70000000    41.87000000    -1.13000000
   O     87.84000000    41.72000000     0.05000000
   H     88.29000000    42.72000000     2.60000000
   H     88.42000000    45.42000000     1.21000000
   H     90.01000000    44.02000000     0.41000000
   H     88.79000000    44.55000000    -0.77000000
   H     90.49000000    42.42000000    -1.44000000
   H     89.55000000    40.90000000    -1.36000000
   N     85.68000000    43.82000000     1.30000000
   C     84.31000000    43.65000000     0.85000000
   C     84.07000000    42.73000000    -0.34000000
   O     83.12000000    42.97000000    -1.08000000
   H     85.96000000    43.12000000     1.97000000
   H     83.88000000    44.61000000     0.56000000
   H     83.86000000    43.18000000     1.72000000
   N     84.88000000    41.69000000    -0.56000000
   C     84.64000000    40.64000000    -1.53000000
   C     84.89000000    39.25000000    -0.98000000
   O     86.02000000    38.91000000    -0.63000000
   C     85.48000000    40.81000000    -2.79000000
   C     85.40000000    42.18000000    -3.43000000
   C     86.57000000    42.93000000    -3.61000000
   C     84.16000000    42.53000000    -3.98000000
   C     86.45000000    44.16000000    -4.28000000
   C     84.02000000    43.79000000    -4.56000000
   C     85.18000000    44.57000000    -4.75000000
   O     85.11000000    45.85000000    -5.21000000
   H     85.60000000    41.51000000     0.12000000
   H     83.63000000    40.68000000    -1.93000000
   H     85.16000000    40.14000000    -3.59000000
   H     86.50000000    40.56000000    -2.51000000
   H     87.50000000    42.61000000    -3.18000000
   H     83.37000000    41.79000000    -3.89000000
   H     87.28000000    44.80000000    -4.53000000
   H     83.09000000    44.12000000    -5.01000000
   H     84.19000000    46.09000000    -5.36000000
   N     83.96000000    38.31000000    -1.16000000
   C     84.05000000    36.99000000    -0.56000000
   C     84.68000000    36.13000000    -1.64000000
   O     84.10000000    36.10000000    -2.72000000
   C     82.66000000    36.58000000    -0.09000000
   C     82.43000000    37.38000000     1.20000000
   C     82.54000000    35.09000000     0.17000000
   C     80.97000000    37.24000000     1.59000000
   H     83.11000000    38.62000000    -1.61000000
   H     84.71000000    36.89000000     0.31000000
   H     81.92000000    36.86000000    -0.85000000
   H     82.59000000    38.45000000     1.13000000
   H     83.12000000    37.01000000     1.96000000
   H     81.56000000    34.64000000     0.30000000
   H     82.83000000    34.53000000    -0.72000000
   H     83.16000000    34.75000000     1.01000000
   H     80.95000000    36.23000000     2.01000000
   H     80.72000000    37.90000000     2.42000000
   H     80.29000000    37.46000000     0.77000000
   N     85.74000000    35.39000000    -1.32000000
   C     86.28000000    34.22000000    -1.98000000
   C     85.79000000    32.95000000    -1.29000000
   O     85.12000000    33.05000000    -0.26000000
   C     87.80000000    34.32000000    -2.03000000
   O     88.27000000    34.24000000    -0.70000000
   H     86.03000000    35.46000000    -0.35000000
   H     85.90000000    34.17000000    -3.00000000
   H     88.05000000    35.32000000    -2.39000000
   H     88.28000000    33.56000000    -2.65000000
   H     88.38000000    35.14000000    -0.39000000
   N     86.06000000    31.79000000    -1.88000000
   C     85.50000000    30.53000000    -1.43000000
   C     86.00000000    30.03000000    -0.09000000
   O     85.22000000    29.40000000     0.63000000
   C     85.74000000    29.56000000    -2.58000000
   H     86.54000000    31.83000000    -2.77000000
   H     84.41000000    30.61000000    -1.39000000
   H     86.80000000    29.28000000    -2.58000000
   H     85.21000000    28.63000000    -2.36000000
   H     85.55000000    29.96000000    -3.58000000
   N     87.21000000    30.35000000     0.37000000
   C     87.62000000    30.06000000     1.73000000
   C     87.03000000    31.05000000     2.72000000
   O     86.74000000    30.78000000     3.88000000
   C     89.13000000    30.13000000     1.90000000
   H     87.85000000    30.87000000    -0.21000000
   H     87.33000000    29.05000000     2.03000000
   H     89.52000000    31.10000000     1.57000000
   H     89.38000000    30.13000000     2.96000000
   H     89.59000000    29.25000000     1.44000000
   N     86.62000000    32.21000000     2.20000000
   C     85.91000000    33.16000000     3.03000000
   C     84.41000000    32.89000000     3.12000000
   O     83.79000000    33.02000000     4.17000000
   C     86.17000000    34.61000000     2.62000000
   C     87.63000000    35.01000000     2.48000000
   C     87.66000000    36.38000000     1.83000000
   O     87.09000000    37.34000000     2.39000000
   O     88.24000000    36.48000000     0.73000000
   H     86.84000000    32.48000000     1.25000000
   H     86.34000000    33.14000000     4.03000000
   H     85.65000000    35.28000000     3.31000000
   H     85.68000000    34.67000000     1.65000000
   H     88.17000000    34.27000000     1.88000000
   H     88.03000000    35.09000000     3.49000000
   N     83.80000000    32.40000000     2.04000000
   C     82.46000000    31.86000000     1.98000000
   H     81.79200000    32.59600000     1.53300000
   H     82.46000000    30.95400000     1.37400000
   H     82.11700000    31.62400000     2.98700000
   H     84.31000000    32.50000000     1.18000000
  Ca     88.07000000    39.17000000     1.01000000
   O     90.67000000    38.82000000     0.19000000
   H     91.35000000    39.49000000     0.11000000
   H     91.13000000    38.00000000     0.01000000

Ca 1.70



