%chk=holoCaM_loop3_52.0.chk
%nprocshared=48
%mem=10GB
%nosave
#b3lyp/svp scf=(tight,noincore) Test 
#IOP(5/87=12) Density=Current Pop=(MK,readradii) iop(6/33=2) iop(6/42=6)

holoCaM_loop3_52.0 

   0   1
   C     42.27000000    45.39000000    31.55000000
   C     42.97000000    44.35000000    32.41000000
   O     42.85000000    44.40000000    33.63000000
   H     41.35200000    45.71000000    32.04300000
   H     42.92600000    46.24900000    31.41200000
   H     42.02800000    44.95700000    30.57900000
   N     43.75000000    43.42000000    31.84000000
   C     44.56000000    42.48000000    32.58000000
   C     45.89000000    43.17000000    32.84000000
   O     46.90000000    42.99000000    32.17000000
   C     44.59000000    41.18000000    31.78000000
   C     45.46000000    40.13000000    32.46000000
   O     45.49000000    40.11000000    33.71000000
   O     46.10000000    39.33000000    31.74000000
   H     43.85000000    43.42000000    30.84000000
   H     44.10000000    42.31000000    33.56000000
   H     44.93000000    41.42000000    30.77000000
   H     43.56000000    40.85000000    31.70000000
   N     45.94000000    43.98000000    33.91000000
   C     47.07000000    44.71000000    34.42000000
   C     48.23000000    43.87000000    34.93000000
   O     49.40000000    44.22000000    34.74000000
   C     46.62000000    45.62000000    35.56000000
   C     45.53000000    46.67000000    35.35000000
   C     45.27000000    47.45000000    36.63000000
   C     44.36000000    46.83000000    37.69000000
   N     43.02000000    47.41000000    37.85000000
   H     45.08000000    43.96000000    34.44000000
   H     47.47000000    45.26000000    33.57000000
   H     47.45000000    46.11000000    36.08000000
   H     46.11000000    44.96000000    36.26000000
   H     44.60000000    46.14000000    35.13000000
   H     45.82000000    47.39000000    34.58000000
   H     44.87000000    48.44000000    36.40000000
   H     46.20000000    47.78000000    37.08000000
   H     44.88000000    46.90000000    38.64000000
   H     44.20000000    45.76000000    37.55000000
   H     43.10000000    48.32000000    38.28000000
   H     42.51000000    47.45000000    36.98000000
   H     42.44000000    46.86000000    38.48000000
   N     48.00000000    42.77000000    35.66000000
   C     49.05000000    41.85000000    36.06000000
   C     49.57000000    40.99000000    34.92000000
   O     50.76000000    40.67000000    34.99000000
   C     48.55000000    40.87000000    37.12000000
   C     47.13000000    40.37000000    36.89000000
   O     46.18000000    41.17000000    36.75000000
   O     46.87000000    39.15000000    36.89000000
   H     47.03000000    42.50000000    35.71000000
   H     49.96000000    42.35000000    36.38000000
   H     48.61000000    41.35000000    38.09000000
   H     49.28000000    40.06000000    37.08000000
   N     48.69000000    40.66000000    33.97000000
   C     49.20000000    39.95000000    32.82000000
   C     49.18000000    38.44000000    33.00000000
   O     50.25000000    37.87000000    32.79000000
   H     47.73000000    40.96000000    34.00000000
   H     50.21000000    40.29000000    32.57000000
   H     48.50000000    40.18000000    32.02000000
   N     48.05000000    37.87000000    33.44000000
   C     47.78000000    36.48000000    33.71000000
   C     46.83000000    35.73000000    32.79000000
   O     46.57000000    34.54000000    32.97000000
   C     47.34000000    36.33000000    35.16000000
   C     45.89000000    36.69000000    35.43000000
   N     45.30000000    36.34000000    36.58000000
   O     45.22000000    37.33000000    34.63000000
   H     47.23000000    38.46000000    33.39000000
   H     48.76000000    35.99000000    33.65000000
   H     47.98000000    36.81000000    35.90000000
   H     47.26000000    35.24000000    35.27000000
   H     45.88000000    35.85000000    37.26000000
   H     44.36000000    36.50000000    36.88000000
   N     46.32000000    36.42000000    31.77000000
   C     45.33000000    35.99000000    30.80000000
   C     43.89000000    36.30000000    31.20000000
   O     42.98000000    36.01000000    30.42000000
   H     46.58000000    37.40000000    31.75000000
   H     45.27000000    34.92000000    30.63000000
   H     45.41000000    36.51000000    29.85000000
   N     43.56000000    36.68000000    32.43000000
   C     42.19000000    36.49000000    32.86000000
   C     41.80000000    37.75000000    33.62000000
   O     42.55000000    38.36000000    34.40000000
   C     41.99000000    35.29000000    33.77000000
   C     42.52000000    33.96000000    33.27000000
   C     43.56000000    33.29000000    33.91000000
   C     42.05000000    33.51000000    32.03000000
   C     44.07000000    32.07000000    33.44000000
   C     42.58000000    32.34000000    31.48000000
   C     43.47000000    31.58000000    32.26000000
   O     43.96000000    30.43000000    31.72000000
   H     44.27000000    36.75000000    33.14000000
   H     41.51000000    36.38000000    32.01000000
   H     40.97000000    35.12000000    34.12000000
   H     42.50000000    35.49000000    34.71000000
   H     43.96000000    33.71000000    34.83000000
   H     41.24000000    34.04000000    31.53000000
   H     44.91000000    31.59000000    33.91000000
   H     42.16000000    32.09000000    30.51000000
   H     43.48000000    30.14000000    30.94000000
   N     40.58000000    38.21000000    33.36000000
   C     39.97000000    39.43000000    33.86000000
   C     38.89000000    39.12000000    34.88000000
   O     37.96000000    38.36000000    34.60000000
   C     39.43000000    40.28000000    32.71000000
   C     40.55000000    40.80000000    31.82000000
   C     38.52000000    41.40000000    33.20000000
   C     39.98000000    41.33000000    30.50000000
   H     40.07000000    37.70000000    32.66000000
   H     40.79000000    39.97000000    34.33000000
   H     38.76000000    39.59000000    32.20000000
   H     41.29000000    40.04000000    31.56000000
   H     41.03000000    41.64000000    32.33000000
   H     38.97000000    42.01000000    33.98000000
   H     38.19000000    42.15000000    32.49000000
   H     37.60000000    40.93000000    33.57000000
   H     39.68000000    42.38000000    30.54000000
   H     40.73000000    41.35000000    29.71000000
   H     39.18000000    40.70000000    30.11000000
   N     38.90000000    39.79000000    36.03000000
   C     37.83000000    39.80000000    37.01000000
   C     36.98000000    41.06000000    36.86000000
   O     37.38000000    42.02000000    36.21000000
   C     38.43000000    39.69000000    38.40000000
   O     38.95000000    40.93000000    38.81000000
   H     39.65000000    40.44000000    36.23000000
   H     37.26000000    38.88000000    36.91000000
   H     39.28000000    39.00000000    38.41000000
   H     37.63000000    39.42000000    39.10000000
   H     39.90000000    40.94000000    38.97000000
   N     35.85000000    41.07000000    37.58000000
   C     35.00000000    42.25000000    37.57000000
   C     35.64000000    43.53000000    38.09000000
   O     35.44000000    44.57000000    37.48000000
   C     33.72000000    41.85000000    38.31000000
   H     35.52000000    40.32000000    38.16000000
   H     34.75000000    42.47000000    36.53000000
   H     32.97000000    42.64000000    38.35000000
   H     33.36000000    40.95000000    37.82000000
   H     33.91000000    41.58000000    39.35000000
   N     36.64000000    43.38000000    38.96000000
   C     37.34000000    44.55000000    39.48000000
   C     38.18000000    45.17000000    38.37000000
   O     38.54000000    46.34000000    38.44000000
   C     38.25000000    44.06000000    40.60000000
   H     36.81000000    42.45000000    39.31000000
   H     36.64000000    45.30000000    39.87000000
   H     38.82000000    43.21000000    40.23000000
   H     38.91000000    44.88000000    40.88000000
   H     37.69000000    43.79000000    41.49000000
   N     38.63000000    44.33000000    37.44000000
   C     39.52000000    44.68000000    36.35000000
   C     38.71000000    45.31000000    35.23000000
   O     39.21000000    46.17000000    34.50000000
   C     40.37000000    43.47000000    35.97000000
   C     41.69000000    43.27000000    36.70000000
   C     42.50000000    42.04000000    36.28000000
   O     42.04000000    40.92000000    36.57000000
   O     43.59000000    42.14000000    35.67000000
   H     38.21000000    43.41000000    37.44000000
   H     40.21000000    45.42000000    36.76000000
   H     40.61000000    43.48000000    34.91000000
   H     39.80000000    42.55000000    36.11000000
   H     41.51000000    43.20000000    37.78000000
   H     42.38000000    44.10000000    36.54000000
   N     37.47000000    44.86000000    35.04000000
   C     36.56000000    45.53000000    34.14000000
   H     35.67600000    45.85200000    34.69100000
   H     37.05300000    46.39900000    33.70500000
   H     36.26300000    44.84500000    33.34600000
   H     37.17000000    44.14000000    35.69000000
  Ca     44.36000000    39.60000000    35.86000000
   O     42.80000000    37.52000000    36.88000000
   H     42.61000000    36.74000000    37.40000000
   H     41.95000000    37.77000000    36.51000000

Ca 1.70



