%chk=holoCaM_loop3_50.0.chk
%nprocshared=48
%mem=10GB
%nosave
#b3lyp/svp scf=(tight,noincore) Test 
#IOP(5/87=12) Density=Current Pop=(MK,readradii) iop(6/33=2) iop(6/42=6)

holoCaM_loop3_50.0 

   0   1
   C     36.46000000    46.72000000    43.69000000
   C     36.59000000    45.82000000    44.91000000
   O     35.54000000    45.37000000    45.37000000
   H     35.85500000    47.59100000    43.94400000
   H     37.45000000    47.04600000    43.37100000
   H     35.98100000    46.16900000    42.88100000
   N     37.80000000    45.66000000    45.46000000
   C     38.12000000    44.94000000    46.68000000
   C     37.83000000    45.76000000    47.93000000
   O     38.68000000    46.40000000    48.54000000
   C     39.58000000    44.48000000    46.63000000
   C     40.06000000    43.67000000    47.82000000
   O     39.27000000    43.25000000    48.68000000
   O     41.30000000    43.47000000    47.78000000
   H     38.49000000    46.17000000    44.93000000
   H     37.48000000    44.06000000    46.80000000
   H     40.10000000    45.43000000    46.50000000
   H     39.55000000    43.93000000    45.69000000
   N     36.58000000    45.68000000    48.40000000
   C     35.96000000    46.61000000    49.32000000
   C     36.46000000    46.56000000    50.75000000
   O     36.21000000    47.48000000    51.53000000
   C     34.44000000    46.50000000    49.19000000
   C     33.67000000    47.70000000    49.73000000
   C     32.18000000    47.37000000    49.60000000
   C     31.29000000    48.45000000    50.20000000
   N     29.96000000    47.85000000    50.38000000
   H     35.99000000    45.12000000    47.81000000
   H     36.05000000    47.62000000    48.90000000
   H     34.14000000    45.56000000    49.66000000
   H     34.16000000    46.44000000    48.14000000
   H     33.96000000    48.50000000    49.04000000
   H     33.94000000    47.89000000    50.77000000
   H     32.04000000    46.42000000    50.12000000
   H     31.97000000    47.20000000    48.55000000
   H     31.24000000    49.33000000    49.56000000
   H     31.69000000    48.80000000    51.15000000
   H     29.63000000    47.24000000    49.64000000
   H     29.92000000    47.30000000    51.22000000
   H     29.26000000    48.58000000    50.36000000
   N     37.25000000    45.53000000    51.07000000
   C     37.91000000    45.30000000    52.34000000
   C     39.41000000    45.17000000    52.13000000
   O     40.16000000    44.89000000    53.07000000
   C     37.40000000    43.99000000    52.95000000
   C     37.60000000    42.82000000    52.00000000
   O     38.74000000    42.36000000    51.74000000
   O     36.67000000    42.60000000    51.20000000
   H     37.24000000    44.80000000    50.37000000
   H     37.74000000    46.11000000    53.05000000
   H     36.34000000    44.10000000    53.15000000
   H     38.02000000    43.85000000    53.83000000
   N     39.93000000    45.27000000    50.90000000
   C     41.35000000    45.32000000    50.62000000
   C     42.12000000    44.04000000    50.91000000
   O     43.34000000    44.14000000    50.78000000
   H     39.36000000    45.60000000    50.14000000
   H     41.80000000    46.17000000    51.13000000
   H     41.42000000    45.62000000    49.57000000
   N     41.48000000    42.93000000    51.28000000
   C     42.26000000    41.75000000    51.60000000
   C     42.97000000    41.20000000    50.37000000
   O     43.73000000    40.25000000    50.52000000
   C     41.48000000    40.63000000    52.27000000
   C     40.73000000    39.80000000    51.24000000
   N     40.40000000    38.54000000    51.54000000
   O     40.31000000    40.12000000    50.13000000
   H     40.47000000    42.86000000    51.36000000
   H     43.01000000    42.05000000    52.34000000
   H     40.71000000    40.97000000    52.97000000
   H     42.19000000    39.97000000    52.76000000
   H     40.67000000    38.18000000    52.44000000
   H     39.95000000    37.98000000    50.83000000
   N     42.78000000    41.65000000    49.12000000
   C     43.52000000    41.32000000    47.92000000
   C     42.89000000    40.27000000    47.01000000
   O     43.58000000    39.65000000    46.20000000
   H     42.05000000    42.32000000    48.94000000
   H     44.49000000    40.91000000    48.21000000
   H     43.58000000    42.21000000    47.30000000
   N     41.57000000    40.17000000    47.11000000
   C     40.75000000    39.36000000    46.22000000
   C     39.34000000    39.92000000    46.08000000
   O     38.91000000    40.55000000    47.04000000
   C     40.64000000    37.92000000    46.71000000
   C     41.94000000    37.18000000    46.93000000
   C     42.18000000    36.78000000    48.25000000
   C     42.82000000    36.78000000    45.92000000
   C     43.15000000    35.80000000    48.51000000
   C     43.79000000    35.80000000    46.16000000
   C     43.94000000    35.30000000    47.47000000
   O     44.80000000    34.27000000    47.75000000
   H     41.07000000    40.82000000    47.69000000
   H     41.23000000    39.45000000    45.24000000
   H     40.08000000    37.42000000    45.93000000
   H     39.98000000    37.91000000    47.57000000
   H     41.52000000    37.09000000    49.04000000
   H     42.65000000    37.14000000    44.91000000
   H     43.40000000    35.36000000    49.46000000
   H     44.40000000    35.42000000    45.35000000
   H     45.42000000    33.91000000    47.11000000
   N     38.60000000    39.88000000    44.97000000
   C     37.23000000    40.32000000    44.80000000
   C     36.24000000    39.17000000    44.74000000
   O     36.50000000    38.13000000    44.13000000
   C     36.92000000    41.20000000    43.59000000
   C     37.92000000    42.34000000    43.71000000
   C     35.50000000    41.75000000    43.49000000
   C     38.35000000    42.89000000    42.35000000
   H     39.00000000    39.46000000    44.14000000
   H     37.04000000    40.88000000    45.72000000
   H     37.06000000    40.57000000    42.71000000
   H     38.84000000    42.02000000    44.21000000
   H     37.40000000    43.07000000    44.32000000
   H     35.24000000    42.19000000    44.45000000
   H     35.43000000    42.39000000    42.61000000
   H     34.81000000    40.92000000    43.36000000
   H     37.52000000    43.41000000    41.87000000
   H     39.12000000    43.62000000    42.58000000
   H     38.70000000    42.09000000    41.70000000
   N     35.06000000    39.38000000    45.33000000
   C     34.00000000    38.42000000    45.56000000
   C     32.67000000    38.93000000    45.03000000
   O     32.56000000    40.07000000    44.59000000
   C     33.96000000    38.14000000    47.06000000
   O     33.43000000    39.28000000    47.71000000
   H     34.90000000    40.32000000    45.68000000
   H     34.21000000    37.48000000    45.04000000
   H     34.99000000    37.98000000    47.39000000
   H     33.39000000    37.23000000    47.21000000
   H     34.12000000    39.65000000    48.27000000
   N     31.62000000    38.09000000    45.07000000
   C     30.32000000    38.41000000    44.51000000
   C     29.63000000    39.53000000    45.28000000
   O     29.00000000    40.45000000    44.76000000
   C     29.44000000    37.17000000    44.44000000
   H     31.73000000    37.18000000    45.48000000
   H     30.48000000    38.81000000    43.51000000
   H     29.34000000    36.80000000    45.46000000
   H     28.50000000    37.45000000    43.97000000
   H     29.93000000    36.46000000    43.77000000
   N     29.76000000    39.42000000    46.61000000
   C     29.28000000    40.34000000    47.62000000
   C     29.94000000    41.71000000    47.58000000
   O     29.33000000    42.73000000    47.90000000
   C     29.60000000    39.66000000    48.95000000
   H     30.23000000    38.63000000    47.03000000
   H     28.22000000    40.43000000    47.41000000
   H     30.68000000    39.51000000    49.05000000
   H     29.30000000    40.27000000    49.80000000
   H     29.14000000    38.68000000    49.03000000
   N     31.20000000    41.82000000    47.15000000
   C     31.94000000    43.05000000    46.99000000
   C     31.72000000    43.63000000    45.60000000
   O     31.56000000    44.84000000    45.55000000
   C     33.43000000    42.70000000    46.98000000
   C     33.97000000    42.57000000    48.40000000
   C     35.30000000    41.82000000    48.43000000
   O     35.39000000    40.65000000    48.86000000
   O     36.30000000    42.38000000    47.94000000
   H     31.63000000    40.92000000    46.95000000
   H     31.72000000    43.81000000    47.73000000
   H     33.97000000    43.54000000    46.55000000
   H     33.56000000    41.79000000    46.40000000
   H     33.26000000    41.98000000    48.98000000
   H     34.03000000    43.57000000    48.82000000
   N     31.67000000    42.83000000    44.53000000
   C     31.46000000    43.26000000    43.16000000
   H     30.73600000    44.07400000    43.14200000
   H     32.40400000    43.60500000    42.73800000
   H     31.08200000    42.42500000    42.57000000
   H     31.89000000    41.85000000    44.65000000
  Ca     38.04000000    41.12000000    49.46000000
   O     37.08000000    39.53000000    51.28000000
   H     37.42000000    39.50000000    52.17000000
   H     36.86000000    38.63000000    51.07000000

Ca 1.70



