%chk=loop2.cluster199.chk
%nprocshared=48
%mem=10GB
%nosave
#b3lyp/svp scf=(tight,noincore) Test 
#IOP(5/87=12) Density=Current Pop=(MK,readradii) iop(6/33=2) iop(6/42=6)

loop2.cluster199 

   -2  1 
   C     90.84000000   102.39000000    35.94000000
   C     91.03000000   103.56000000    36.90000000
   O     90.09000000   104.32000000    37.13000000
   H     90.05900000   102.63500000    35.22000000
   H     91.77400000   102.19800000    35.41100000
   H     90.55000000   101.50200000    36.50200000
   N     92.19000000   103.79000000    37.51000000
   C     92.49000000   104.89000000    38.41000000
   C     91.82000000   104.80000000    39.78000000
   O     91.73000000   105.78000000    40.52000000
   C     94.00000000   104.91000000    38.62000000
   C     94.45000000   106.30000000    39.05000000
   O     94.80000000   106.53000000    40.22000000
   O     94.50000000   107.17000000    38.15000000
   H     92.87000000   103.04000000    37.49000000
   H     92.02000000   105.79000000    38.01000000
   H     94.43000000   104.57000000    37.68000000
   H     94.31000000   104.20000000    39.38000000
   N     91.26000000   103.65000000    40.17000000
   C     90.37000000   103.40000000    41.28000000
   C     90.64000000   101.94000000    41.64000000
   O     90.56000000   101.02000000    40.83000000
   C     88.93000000   103.81000000    40.97000000
   H     91.39000000   102.90000000    39.50000000
   H     90.70000000   104.09000000    42.05000000
   H     89.03000000   104.82000000    40.59000000
   H     88.45000000   103.18000000    40.23000000
   H     88.41000000   103.82000000    41.93000000
   N     90.90000000   101.53000000    42.88000000
   C     91.02000000   102.41000000    44.03000000
   C     92.23000000   102.11000000    44.91000000
   O     92.65000000   100.98000000    45.11000000
   C     89.67000000   102.26000000    44.72000000
   C     89.26000000   103.40000000    45.65000000
   O     89.87000000   104.49000000    45.64000000
   O     88.33000000   103.23000000    46.47000000
   H     91.04000000   100.55000000    43.06000000
   H     91.07000000   103.48000000    43.83000000
   H     89.62000000   101.35000000    45.31000000
   H     88.88000000   102.14000000    43.99000000
   N     92.62000000   103.11000000    45.71000000
   C     93.63000000   103.02000000    46.75000000
   C     95.02000000   102.75000000    46.19000000
   O     95.40000000   103.48000000    45.27000000
   H     92.35000000   104.07000000    45.56000000
   H     93.33000000   102.15000000    47.34000000
   H     93.70000000   103.93000000    47.33000000
   N     95.80000000   101.81000000    46.72000000
   C     95.58000000   101.17000000    48.00000000
   C     94.89000000    99.81000000    48.04000000
   O     94.82000000    99.17000000    49.09000000
   C     96.92000000   101.02000000    48.72000000
   C     97.00000000   100.95000000    50.24000000
   N     98.20000000   100.80000000    50.81000000
   O     96.01000000   101.06000000    50.95000000
   H     96.74000000   101.81000000    46.33000000
   H     94.99000000   101.80000000    48.66000000
   H     97.38000000   101.97000000    48.43000000
   H     97.52000000   100.20000000    48.33000000
   H     99.03000000   100.64000000    50.25000000
   H     98.11000000   100.52000000    51.77000000
   N     94.33000000    99.44000000    46.89000000
   C     93.53000000    98.24000000    46.71000000
   C     92.19000000    98.23000000    47.42000000
   O     91.88000000    97.25000000    48.10000000
   H     94.45000000    99.99000000    46.05000000
   H     94.11000000    97.36000000    46.99000000
   H     93.45000000    98.20000000    45.63000000
   N     91.47000000    99.35000000    47.29000000
   C     90.42000000    99.70000000    48.22000000
   C     89.02000000    99.47000000    47.70000000
   O     88.25000000   100.43000000    47.61000000
   C     90.77000000   101.11000000    48.70000000
   C     90.13000000   101.51000000    50.03000000
   O     92.10000000   101.11000000    49.14000000
   H     92.00000000   100.10000000    46.85000000
   H     90.52000000    99.08000000    49.12000000
   H     90.61000000   101.86000000    47.92000000
   H     92.23000000   101.98000000    49.53000000
   H     90.21000000   102.56000000    50.29000000
   H     89.05000000   101.41000000    49.93000000
   H     90.47000000   100.86000000    50.84000000
   N     88.70000000    98.34000000    47.06000000
   C     87.50000000    97.95000000    46.33000000
   C     86.40000000    97.63000000    47.34000000
   O     86.69000000    97.28000000    48.48000000
   C     87.82000000    97.07000000    45.13000000
   C     89.12000000    97.51000000    44.47000000
   C     87.92000000    95.59000000    45.50000000
   C     89.15000000    98.98000000    44.04000000
   H     89.30000000    97.54000000    47.21000000
   H     87.08000000    98.88000000    45.98000000
   H     87.07000000    97.17000000    44.35000000
   H     89.42000000    96.98000000    43.57000000
   H     89.95000000    97.32000000    45.16000000
   H     88.35000000    95.03000000    44.67000000
   H     88.46000000    95.44000000    46.43000000
   H     86.92000000    95.17000000    45.50000000
   H     88.80000000    99.64000000    44.83000000
   H     90.22000000    99.14000000    43.91000000
   H     88.50000000    99.16000000    43.18000000
   N     85.15000000    97.77000000    46.89000000
   C     83.95000000    97.42000000    47.63000000
   C     83.05000000    96.69000000    46.65000000
   O     82.26000000    97.27000000    45.92000000
   C     83.43000000    98.65000000    48.36000000
   C     84.40000000    99.58000000    49.08000000
   O     84.80000000    99.15000000    50.18000000
   O     84.86000000   100.60000000    48.53000000
   H     85.12000000    98.45000000    46.15000000
   H     84.26000000    96.68000000    48.38000000
   H     82.65000000    98.35000000    49.06000000
   H     82.90000000    99.24000000    47.62000000
   N     83.26000000    95.37000000    46.57000000
   C     82.28000000    94.50000000    45.94000000
   C     82.26000000    94.54000000    44.42000000
   O     83.20000000    94.06000000    43.80000000
   C     82.34000000    93.06000000    46.44000000
   C     81.47000000    92.15000000    45.61000000
   C     82.02000000    91.32000000    44.62000000
   C     80.09000000    92.14000000    45.81000000
   C     81.21000000    90.46000000    43.87000000
   C     79.29000000    91.28000000    45.04000000
   C     79.83000000    90.44000000    44.05000000
   H     83.88000000    94.94000000    47.24000000
   H     81.32000000    94.88000000    46.29000000
   H     82.01000000    92.98000000    47.48000000
   H     83.37000000    92.71000000    46.38000000
   H     83.08000000    91.42000000    44.41000000
   H     79.66000000    92.80000000    46.55000000
   H     81.61000000    89.73000000    43.18000000
   H     78.22000000    91.32000000    45.17000000
   H     79.17000000    89.76000000    43.52000000
   N     81.22000000    95.00000000    43.72000000
   C     81.22000000    95.08000000    42.27000000
   C     82.26000000    95.98000000    41.62000000
   O     82.47000000    95.84000000    40.42000000
   C     79.80000000    95.53000000    41.94000000
   C     79.38000000    96.35000000    43.16000000
   C     79.97000000    95.48000000    44.26000000
   H     81.43000000    94.08000000    41.88000000
   H     79.86000000    95.99000000    40.95000000
   H     79.19000000    94.63000000    41.87000000
   H     79.78000000    97.36000000    43.05000000
   H     78.30000000    96.31000000    43.23000000
   H     80.22000000    96.04000000    45.16000000
   H     79.39000000    94.59000000    44.54000000
   N     82.92000000    96.82000000    42.42000000
   C     84.12000000    97.54000000    42.04000000
   C     85.33000000    96.66000000    41.76000000
   O     86.10000000    97.00000000    40.87000000
   C     84.34000000    98.63000000    43.08000000
   C     85.28000000    99.77000000    42.70000000
   C     85.40000000   100.89000000    43.73000000
   O     85.83000000   100.60000000    44.87000000
   O     84.93000000   101.99000000    43.38000000
   H     82.50000000    96.97000000    43.33000000
   H     83.86000000    98.01000000    41.09000000
   H     84.78000000    98.09000000    43.93000000
   H     83.42000000    99.05000000    43.47000000
   H     84.89000000   100.17000000    41.77000000
   H     86.22000000    99.26000000    42.50000000
   N     85.32000000    95.40000000    42.20000000
   C     86.34000000    94.44000000    41.83000000
   H     87.24000000    94.62200000    42.41800000
   H     85.97800000    93.43100000    42.02500000
   H     86.57200000    94.54500000    40.77000000
   H     84.57000000    94.98000000    42.73000000
  Ca     86.21000000   101.99800000    46.95000000
   O     85.73000000   103.84800000    44.94000000
   H     85.38000000   103.15800000    44.38000000
   H     84.95000000   104.32800000    45.23000000
   O     85.99000000   104.75800000    48.12000000
   H     85.39000000   104.71800000    48.86000000
   H     86.62000000   105.43800000    48.35000000
   O     86.76000000   102.52800000    49.72000000
   H     86.08000000   102.23800000    50.33000000
   H     87.39000000   102.98800000    50.27000000
   O     83.65000000   102.10800000    46.11000000
   H     82.91000000   102.68800000    46.27000000
   H     83.27000000   101.36800000    45.63000000

Ca 1.70



