%chk=loop2.cluster231.chk
%nprocshared=48
%mem=10GB
%nosave
#b3lyp/svp scf=(tight,noincore) Test 
#IOP(5/87=12) Density=Current Pop=(MK,readradii) iop(6/33=2) iop(6/42=6)

loop2.cluster231 

   -2  1 
   C     48.32000000    44.71000000     3.91000000
   C     47.05000000    45.14000000     3.18000000
   O     46.79000000    46.33000000     3.02000000
   H     49.08900000    45.47200000     3.78000000
   H     48.10600000    44.58800000     4.97200000
   H     48.67300000    43.76400000     3.49900000
   N     46.22000000    44.25000000     2.64000000
   C     46.21000000    42.80000000     2.57000000
   C     46.06000000    42.15000000     3.94000000
   O     45.31000000    42.58000000     4.82000000
   C     45.17000000    42.36000000     1.55000000
   C     43.77000000    42.97000000     1.58000000
   O     42.92000000    43.00000000     0.66000000
   O     43.51000000    43.60000000     2.62000000
   H     45.59000000    44.69000000     1.98000000
   H     47.14000000    42.43000000     2.15000000
   H     44.96000000    41.30000000     1.69000000
   H     45.53000000    42.50000000     0.53000000
   N     46.74000000    41.03000000     4.17000000
   C     46.62000000    40.18000000     5.34000000
   C     45.27000000    39.57000000     5.67000000
   O     45.34000000    38.55000000     6.37000000
   C     47.14000000    40.89000000     6.58000000
   H     47.07000000    40.56000000     3.34000000
   H     47.38000000    39.42000000     5.15000000
   H     46.32000000    41.25000000     7.20000000
   H     47.73000000    40.25000000     7.23000000
   H     47.91000000    41.65000000     6.40000000
   N     44.11000000    40.05000000     5.20000000
   C     42.81000000    39.43000000     5.14000000
   C     42.06000000    40.27000000     4.11000000
   O     42.26000000    41.48000000     4.02000000
   C     42.17000000    39.41000000     6.52000000
   C     42.09000000    40.77000000     7.20000000
   O     42.63000000    41.81000000     6.78000000
   O     41.53000000    40.71000000     8.32000000
   H     44.17000000    41.00000000     4.87000000
   H     42.92000000    38.42000000     4.73000000
   H     42.77000000    38.76000000     7.16000000
   H     41.18000000    38.96000000     6.47000000
   N     41.40000000    39.58000000     3.18000000
   C     41.15000000    40.09000000     1.85000000
   C     39.91000000    40.96000000     1.78000000
   O     38.84000000    40.43000000     1.48000000
   H     41.16000000    38.67000000     3.54000000
   H     41.06000000    39.24000000     1.17000000
   H     42.02000000    40.71000000     1.62000000
   N     40.07000000    42.22000000     2.19000000
   C     39.08000000    43.27000000     2.34000000
   C     39.72000000    44.65000000     2.25000000
   O     39.07000000    45.68000000     2.41000000
   C     38.35000000    43.07000000     3.66000000
   C     39.32000000    42.98000000     4.84000000
   N     38.91000000    42.42000000     5.98000000
   O     40.44000000    43.48000000     4.87000000
   H     41.01000000    42.37000000     2.55000000
   H     38.32000000    43.06000000     1.59000000
   H     37.81000000    42.13000000     3.62000000
   H     37.61000000    43.86000000     3.78000000
   H     37.96000000    42.10000000     6.04000000
   H     39.57000000    42.20000000     6.72000000
   N     41.00000000    44.74000000     1.86000000
   C     41.68000000    46.01000000     1.74000000
   C     42.15000000    46.58000000     3.07000000
   O     42.15000000    45.86000000     4.07000000
   H     41.49000000    43.91000000     1.57000000
   H     40.97000000    46.69000000     1.26000000
   H     42.66000000    45.95000000     1.26000000
   N     42.35000000    47.90000000     3.14000000
   C     42.35000000    48.92000000     2.11000000
   C     43.36000000    50.03000000     2.32000000
   O     43.37000000    50.99000000     1.54000000
   C     40.89000000    49.26000000     1.82000000
   C     40.36000000    50.29000000     2.81000000
   O     40.69000000    49.80000000     0.53000000
   H     42.63000000    48.24000000     4.05000000
   H     42.63000000    48.37000000     1.21000000
   H     40.26000000    48.37000000     1.87000000
   H     41.21000000    50.61000000     0.55000000
   H     40.23000000    49.80000000     3.77000000
   H     40.96000000    51.20000000     2.87000000
   H     39.39000000    50.73000000     2.59000000
   N     44.23000000    50.06000000     3.33000000
   C     44.99000000    51.20000000     3.80000000
   C     44.16000000    52.47000000     3.93000000
   O     44.43000000    53.46000000     3.24000000
   C     46.33000000    51.41000000     3.10000000
   C     47.07000000    50.09000000     2.92000000
   C     47.19000000    52.32000000     3.97000000
   C     48.26000000    50.34000000     2.00000000
   H     44.28000000    49.27000000     3.96000000
   H     45.20000000    50.96000000     4.84000000
   H     46.08000000    51.84000000     2.13000000
   H     46.36000000    49.42000000     2.43000000
   H     47.47000000    49.73000000     3.87000000
   H     46.69000000    53.13000000     4.50000000
   H     47.67000000    51.68000000     4.71000000
   H     47.92000000    52.81000000     3.32000000
   H     49.03000000    50.99000000     2.40000000
   H     48.68000000    49.35000000     1.80000000
   H     47.89000000    50.78000000     1.07000000
   N     43.22000000    52.57000000     4.87000000
   C     42.83000000    51.67000000     5.95000000
   C     43.84000000    51.69000000     7.09000000
   O     44.52000000    50.68000000     7.26000000
   C     41.40000000    51.93000000     6.41000000
   C     41.09000000    53.37000000     6.78000000
   O     39.98000000    53.58000000     7.31000000
   O     41.85000000    54.31000000     6.47000000
   H     42.77000000    53.46000000     5.04000000
   H     42.78000000    50.66000000     5.56000000
   H     41.10000000    51.22000000     7.17000000
   H     40.65000000    51.67000000     5.66000000
   N     43.80000000    52.75000000     7.91000000
   C     44.09000000    52.69000000     9.33000000
   C     42.85000000    52.49000000    10.19000000
   O     41.77000000    52.95000000     9.84000000
   C     44.83000000    53.93000000     9.81000000
   C     44.13000000    55.25000000     9.63000000
   C     44.15000000    55.96000000     8.42000000
   C     43.58000000    55.80000000    10.79000000
   C     43.46000000    57.18000000     8.35000000
   C     42.94000000    57.04000000    10.70000000
   C     42.91000000    57.76000000     9.50000000
   H     43.25000000    53.53000000     7.58000000
   H     44.73000000    51.82000000     9.43000000
   H     45.79000000    54.06000000     9.31000000
   H     45.03000000    53.74000000    10.87000000
   H     44.52000000    55.52000000     7.51000000
   H     43.61000000    55.22000000    11.70000000
   H     43.41000000    57.67000000     7.39000000
   H     42.47000000    57.56000000    11.53000000
   H     42.48000000    58.75000000     9.55000000
   N     42.96000000    51.70000000    11.27000000
   C     43.95000000    50.67000000    11.53000000
   C     44.00000000    49.53000000    10.53000000
   O     43.20000000    49.47000000     9.60000000
   C     43.62000000    50.11000000    12.91000000
   C     42.58000000    51.07000000    13.48000000
   C     41.90000000    51.67000000    12.25000000
   H     44.92000000    51.16000000    11.66000000
   H     43.19000000    49.11000000    12.88000000
   H     44.49000000    50.08000000    13.57000000
   H     41.78000000    50.65000000    14.09000000
   H     43.12000000    51.82000000    14.06000000
   H     41.18000000    50.93000000    11.90000000
   H     41.42000000    52.64000000    12.37000000
   N     44.98000000    48.62000000    10.57000000
   C     45.28000000    47.58000000     9.61000000
   C     46.66000000    46.94000000     9.65000000
   O     46.73000000    45.71000000     9.73000000
   C     44.24000000    46.45000000     9.62000000
   C     43.96000000    45.72000000    10.93000000
   C     42.85000000    44.70000000    10.69000000
   O     42.05000000    44.77000000     9.73000000
   O     42.80000000    43.72000000    11.48000000
   H     45.74000000    48.77000000    11.22000000
   H     45.13000000    48.09000000     8.66000000
   H     44.39000000    45.82000000     8.75000000
   H     43.30000000    46.93000000     9.36000000
   H     43.58000000    46.46000000    11.63000000
   H     44.85000000    45.23000000    11.31000000
   N     47.83000000    47.57000000     9.63000000
   C     48.17000000    48.98000000     9.51000000
   H     49.13000000    49.08000000     9.00400000
   H     47.40100000    49.49200000     8.93200000
   H     48.23500000    49.42400000    10.50300000
   H     48.54000000    46.91000000     9.89000000
  Ca     43.05000000    43.68000000     5.17000000
   O     44.80000000    45.54000000     5.53000000
   H     45.75000000    45.56000000     5.44000000
   H     44.55000000    46.46000000     5.61000000
   O     42.13000000    45.06000000     7.11000000
   H     41.20000000    45.29000000     7.08000000
   H     42.33000000    44.98000000     8.05000000

Ca 1.70



