%chk=loop2.cluster66.chk
%nprocshared=48
%mem=10GB
%nosave
#b3lyp/svp scf=(tight,noincore) Test 
#IOP(5/87=12) Density=Current Pop=(MK,readradii) iop(6/33=2) iop(6/42=6)

loop2.cluster66 

   -2  1 
   C     49.15000000    46.07000000    37.38000000
   C     48.62000000    47.01000000    36.31000000
   O     48.68000000    46.70000000    35.12000000
   H     50.05300000    46.49300000    37.82000000
   H     48.39500000    45.93900000    38.15600000
   H     49.38300000    45.10400000    36.93300000
   N     48.17000000    48.19000000    36.75000000
   C     48.36000000    49.35000000    35.90000000
   C     47.59000000    49.28000000    34.59000000
   O     46.36000000    49.27000000    34.53000000
   C     48.00000000    50.57000000    36.73000000
   C     48.15000000    51.83000000    35.88000000
   O     47.42000000    52.81000000    36.16000000
   O     49.15000000    51.87000000    35.14000000
   H     48.12000000    48.34000000    37.75000000
   H     49.43000000    49.34000000    35.65000000
   H     48.66000000    50.63000000    37.59000000
   H     46.98000000    50.39000000    37.07000000
   N     48.30000000    49.44000000    33.47000000
   C     47.83000000    49.27000000    32.11000000
   C     48.30000000    48.03000000    31.37000000
   O     49.41000000    47.55000000    31.58000000
   C     48.33000000    50.43000000    31.25000000
   H     49.31000000    49.45000000    33.57000000
   H     46.75000000    49.30000000    32.20000000
   H     47.87000000    50.56000000    30.27000000
   H     48.12000000    51.35000000    31.80000000
   H     49.38000000    50.23000000    31.02000000
   N     47.48000000    47.34000000    30.56000000
   C     46.06000000    47.60000000    30.46000000
   C     45.27000000    47.25000000    31.72000000
   O     45.59000000    46.36000000    32.51000000
   C     45.47000000    46.86000000    29.27000000
   C     45.72000000    45.36000000    29.13000000
   O     46.72000000    44.77000000    29.60000000
   O     44.82000000    44.66000000    28.63000000
   H     47.91000000    46.54000000    30.13000000
   H     45.92000000    48.66000000    30.27000000
   H     45.98000000    47.27000000    28.40000000
   H     44.40000000    46.97000000    29.14000000
   N     44.18000000    48.01000000    31.80000000
   C     43.22000000    47.82000000    32.88000000
   C     42.26000000    48.92000000    33.30000000
   O     42.36000000    50.04000000    32.80000000
   H     43.98000000    48.63000000    31.03000000
   H     43.75000000    47.35000000    33.70000000
   H     42.64000000    47.04000000    32.38000000
   N     41.35000000    48.63000000    34.23000000
   C     40.97000000    47.33000000    34.73000000
   C     41.41000000    47.19000000    36.18000000
   O     40.92000000    47.99000000    36.98000000
   C     39.49000000    47.06000000    34.49000000
   C     39.15000000    46.78000000    33.04000000
   N     39.74000000    45.73000000    32.45000000
   O     38.42000000    47.54000000    32.42000000
   H     40.78000000    49.40000000    34.57000000
   H     41.48000000    46.52000000    34.21000000
   H     38.85000000    47.88000000    34.83000000
   H     39.14000000    46.13000000    34.96000000
   H     40.33000000    45.07000000    32.92000000
   H     39.35000000    45.53000000    31.53000000
   N     42.27000000    46.22000000    36.51000000
   C     42.53000000    45.78000000    37.87000000
   C     43.35000000    44.52000000    38.09000000
   O     43.70000000    44.19000000    39.22000000
   H     42.67000000    45.70000000    35.75000000
   H     41.54000000    45.51000000    38.21000000
   H     43.02000000    46.56000000    38.46000000
   N     43.47000000    43.72000000    37.03000000
   C     43.88000000    42.33000000    37.03000000
   C     44.87000000    41.94000000    35.94000000
   O     45.12000000    42.70000000    35.00000000
   C     42.66000000    41.44000000    36.82000000
   C     41.75000000    41.31000000    38.04000000
   O     41.91000000    41.82000000    35.68000000
   H     43.23000000    44.12000000    36.13000000
   H     44.37000000    42.16000000    37.98000000
   H     43.03000000    40.45000000    36.55000000
   H     42.03000000    41.17000000    34.99000000
   H     41.33000000    42.28000000    38.29000000
   H     41.01000000    40.51000000    37.91000000
   H     42.28000000    40.95000000    38.92000000
   N     45.53000000    40.80000000    36.13000000
   C     46.45000000    40.19000000    35.19000000
   C     45.97000000    38.89000000    34.57000000
   O     45.15000000    38.20000000    35.16000000
   C     47.83000000    40.04000000    35.85000000
   C     48.39000000    41.39000000    36.29000000
   C     47.84000000    39.07000000    37.03000000
   C     48.77000000    42.36000000    35.18000000
   H     45.33000000    40.23000000    36.94000000
   H     46.51000000    40.88000000    34.35000000
   H     48.49000000    39.65000000    35.08000000
   H     49.21000000    41.35000000    37.00000000
   H     47.57000000    41.86000000    36.83000000
   H     48.85000000    38.78000000    37.32000000
   H     47.42000000    39.43000000    37.96000000
   H     47.31000000    38.15000000    36.78000000
   H     49.58000000    41.88000000    34.63000000
   H     48.08000000    42.50000000    34.35000000
   H     49.21000000    43.27000000    35.58000000
   N     46.51000000    38.65000000    33.37000000
   C     46.14000000    37.52000000    32.55000000
   C     47.28000000    36.91000000    31.74000000
   O     48.28000000    37.49000000    31.35000000
   C     45.00000000    37.89000000    31.60000000
   C     45.17000000    39.25000000    30.94000000
   O     44.69000000    40.26000000    31.50000000
   O     45.85000000    39.43000000    29.91000000
   H     47.17000000    39.30000000    32.96000000
   H     45.74000000    36.73000000    33.17000000
   H     44.12000000    38.02000000    32.22000000
   H     44.76000000    37.10000000    30.89000000
   N     47.21000000    35.58000000    31.58000000
   C     48.05000000    34.63000000    30.88000000
   C     49.52000000    34.95000000    31.12000000
   O     49.97000000    34.67000000    32.23000000
   C     47.62000000    33.20000000    31.18000000
   C     48.03000000    32.27000000    30.06000000
   C     49.26000000    31.61000000    30.02000000
   C     47.14000000    32.01000000    29.01000000
   C     49.62000000    30.77000000    28.96000000
   C     47.48000000    31.14000000    27.97000000
   C     48.72000000    30.49000000    27.92000000
   H     46.54000000    35.17000000    32.21000000
   H     47.86000000    34.81000000    29.82000000
   H     46.53000000    33.19000000    31.18000000
   H     47.87000000    32.82000000    32.17000000
   H     49.97000000    31.93000000    30.76000000
   H     46.19000000    32.51000000    29.11000000
   H     50.62000000    30.36000000    28.99000000
   H     46.71000000    30.94000000    27.24000000
   H     49.00000000    29.81000000    27.13000000
   N     50.27000000    35.52000000    30.17000000
   C     51.68000000    35.78000000    30.37000000
   C     52.12000000    37.02000000    31.13000000
   O     53.28000000    37.19000000    31.48000000
   C     52.20000000    35.87000000    28.93000000
   C     51.05000000    36.53000000    28.17000000
   C     49.91000000    35.73000000    28.78000000
   H     52.09000000    34.95000000    30.94000000
   H     53.14000000    36.39000000    28.78000000
   H     52.35000000    34.86000000    28.55000000
   H     50.91000000    37.58000000    28.45000000
   H     51.10000000    36.48000000    27.08000000
   H     48.90000000    36.11000000    28.61000000
   H     49.94000000    34.74000000    28.34000000
   N     51.14000000    37.92000000    31.30000000
   C     51.36000000    39.21000000    31.94000000
   C     51.47000000    39.31000000    33.45000000
   O     51.37000000    40.39000000    34.02000000
   C     50.32000000    40.19000000    31.41000000
   C     50.24000000    40.40000000    29.90000000
   C     49.26000000    41.48000000    29.46000000
   O     48.21000000    41.73000000    30.09000000
   O     49.31000000    41.84000000    28.27000000
   H     50.22000000    37.56000000    31.11000000
   H     52.31000000    39.53000000    31.53000000
   H     50.39000000    41.07000000    32.05000000
   H     49.31000000    39.82000000    31.58000000
   H     50.09000000    39.51000000    29.30000000
   H     51.22000000    40.66000000    29.51000000
   N     51.66000000    38.19000000    34.15000000
   C     51.67000000    38.13000000    35.60000000
   H     51.28600000    39.06600000    36.00400000
   H     51.04100000    37.30500000    35.93400000
   H     52.69000000    37.97500000    35.95100000
   H     51.51000000    37.34000000    33.62000000
  Ca     45.72000000    42.31000000    29.77000000
   O     46.13000000    42.74000000    32.23000000
   H     45.47000000    42.59000000    32.91000000
   H     46.81000000    43.26000000    32.67000000
   O     46.90000000    42.17000000    27.53000000
   H     46.77000000    42.03000000    26.59000000
   H     47.83000000    41.99000000    27.67000000
   O     43.53000000    43.30000000    30.97000000
   H     43.18000000    44.14000000    30.67000000
   H     42.76000000    42.76000000    31.12000000

Ca 1.70



