%chk=loop2.cluster19.chk
%nprocshared=48
%mem=10GB
%nosave
#b3lyp/svp scf=(tight,noincore) Test 
#IOP(5/87=12) Density=Current Pop=(MK,readradii) iop(6/33=2) iop(6/42=6)

loop2.cluster19 

   -2  1 
   C     48.98000000    48.47000000    29.22000000
   C     49.44000000    49.07000000    27.90000000
   O     49.36000000    48.42000000    26.86000000
   H     47.95700000    48.10900000    29.11700000
   H     49.63300000    47.63900000    29.48900000
   H     49.02000000    49.23100000    29.99900000
   N     49.90000000    50.32000000    27.99000000
   C     50.27000000    51.12000000    26.84000000
   C     49.05000000    51.55000000    26.04000000
   O     48.19000000    52.23000000    26.59000000
   C     51.03000000    52.35000000    27.31000000
   C     51.40000000    53.30000000    26.18000000
   O     52.06000000    52.87000000    25.21000000
   O     50.97000000    54.47000000    26.26000000
   H     49.72000000    50.79000000    28.86000000
   H     50.97000000    50.61000000    26.17000000
   H     52.00000000    52.14000000    27.77000000
   H     50.48000000    52.88000000    28.09000000
   N     49.01000000    51.18000000    24.76000000
   C     47.83000000    51.32000000    23.92000000
   C     47.47000000    49.99000000    23.27000000
   O     48.32000000    49.20000000    22.88000000
   C     48.23000000    52.24000000    22.78000000
   H     49.76000000    50.67000000    24.31000000
   H     46.95000000    51.63000000    24.49000000
   H     49.11000000    51.73000000    22.38000000
   H     47.51000000    52.39000000    21.98000000
   H     48.61000000    53.14000000    23.28000000
   N     46.20000000    49.69000000    22.97000000
   C     45.04000000    50.53000000    23.20000000
   C     44.41000000    50.48000000    24.58000000
   O     44.45000000    49.49000000    25.32000000
   C     43.99000000    50.16000000    22.15000000
   C     43.40000000    48.77000000    22.33000000
   O     44.10000000    47.80000000    21.99000000
   O     42.29000000    48.54000000    22.85000000
   H     46.06000000    48.74000000    22.66000000
   H     45.43000000    51.52000000    22.94000000
   H     44.45000000    50.28000000    21.17000000
   H     43.18000000    50.88000000    22.27000000
   N     43.70000000    51.55000000    24.95000000
   C     43.00000000    51.72000000    26.20000000
   C     43.75000000    52.30000000    27.39000000
   O     44.77000000    52.96000000    27.20000000
   H     43.64000000    52.35000000    24.33000000
   H     42.56000000    50.73000000    26.36000000
   H     42.24000000    52.50000000    26.09000000
   N     43.15000000    52.27000000    28.58000000
   C     41.85000000    51.80000000    29.00000000
   C     42.02000000    50.94000000    30.24000000
   O     42.76000000    51.32000000    31.14000000
   C     41.00000000    53.02000000    29.34000000
   C     40.68000000    53.98000000    28.21000000
   N     40.08000000    53.36000000    27.19000000
   O     40.87000000    55.18000000    28.40000000
   H     43.67000000    52.68000000    29.34000000
   H     41.40000000    51.17000000    28.22000000
   H     41.50000000    53.55000000    30.15000000
   H     40.05000000    52.69000000    29.78000000
   H     39.96000000    52.35000000    27.19000000
   H     39.71000000    53.82000000    26.38000000
   N     41.40000000    49.76000000    30.31000000
   C     41.40000000    48.85000000    31.43000000
   C     41.20000000    47.36000000    31.17000000
   O     41.67000000    46.58000000    32.00000000
   H     41.07000000    49.44000000    29.40000000
   H     40.47000000    49.05000000    31.96000000
   H     42.35000000    49.00000000    31.94000000
   N     40.58000000    46.96000000    30.06000000
   C     40.51000000    45.58000000    29.62000000
   C     41.57000000    45.17000000    28.60000000
   O     42.21000000    46.07000000    28.07000000
   C     39.06000000    45.32000000    29.20000000
   C     38.17000000    45.32000000    30.44000000
   O     38.63000000    46.31000000    28.30000000
   H     40.18000000    47.64000000    29.43000000
   H     40.75000000    45.10000000    30.57000000
   H     39.07000000    44.36000000    28.68000000
   H     39.06000000    46.24000000    27.45000000
   H     37.83000000    46.30000000    30.77000000
   H     37.28000000    44.73000000    30.21000000
   H     38.78000000    45.01000000    31.29000000
   N     41.62000000    43.86000000    28.38000000
   C     42.58000000    43.29000000    27.46000000
   C     41.95000000    42.14000000    26.69000000
   O     41.07000000    41.45000000    27.20000000
   C     43.95000000    42.96000000    28.04000000
   C     44.71000000    44.17000000    28.57000000
   C     43.78000000    41.93000000    29.15000000
   C     45.20000000    45.08000000    27.44000000
   H     41.09000000    43.19000000    28.92000000
   H     42.77000000    44.03000000    26.68000000
   H     44.69000000    42.52000000    27.36000000
   H     45.59000000    43.86000000    29.14000000
   H     44.09000000    44.78000000    29.23000000
   H     44.73000000    41.42000000    29.35000000
   H     43.31000000    42.36000000    30.04000000
   H     43.07000000    41.18000000    28.79000000
   H     45.67000000    45.98000000    27.85000000
   H     45.98000000    44.55000000    26.89000000
   H     44.43000000    45.35000000    26.73000000
   N     42.38000000    41.84000000    25.46000000
   C     41.68000000    41.04000000    24.48000000
   C     42.66000000    40.61000000    23.39000000
   O     43.71000000    41.21000000    23.19000000
   C     40.54000000    41.89000000    23.93000000
   C     41.08000000    43.22000000    23.41000000
   O     41.37000000    44.15000000    24.19000000
   O     41.12000000    43.44000000    22.18000000
   H     43.15000000    42.36000000    25.07000000
   H     41.26000000    40.17000000    24.99000000
   H     39.79000000    42.08000000    24.69000000
   H     40.03000000    41.29000000    23.17000000
   N     42.34000000    39.49000000    22.75000000
   C     43.24000000    38.76000000    21.88000000
   C     44.63000000    38.54000000    22.47000000
   O     44.67000000    38.32000000    23.68000000
   C     42.59000000    37.42000000    21.53000000
   C     43.37000000    36.69000000    20.46000000
   C     44.33000000    35.75000000    20.87000000
   C     42.90000000    36.77000000    19.14000000
   C     44.91000000    34.92000000    19.91000000
   C     43.54000000    35.88000000    18.27000000
   C     44.55000000    34.96000000    18.55000000
   H     41.51000000    38.99000000    23.05000000
   H     43.32000000    39.40000000    21.01000000
   H     41.62000000    37.63000000    21.08000000
   H     42.54000000    36.77000000    22.40000000
   H     44.60000000    35.72000000    21.91000000
   H     42.14000000    37.46000000    18.81000000
   H     45.59000000    34.17000000    20.28000000
   H     43.15000000    35.96000000    17.27000000
   H     44.90000000    34.31000000    17.76000000
   N     45.75000000    38.63000000    21.75000000
   C     47.08000000    38.37000000    22.25000000
   C     47.50000000    39.38000000    23.31000000
   O     48.64000000    39.31000000    23.75000000
   C     47.92000000    38.28000000    20.98000000
   C     47.37000000    39.42000000    20.13000000
   C     45.89000000    39.31000000    20.48000000
   H     46.98000000    37.42000000    22.78000000
   H     48.98000000    38.39000000    21.20000000
   H     47.76000000    37.31000000    20.52000000
   H     47.72000000    40.38000000    20.52000000
   H     47.58000000    39.37000000    19.06000000
   H     45.40000000    40.28000000    20.43000000
   H     45.36000000    38.78000000    19.69000000
   N     46.72000000    40.39000000    23.71000000
   C     47.13000000    41.49000000    24.56000000
   C     47.28000000    41.21000000    26.04000000
   O     47.89000000    41.99000000    26.77000000
   C     46.28000000    42.73000000    24.27000000
   C     46.07000000    43.14000000    22.82000000
   C     44.87000000    44.05000000    22.62000000
   O     44.49000000    44.75000000    23.59000000
   O     44.25000000    44.19000000    21.54000000
   H     45.82000000    40.55000000    23.28000000
   H     48.16000000    41.77000000    24.32000000
   H     46.77000000    43.61000000    24.69000000
   H     45.32000000    42.57000000    24.77000000
   H     45.87000000    42.25000000    22.22000000
   H     47.01000000    43.57000000    22.47000000
   N     46.71000000    40.08000000    26.47000000
   C     46.76000000    39.62000000    27.84000000
   H     46.89000000    40.47400000    28.50500000
   H     45.83000000    39.10700000    28.08600000
   H     47.59800000    38.93400000    27.96300000
   H     46.07000000    39.66000000    25.81000000
  Ca     42.43000000    45.90000000    22.73000000
   O     42.59000000    46.92000000    25.28000000
   H     42.33000000    46.48000000    26.08000000
   H     42.73000000    47.83000000    25.53000000
   O     42.42000000    46.14000000    19.97000000
   H     42.74000000    46.85000000    19.40000000
   H     41.80000000    45.66000000    19.42000000

Ca 1.70



