%chk=loop2.cluster184.chk
%nprocshared=48
%mem=10GB
%nosave
#b3lyp/svp scf=(tight,noincore) Test 
#IOP(5/87=12) Density=Current Pop=(MK,readradii) iop(6/33=2) iop(6/42=6)

loop2.cluster184 

   -2  1 
   C     72.25000000   104.60000000    -4.51000000
   C     72.14000000   106.12000000    -4.39000000
   O     72.86000000   106.72000000    -3.60000000
   H     73.19000000   104.26800000    -4.06900000
   H     71.41700000   104.13200000    -3.98500000
   H     72.22300000   104.31500000    -5.56200000
   N     71.29000000   106.77000000    -5.18000000
   C     71.09000000   108.20000000    -5.19000000
   C     69.70000000   108.49000000    -5.72000000
   O     68.80000000   108.98000000    -5.04000000
   C     72.21000000   108.96000000    -5.91000000
   C     72.16000000   110.45000000    -5.59000000
   O     71.74000000   111.22000000    -6.48000000
   O     72.29000000   110.81000000    -4.40000000
   H     70.63000000   106.22000000    -5.71000000
   H     71.16000000   108.48000000    -4.14000000
   H     72.15000000   108.71000000    -6.97000000
   H     73.16000000   108.56000000    -5.57000000
   N     69.43000000   108.07000000    -6.96000000
   C     68.23000000   108.26000000    -7.75000000
   C     67.04000000   107.62000000    -7.05000000
   O     65.96000000   108.19000000    -7.20000000
   C     68.04000000   109.74000000    -8.07000000
   H     70.21000000   107.61000000    -7.41000000
   H     68.40000000   107.67000000    -8.66000000
   H     67.98000000   110.29000000    -7.14000000
   H     68.91000000   110.07000000    -8.65000000
   H     67.14000000   109.98000000    -8.64000000
   N     67.20000000   106.49000000    -6.36000000
   C     66.23000000   105.78000000    -5.57000000
   C     65.55000000   106.74000000    -4.60000000
   O     64.33000000   106.74000000    -4.42000000
   C     65.29000000   104.84000000    -6.32000000
   C     66.01000000   103.89000000    -7.27000000
   O     65.31000000   103.18000000    -8.02000000
   O     67.18000000   103.45000000    -7.22000000
   H     68.08000000   106.00000000    -6.26000000
   H     66.88000000   105.17000000    -4.94000000
   H     64.48000000   105.37000000    -6.82000000
   H     64.80000000   104.22000000    -5.56000000
   N     66.32000000   107.65000000    -4.01000000
   C     65.84000000   108.64000000    -3.07000000
   C     65.23000000   108.01000000    -1.83000000
   O     65.85000000   107.09000000    -1.30000000
   H     67.33000000   107.65000000    -4.12000000
   H     65.07000000   109.26000000    -3.52000000
   H     66.69000000   109.20000000    -2.70000000
   N     64.09000000   108.49000000    -1.33000000
   C     63.34000000   107.97000000    -0.19000000
   C     64.20000000   107.66000000     1.02000000
   O     64.03000000   106.61000000     1.64000000
   C     62.30000000   106.94000000    -0.61000000
   C     61.49000000   107.32000000    -1.83000000
   N     60.55000000   108.22000000    -1.51000000
   O     61.67000000   106.94000000    -2.99000000
   H     63.65000000   109.25000000    -1.82000000
   H     62.83000000   108.85000000     0.19000000
   H     61.61000000   106.73000000     0.21000000
   H     62.82000000   105.99000000    -0.75000000
   H     60.15000000   108.25000000    -0.59000000
   H     60.23000000   108.80000000    -2.27000000
   N     65.04000000   108.63000000     1.41000000
   C     65.91000000   108.43000000     2.55000000
   C     67.19000000   107.63000000     2.38000000
   O     67.96000000   107.43000000     3.32000000
   H     65.21000000   109.51000000     0.95000000
   H     65.42000000   108.00000000     3.43000000
   H     66.10000000   109.45000000     2.89000000
   N     67.43000000   107.06000000     1.19000000
   C     68.53000000   106.22000000     0.77000000
   C     68.14000000   104.75000000     0.76000000
   O     67.09000000   104.33000000     0.28000000
   C     68.99000000   106.74000000    -0.59000000
   C     68.97000000   108.25000000    -0.82000000
   O     70.33000000   106.39000000    -0.84000000
   H     66.71000000   107.18000000     0.50000000
   H     69.41000000   106.24000000     1.42000000
   H     68.32000000   106.40000000    -1.38000000
   H     70.37000000   106.15000000    -1.77000000
   H     67.94000000   108.57000000    -0.65000000
   H     69.51000000   108.82000000    -0.07000000
   H     69.25000000   108.41000000    -1.86000000
   N     69.07000000   103.92000000     1.26000000
   C     69.07000000   102.50000000     1.00000000
   C     68.84000000   102.15000000    -0.47000000
   O     69.37000000   102.90000000    -1.29000000
   C     70.32000000   101.92000000     1.65000000
   C     71.55000000   102.50000000     0.97000000
   C     70.27000000   102.21000000     3.15000000
   C     72.47000000   101.39000000     0.50000000
   H     69.96000000   104.33000000     1.50000000
   H     68.17000000   102.11000000     1.48000000
   H     70.23000000   100.83000000     1.53000000
   H     72.14000000   103.08000000     1.69000000
   H     71.34000000   103.15000000     0.12000000
   H     69.33000000   101.82000000     3.53000000
   H     71.20000000   101.77000000     3.53000000
   H     70.30000000   103.27000000     3.40000000
   H     71.94000000   100.62000000    -0.07000000
   H     73.18000000   101.76000000    -0.24000000
   H     73.20000000   101.09000000     1.26000000
   N     68.06000000   101.11000000    -0.79000000
   C     67.26000000   101.05000000    -1.99000000
   C     65.95000000   100.33000000    -1.70000000
   O     65.85000000    99.14000000    -1.40000000
   C     68.05000000   100.20000000    -2.99000000
   C     67.50000000   100.30000000    -4.41000000
   O     68.11000000    99.61000000    -5.25000000
   O     66.56000000   101.05000000    -4.73000000
   H     67.86000000   100.57000000     0.04000000
   H     67.12000000   102.08000000    -2.31000000
   H     68.05000000    99.12000000    -2.85000000
   H     69.12000000   100.39000000    -2.91000000
   N     64.86000000   101.07000000    -1.53000000
   C     63.55000000   100.61000000    -1.11000000
   C     62.95000000   101.74000000    -0.29000000
   O     61.97000000   102.37000000    -0.68000000
   C     62.69000000   100.13000000    -2.28000000
   C     61.42000000    99.43000000    -1.87000000
   C     60.24000000   100.16000000    -1.66000000
   C     61.39000000    98.06000000    -1.62000000
   C     59.07000000    99.52000000    -1.24000000
   C     60.19000000    97.39000000    -1.36000000
   C     59.03000000    98.12000000    -1.11000000
   H     64.93000000   102.08000000    -1.58000000
   H     63.60000000    99.75000000    -0.45000000
   H     63.31000000    99.43000000    -2.84000000
   H     62.35000000   100.95000000    -2.90000000
   H     60.11000000   101.21000000    -1.85000000
   H     62.28000000    97.44000000    -1.65000000
   H     58.20000000   100.13000000    -1.02000000
   H     60.18000000    96.33000000    -1.15000000
   H     58.10000000    97.67000000    -0.77000000
   N     63.49000000   102.09000000     0.88000000
   C     64.66000000   101.54000000     1.55000000
   C     64.31000000   100.20000000     2.19000000
   O     65.19000000    99.36000000     2.06000000
   C     64.99000000   102.56000000     2.63000000
   C     63.64000000   103.16000000     3.01000000
   C     62.95000000   103.19000000     1.65000000
   H     65.48000000   101.58000000     0.84000000
   H     65.39000000   102.02000000     3.49000000
   H     65.73000000   103.29000000     2.30000000
   H     63.01000000   102.46000000     3.55000000
   H     63.72000000   104.14000000     3.47000000
   H     61.87000000   103.08000000     1.76000000
   H     63.08000000   104.17000000     1.19000000
   N     63.19000000    99.98000000     2.89000000
   C     62.96000000    98.82000000     3.73000000
   C     64.11000000    98.41000000     4.63000000
   O     64.67000000    97.34000000     4.38000000
   C     62.48000000    97.65000000     2.88000000
   C     61.18000000    98.03000000     2.17000000
   C     60.01000000    98.37000000     3.09000000
   O     59.80000000    97.68000000     4.11000000
   O     59.29000000    99.33000000     2.74000000
   H     62.48000000   100.69000000     2.92000000
   H     62.16000000    99.09000000     4.42000000
   H     62.29000000    96.78000000     3.50000000
   H     63.26000000    97.38000000     2.16000000
   H     60.80000000    97.32000000     1.44000000
   H     61.35000000    98.87000000     1.48000000
   N     64.51000000    99.12000000     5.69000000
   C     65.66000000    98.77000000     6.50000000
   H     66.45900000    99.49100000     6.32600000
   H     65.38100000    98.78500000     7.55400000
   H     66.00600000    97.77300000     6.22900000
   H     63.97000000    99.94000000     5.93000000
  Ca     67.24000000   100.77800000    -7.38800000
   O     67.71000000    99.96800000    -9.96800000
   H     68.62000000    99.67800000    -9.99800000
   H     67.24000000    99.35800000   -10.53800000
   O     64.90000000   100.65800000    -8.70800000
   H     64.54000000   100.54800000    -9.58800000
   H     64.58000000   101.51800000    -8.42800000
   O     66.54000000    98.36000000    -7.86800000
   H     65.67000000    97.98000000    -7.73800000
   H     66.97000000    97.76000000    -8.47800000

Ca 1.70



