%chk=loop2.cluster55.chk
%nprocshared=48
%mem=10GB
%nosave
#b3lyp/svp scf=(tight,noincore) Test 
#IOP(5/87=12) Density=Current Pop=(MK,readradii) iop(6/33=2) iop(6/42=6)

loop2.cluster55 

   -2  1 
   C     19.76000000    -1.97000000    52.69000000
   C     19.80000000    -0.86000000    53.73000000
   O     20.08000000     0.27000000    53.32000000
   H     19.59700000    -1.53700000    51.70300000
   H     20.70700000    -2.51000000    52.69700000
   H     18.94700000    -2.65800000    52.92300000
   N     19.69000000    -1.16000000    55.03000000
   C     19.65000000    -0.16000000    56.08000000
   C     18.46000000     0.79000000    56.00000000
   O     18.47000000     1.89000000    56.55000000
   C     19.90000000    -0.78000000    57.45000000
   C     21.15000000    -1.60000000    57.72000000
   O     21.18000000    -2.24000000    58.79000000
   O     22.11000000    -1.43000000    56.93000000
   H     19.50000000    -2.13000000    55.23000000
   H     20.58000000     0.37000000    55.87000000
   H     19.08000000    -1.45000000    57.72000000
   H     19.65000000    -0.02000000    58.18000000
   N     17.40000000     0.23000000    55.40000000
   C     16.17000000     0.97000000    55.17000000
   C     14.94000000     0.09000000    55.31000000
   O     14.75000000    -0.90000000    54.60000000
   C     16.32000000     1.65000000    53.81000000
   H     17.54000000    -0.64000000    54.92000000
   H     16.07000000     1.71000000    55.97000000
   H     15.38000000     2.17000000    53.65000000
   H     17.10000000     2.38000000    54.02000000
   H     16.52000000     0.94000000    53.01000000
   N     13.96000000     0.36000000    56.17000000
   C     13.79000000     1.37000000    57.20000000
   C     12.87000000     0.89000000    58.31000000
   O     12.00000000     0.08000000    57.98000000
   C     13.41000000     2.71000000    56.57000000
   C     13.07000000     3.85000000    57.53000000
   O     13.64000000     3.98000000    58.63000000
   O     12.18000000     4.67000000    57.21000000
   H     13.24000000    -0.34000000    56.12000000
   H     14.75000000     1.59000000    57.66000000
   H     12.58000000     2.52000000    55.89000000
   H     14.21000000     3.08000000    55.93000000
   N     12.89000000     1.37000000    59.55000000
   C     12.17000000     0.81000000    60.68000000
   C     12.92000000    -0.16000000    61.58000000
   O     14.09000000     0.08000000    61.86000000
   H     13.68000000     1.98000000    59.71000000
   H     11.19000000     0.40000000    60.41000000
   H     11.97000000     1.68000000    61.30000000
   N     12.40000000    -1.32000000    61.99000000
   C     11.05000000    -1.86000000    62.00000000
   C     10.66000000    -2.30000000    60.60000000
   O     11.28000000    -3.10000000    59.91000000
   C     10.89000000    -3.01000000    62.98000000
   C      9.44000000    -3.43000000    63.23000000
   N      8.79000000    -2.56000000    64.00000000
   O      8.85000000    -4.41000000    62.77000000
   H     13.07000000    -1.91000000    62.48000000
   H     10.28000000    -1.15000000    62.32000000
   H     11.38000000    -2.58000000    63.85000000
   H     11.34000000    -3.95000000    62.66000000
   H      9.11000000    -1.66000000    64.32000000
   H      7.84000000    -2.81000000    64.24000000
   N      9.53000000    -1.74000000    60.15000000
   C      8.96000000    -1.93000000    58.83000000
   C      8.40000000    -0.59000000    58.37000000
   O      7.23000000    -0.57000000    58.01000000
   H      8.95000000    -1.29000000    60.84000000
   H      8.18000000    -2.70000000    58.87000000
   H      9.73000000    -2.29000000    58.14000000
   N      9.13000000     0.52000000    58.46000000
   C      8.65000000     1.89000000    58.44000000
   C      8.99000000     2.53000000    57.11000000
   O      9.63000000     3.58000000    57.04000000
   C      9.00000000     2.69000000    59.69000000
   C      8.04000000     3.84000000    60.00000000
   O      8.98000000     1.85000000    60.82000000
   H     10.07000000     0.30000000    58.73000000
   H      7.57000000     1.86000000    58.52000000
   H     10.03000000     3.04000000    59.60000000
   H      9.35000000     2.42000000    61.51000000
   H      8.28000000     4.22000000    61.00000000
   H      8.09000000     4.67000000    59.30000000
   H      6.99000000     3.56000000    60.00000000
   N      8.70000000     1.81000000    56.02000000
   C      9.06000000     2.05000000    54.64000000
   C      7.98000000     2.79000000    53.86000000
   O      6.79000000     2.52000000    53.95000000
   C      9.45000000     0.72000000    54.02000000
   C     10.90000000     0.39000000    54.36000000
   C      8.46000000    -0.39000000    54.35000000
   C     11.36000000    -0.77000000    53.49000000
   H      8.22000000     0.94000000    56.21000000
   H     10.00000000     2.60000000    54.67000000
   H      9.43000000     0.84000000    52.93000000
   H     11.03000000     0.19000000    55.42000000
   H     11.64000000     1.18000000    54.16000000
   H      8.60000000    -1.32000000    53.79000000
   H      8.47000000    -0.50000000    55.44000000
   H      7.51000000     0.04000000    54.04000000
   H     12.44000000    -0.92000000    53.55000000
   H     10.83000000    -1.67000000    53.82000000
   H     11.12000000    -0.57000000    52.45000000
   N      8.36000000     3.86000000    53.16000000
   C      7.46000000     4.67000000    52.37000000
   C      7.98000000     4.89000000    50.96000000
   O      9.16000000     5.13000000    50.71000000
   C      7.18000000     6.00000000    53.08000000
   C      6.84000000     5.93000000    54.56000000
   O      5.66000000     5.83000000    54.97000000
   O      7.78000000     6.03000000    55.37000000
   H      9.33000000     4.15000000    53.17000000
   H      6.54000000     4.10000000    52.27000000
   H      6.36000000     6.48000000    52.56000000
   H      8.08000000     6.59000000    52.90000000
   N      7.04000000     4.71000000    50.02000000
   C      7.18000000     4.97000000    48.60000000
   C      8.39000000     4.25000000    48.03000000
   O      8.38000000     3.02000000    47.99000000
   C      5.89000000     4.55000000    47.90000000
   C      5.66000000     4.82000000    46.43000000
   C      4.75000000     3.95000000    45.81000000
   C      5.98000000     6.04000000    45.82000000
   C      4.25000000     4.26000000    44.53000000
   C      5.45000000     6.38000000    44.57000000
   C      4.57000000     5.49000000    43.94000000
   H      6.10000000     4.51000000    50.34000000
   H      7.29000000     6.05000000    48.53000000
   H      5.01000000     4.94000000    48.41000000
   H      5.78000000     3.47000000    47.97000000
   H      4.43000000     3.04000000    46.29000000
   H      6.43000000     6.85000000    46.37000000
   H      3.51000000     3.63000000    44.08000000
   H      5.48000000     7.35000000    44.10000000
   H      4.21000000     5.72000000    42.95000000
   N      9.44000000     4.99000000    47.67000000
   C     10.57000000     4.42000000    46.97000000
   C     11.46000000     3.65000000    47.94000000
   O     12.36000000     2.98000000    47.43000000
   C     11.40000000     5.60000000    46.48000000
   C     10.48000000     6.81000000    46.42000000
   C      9.48000000     6.43000000    47.51000000
   H     10.22000000     3.80000000    46.15000000
   H     12.25000000     5.75000000    47.15000000
   H     11.78000000     5.33000000    45.49000000
   H     10.92000000     7.78000000    46.66000000
   H      9.98000000     6.89000000    45.45000000
   H      9.84000000     6.90000000    48.42000000
   H      8.48000000     6.78000000    47.23000000
   N     11.25000000     3.71000000    49.25000000
   C     11.96000000     2.86000000    50.18000000
   C     11.43000000     1.43000000    50.14000000
   O     12.17000000     0.46000000    50.21000000
   C     11.80000000     3.32000000    51.63000000
   C     12.41000000     4.67000000    51.99000000
   C     11.98000000     5.03000000    53.40000000
   O     12.79000000     5.70000000    54.08000000
   O     10.82000000     4.75000000    53.78000000
   H     10.63000000     4.43000000    49.59000000
   H     13.03000000     2.84000000    49.98000000
   H     12.28000000     2.55000000    52.23000000
   H     10.74000000     3.44000000    51.83000000
   H     12.08000000     5.46000000    51.32000000
   H     13.47000000     4.46000000    51.91000000
   N     10.12000000     1.25000000    49.96000000
   C      9.56000000    -0.06000000    49.69000000
   H      8.61200000     0.05200000    49.16500000
   H     10.25200000    -0.63100000    49.07100000
   H      9.39400000    -0.58600000    50.63000000
   H      9.58000000     2.07000000    49.71000000
  Ca     10.40000000     5.93000000    55.95000000
   O     10.07000000     5.97000000    58.58000000
   H      9.49000000     6.27000000    59.28000000
   H     10.78000000     5.51000000    59.04000000
   O      9.11000000     8.26000000    56.89000000
   H      8.25000000     8.68000000    56.91000000
   H      9.48000000     8.42000000    57.75000000
   O     12.19000000     7.98000000    56.80000000
   H     12.84000000     7.87000000    57.49000000
   H     12.53000000     8.69000000    56.25000000
   O     10.36000000     7.54000000    53.94000000
   H     10.03000000     8.44000000    53.87000000
   H     10.39000000     7.22000000    53.04000000

Ca 1.70



