%chk=loop2.cluster104.chk
%nprocshared=48
%mem=10GB
%nosave
#b3lyp/svp scf=(tight,noincore) Test 
#IOP(5/87=12) Density=Current Pop=(MK,readradii) iop(6/33=2) iop(6/42=6)

loop2.cluster104 

   -2  1 
   C     61.23000000    29.46000000    10.89000000
   C     61.24000000    30.01000000     9.47000000
   O     60.58000000    29.41000000     8.62000000
   H     60.59300000    30.08500000    11.51600000
   H     60.84400000    28.44100000    10.88300000
   H     62.24500000    29.46200000    11.28800000
   N     62.04000000    31.05000000     9.23000000
   C     62.64000000    31.42000000     7.96000000
   C     63.12000000    30.18000000     7.22000000
   O     62.90000000    29.94000000     6.04000000
   C     63.85000000    32.29000000     8.29000000
   C     64.49000000    32.87000000     7.04000000
   O     63.76000000    33.37000000     6.16000000
   O     65.74000000    32.87000000     6.97000000
   H     62.57000000    31.34000000    10.05000000
   H     61.94000000    31.90000000     7.27000000
   H     64.54000000    31.83000000     9.00000000
   H     63.45000000    33.17000000     8.81000000
   N     63.95000000    29.37000000     7.89000000
   C     64.48000000    28.07000000     7.53000000
   C     63.42000000    27.13000000     6.98000000
   O     63.85000000    26.19000000     6.32000000
   C     65.68000000    28.27000000     6.61000000
   H     64.29000000    29.72000000     8.77000000
   H     64.77000000    27.70000000     8.51000000
   H     65.42000000    28.91000000     5.76000000
   H     66.44000000    28.84000000     7.14000000
   H     66.17000000    27.36000000     6.26000000
   N     62.10000000    27.37000000     7.01000000
   C     61.00000000    26.49000000     6.71000000
   C     60.75000000    26.10000000     5.26000000
   O     59.90000000    25.29000000     4.89000000
   C     60.92000000    25.28000000     7.64000000
   C     59.58000000    25.30000000     8.36000000
   O     59.37000000    25.81000000     9.48000000
   O     58.58000000    24.73000000     7.87000000
   H     61.89000000    28.26000000     7.45000000
   H     60.09000000    27.03000000     6.97000000
   H     61.66000000    25.24000000     8.43000000
   H     61.04000000    24.40000000     7.00000000
   N     61.63000000    26.63000000     4.41000000
   C     61.84000000    26.17000000     3.05000000
   C     61.23000000    27.09000000     2.00000000
   O     61.35000000    26.81000000     0.81000000
   H     62.21000000    27.39000000     4.73000000
   H     61.35000000    25.20000000     2.93000000
   H     62.92000000    26.13000000     2.90000000
   N     60.74000000    28.29000000     2.32000000
   C     60.52000000    29.38000000     1.40000000
   C     60.57000000    30.75000000     2.07000000
   O     61.01000000    30.83000000     3.22000000
   C     59.24000000    29.12000000     0.61000000
   C     57.97000000    29.45000000     1.37000000
   N     57.56000000    28.59000000     2.31000000
   O     57.45000000    30.54000000     1.19000000
   H     60.67000000    28.51000000     3.30000000
   H     61.28000000    29.31000000     0.63000000
   H     59.28000000    28.08000000     0.28000000
   H     59.19000000    29.83000000    -0.22000000
   H     58.14000000    27.77000000     2.40000000
   H     56.69000000    28.79000000     2.79000000
   N     60.13000000    31.85000000     1.46000000
   C     60.29000000    33.22000000     1.90000000
   C     59.98000000    33.46000000     3.37000000
   O     60.79000000    33.86000000     4.21000000
   H     59.62000000    31.61000000     0.62000000
   H     59.70000000    33.85000000     1.23000000
   H     61.30000000    33.58000000     1.75000000
   N     58.76000000    33.04000000     3.71000000
   C     58.53000000    32.42000000     5.00000000
   C     57.87000000    33.26000000     6.08000000
   O     57.60000000    34.44000000     5.89000000
   C     57.97000000    31.02000000     4.75000000
   C     58.45000000    29.91000000     5.67000000
   O     56.57000000    31.11000000     4.89000000
   H     58.11000000    32.73000000     3.00000000
   H     59.49000000    32.24000000     5.47000000
   H     58.18000000    30.71000000     3.72000000
   H     56.28000000    31.63000000     4.13000000
   H     58.20000000    30.15000000     6.71000000
   H     57.95000000    28.98000000     5.40000000
   H     59.51000000    29.72000000     5.54000000
   N     57.86000000    32.77000000     7.32000000
   C     57.04000000    33.09000000     8.48000000
   C     56.43000000    31.81000000     9.05000000
   O     56.99000000    30.76000000     8.76000000
   C     57.88000000    33.87000000     9.49000000
   C     58.11000000    35.33000000     9.12000000
   C     57.20000000    33.86000000    10.85000000
   C     59.12000000    36.03000000    10.03000000
   H     58.21000000    31.83000000     7.41000000
   H     56.17000000    33.65000000     8.16000000
   H     58.86000000    33.39000000     9.51000000
   H     57.21000000    35.94000000     9.22000000
   H     58.50000000    35.40000000     8.10000000
   H     57.85000000    34.28000000    11.62000000
   H     56.24000000    34.38000000    10.81000000
   H     57.07000000    32.85000000    11.24000000
   H     58.58000000    36.44000000    10.89000000
   H     59.84000000    35.28000000    10.37000000
   H     59.56000000    36.85000000     9.47000000
   N     55.26000000    31.94000000     9.67000000
   C     54.47000000    30.79000000    10.07000000
   C     53.03000000    31.21000000    10.37000000
   O     52.65000000    32.31000000     9.99000000
   C     55.22000000    29.98000000    11.12000000
   C     55.81000000    28.66000000    10.64000000
   O     56.70000000    28.00000000    11.22000000
   O     55.32000000    28.19000000     9.59000000
   H     54.80000000    32.83000000     9.75000000
   H     54.30000000    30.06000000     9.28000000
   H     54.54000000    29.67000000    11.91000000
   H     55.99000000    30.57000000    11.61000000
   N     52.19000000    30.39000000    11.01000000
   C     50.77000000    30.52000000    11.22000000
   C     50.27000000    29.21000000    11.80000000
   O     49.21000000    28.78000000    11.35000000
   C     50.44000000    31.69000000    12.14000000
   C     48.98000000    31.87000000    12.48000000
   C     48.08000000    32.15000000    11.44000000
   C     48.56000000    32.00000000    13.81000000
   C     46.73000000    32.37000000    11.72000000
   C     47.19000000    32.21000000    14.06000000
   C     46.26000000    32.41000000    13.04000000
   H     52.55000000    29.46000000    11.13000000
   H     50.26000000    30.56000000    10.25000000
   H     50.67000000    32.59000000    11.56000000
   H     51.07000000    31.65000000    13.02000000
   H     48.39000000    32.22000000    10.41000000
   H     49.21000000    31.85000000    14.65000000
   H     45.98000000    32.44000000    10.94000000
   H     46.80000000    32.36000000    15.06000000
   H     45.26000000    32.70000000    13.34000000
   N     50.96000000    28.53000000    12.72000000
   C     50.86000000    28.93000000    14.11000000
   C     52.01000000    29.70000000    14.75000000
   O     51.68000000    30.65000000    15.45000000
   C     50.76000000    27.64000000    14.93000000
   C     50.32000000    26.58000000    13.93000000
   C     51.02000000    27.08000000    12.67000000
   H     49.95000000    29.52000000    14.23000000
   H     51.71000000    27.39000000    15.41000000
   H     49.98000000    27.82000000    15.67000000
   H     50.61000000    25.54000000    14.13000000
   H     49.27000000    26.80000000    13.78000000
   H     52.05000000    26.74000000    12.68000000
   H     50.57000000    26.67000000    11.77000000
   N     53.29000000    29.45000000    14.49000000
   C     54.38000000    29.96000000    15.30000000
   C     54.51000000    31.48000000    15.21000000
   O     55.27000000    32.02000000    16.00000000
   C     55.69000000    29.25000000    14.95000000
   C     55.72000000    27.86000000    15.57000000
   C     56.28000000    27.75000000    16.98000000
   O     55.60000000    27.54000000    18.00000000
   O     57.49000000    28.05000000    17.08000000
   H     53.56000000    28.62000000    13.99000000
   H     54.12000000    29.81000000    16.35000000
   H     56.54000000    29.81000000    15.34000000
   H     55.86000000    29.07000000    13.89000000
   H     56.40000000    27.28000000    14.94000000
   H     54.70000000    27.47000000    15.61000000
   N     53.80000000    32.22000000    14.36000000
   C     53.74000000    33.67000000    14.28000000
   H     52.87300000    34.02800000    14.83600000
   H     54.64700000    34.09600000    14.70900000
   H     53.65300000    33.97400000    13.23700000
   H     53.28000000    31.67000000    13.69000000
  Ca     56.75000000    26.05000000     9.30000000
   O     54.11000000    25.40000000    10.05000000
   H     53.40000000    24.80000000    10.30000000
   H     53.68000000    26.24000000     9.92000000
   O     57.81000000    28.18000000     8.11000000
   H     58.74000000    28.36000000     8.23000000
   H     57.37000000    29.01000000     8.29000000
   O     56.25000000    23.15000000     9.17000000
   H     56.07000000    22.83000000    10.05000000
   H     56.78000000    22.46000000     8.77000000
   O     55.65000000    25.89000000     6.82000000
   H     55.48000000    26.57000000     6.17000000
   H     55.58000000    25.07000000     6.33000000
   O     57.32000000    25.11000000    11.73000000
   H     58.06000000    24.51000000    11.84000000
   H     56.82000000    25.02000000    12.55000000

Ca 1.70



