%chk=loop2.cluster213.chk
%nprocshared=48
%mem=10GB
%nosave
#b3lyp/svp scf=(tight,noincore) Test 
#IOP(5/87=12) Density=Current Pop=(MK,readradii) iop(6/33=2) iop(6/42=6)

loop2.cluster213 

   -2  1 
   C     59.12000000    47.72000000    11.70000000
   C     60.47000000    47.30000000    11.13000000
   O     60.56000000    46.14000000    10.75000000
   H     58.36300000    46.99000000    11.41400000
   H     59.18400000    47.77000000    12.78700000
   H     58.84700000    48.69900000    11.30600000
   N     61.48000000    48.18000000    11.11000000
   C     62.83000000    47.80000000    10.78000000
   C     63.06000000    47.63000000     9.28000000
   O     63.98000000    48.18000000     8.67000000
   C     63.76000000    48.81000000    11.45000000
   C     63.63000000    50.26000000    11.02000000
   O     64.57000000    51.04000000    11.29000000
   O     62.72000000    50.73000000    10.30000000
   H     61.30000000    49.18000000    11.17000000
   H     62.99000000    46.86000000    11.31000000
   H     64.81000000    48.54000000    11.33000000
   H     63.49000000    48.73000000    12.51000000
   N     62.16000000    46.94000000     8.59000000
   C     61.97000000    46.95000000     7.15000000
   C     60.53000000    46.58000000     6.81000000
   O     59.92000000    45.71000000     7.42000000
   C     62.87000000    45.92000000     6.47000000
   H     61.40000000    46.54000000     9.12000000
   H     62.25000000    47.92000000     6.75000000
   H     62.74000000    44.91000000     6.86000000
   H     62.63000000    45.87000000     5.40000000
   H     63.88000000    46.31000000     6.57000000
   N     59.79000000    47.35000000     6.02000000
   C     60.15000000    48.35000000     5.03000000
   C     60.37000000    49.63000000     5.83000000
   O     60.02000000    49.80000000     7.00000000
   C     59.21000000    48.51000000     3.83000000
   C     57.72000000    48.50000000     4.18000000
   O     56.88000000    48.53000000     3.25000000
   O     57.36000000    48.65000000     5.36000000
   H     58.79000000    47.29000000     6.08000000
   H     61.12000000    48.13000000     4.60000000
   H     59.52000000    47.78000000     3.08000000
   H     59.46000000    49.50000000     3.46000000
   N     61.06000000    50.61000000     5.24000000
   C     61.38000000    51.83000000     5.94000000
   C     61.38000000    53.10000000     5.10000000
   O     62.38000000    53.78000000     4.93000000
   H     61.41000000    50.52000000     4.29000000
   H     62.41000000    51.77000000     6.29000000
   H     60.76000000    51.92000000     6.83000000
   N     60.19000000    53.50000000     4.65000000
   C     58.91000000    52.84000000     4.84000000
   C     58.39000000    53.20000000     6.22000000
   O     58.54000000    54.34000000     6.66000000
   C     57.92000000    53.31000000     3.77000000
   C     58.34000000    52.87000000     2.38000000
   N     58.23000000    51.60000000     1.98000000
   O     58.79000000    53.71000000     1.61000000
   H     60.15000000    54.32000000     4.06000000
   H     59.06000000    51.77000000     4.71000000
   H     57.89000000    54.40000000     3.74000000
   H     56.90000000    52.95000000     3.93000000
   H     57.72000000    50.94000000     2.55000000
   H     58.73000000    51.23000000     1.18000000
   N     57.90000000    52.25000000     7.02000000
   C     57.22000000    52.43000000     8.29000000
   C     55.75000000    52.83000000     8.25000000
   O     55.30000000    53.42000000     9.23000000
   H     57.91000000    51.29000000     6.68000000
   H     57.86000000    53.12000000     8.83000000
   H     57.26000000    51.51000000     8.87000000
   N     55.05000000    52.48000000     7.17000000
   C     53.61000000    52.52000000     6.99000000
   C     52.91000000    51.17000000     6.92000000
   O     53.26000000    50.32000000     6.11000000
   C     53.17000000    53.27000000     5.74000000
   C     53.00000000    54.76000000     6.02000000
   O     54.16000000    53.10000000     4.76000000
   H     55.53000000    51.97000000     6.44000000
   H     53.16000000    53.05000000     7.83000000
   H     52.22000000    52.85000000     5.41000000
   H     54.01000000    53.74000000     4.06000000
   H     52.15000000    54.92000000     6.69000000
   H     53.86000000    55.23000000     6.51000000
   H     53.02000000    55.26000000     5.05000000
   N     51.97000000    50.90000000     7.83000000
   C     51.48000000    49.57000000     8.09000000
   C     50.39000000    49.18000000     7.11000000
   O     49.40000000    49.89000000     6.91000000
   C     50.97000000    49.44000000     9.53000000
   C     52.10000000    49.41000000    10.56000000
   C     49.98000000    50.51000000     9.98000000
   C     52.97000000    50.54000000    11.09000000
   H     51.73000000    51.68000000     8.43000000
   H     52.29000000    48.85000000     7.98000000
   H     50.46000000    48.48000000     9.57000000
   H     52.73000000    48.57000000    10.27000000
   H     51.71000000    49.04000000    11.51000000
   H     49.87000000    50.54000000    11.06000000
   H     50.22000000    51.47000000     9.52000000
   H     48.99000000    50.27000000     9.60000000
   H     53.67000000    50.09000000    11.80000000
   H     53.51000000    50.95000000    10.23000000
   H     52.41000000    51.35000000    11.56000000
   N     50.56000000    47.98000000     6.55000000
   C     49.56000000    47.23000000     5.82000000
   C     49.07000000    46.01000000     6.57000000
   O     49.40000000    45.71000000     7.71000000
   C     50.20000000    46.92000000     4.46000000
   C     51.59000000    46.30000000     4.52000000
   O     52.58000000    46.98000000     4.87000000
   O     51.60000000    45.12000000     4.12000000
   H     51.51000000    47.62000000     6.57000000
   H     48.67000000    47.84000000     5.72000000
   H     50.12000000    47.80000000     3.82000000
   H     49.55000000    46.20000000     3.97000000
   N     48.13000000    45.27000000     5.97000000
   C     47.34000000    44.21000000     6.57000000
   C     48.10000000    43.23000000     7.46000000
   O     48.02000000    43.21000000     8.69000000
   C     46.06000000    44.76000000     7.19000000
   C     45.08000000    43.79000000     7.81000000
   C     44.49000000    43.98000000     9.06000000
   C     44.54000000    42.81000000     6.97000000
   C     43.57000000    43.07000000     9.58000000
   C     43.55000000    41.93000000     7.40000000
   C     43.05000000    42.12000000     8.70000000
   H     47.88000000    45.60000000     5.05000000
   H     46.96000000    43.71000000     5.68000000
   H     45.46000000    45.20000000     6.40000000
   H     46.34000000    45.57000000     7.86000000
   H     44.94000000    44.74000000     9.69000000
   H     45.00000000    42.59000000     6.01000000
   H     43.15000000    43.15000000    10.57000000
   H     43.24000000    41.13000000     6.74000000
   H     42.28000000    41.42000000     8.99000000
   N     49.10000000    42.62000000     6.83000000
   C     50.04000000    41.69000000     7.43000000
   C     51.00000000    42.29000000     8.45000000
   O     51.20000000    41.68000000     9.50000000
   C     50.85000000    41.02000000     6.32000000
   C     50.07000000    41.32000000     5.04000000
   C     49.36000000    42.62000000     5.41000000
   H     49.57000000    40.88000000     7.98000000
   H     51.85000000    41.44000000     6.24000000
   H     50.85000000    39.95000000     6.50000000
   H     50.78000000    41.52000000     4.24000000
   H     49.45000000    40.49000000     4.69000000
   H     49.97000000    43.49000000     5.18000000
   H     48.45000000    42.77000000     4.84000000
   N     51.50000000    43.51000000     8.24000000
   C     52.32000000    44.20000000     9.22000000
   C     51.49000000    44.63000000    10.42000000
   O     51.97000000    44.52000000    11.55000000
   C     53.11000000    45.37000000     8.65000000
   C     54.03000000    45.07000000     7.46000000
   C     54.65000000    46.36000000     6.95000000
   O     55.76000000    46.36000000     6.36000000
   O     54.07000000    47.46000000     7.03000000
   H     51.35000000    43.90000000     7.31000000
   H     53.08000000    43.50000000     9.57000000
   H     53.74000000    45.80000000     9.43000000
   H     52.33000000    46.07000000     8.35000000
   H     53.42000000    44.69000000     6.64000000
   H     54.82000000    44.35000000     7.65000000
   N     50.25000000    45.09000000    10.22000000
   C     49.32000000    45.32000000    11.30000000
   H     48.36900000    44.84000000    11.06900000
   H     49.72300000    44.90200000    12.22200000
   H     49.16400000    46.39200000    11.42400000
   H     49.91000000    45.25000000     9.29000000
  Ca     54.77000000    48.23000000     4.66000000
   O     55.14000000    50.72000000     3.85000000
   H     55.17000000    50.86000000     2.90000000
   H     54.67000000    51.49000000     4.18000000
   O     55.77000000    49.69000000     7.36000000
   H     55.29000000    48.89000000     7.59000000
   H     56.51000000    49.38000000     6.84000000
   O     54.82000000    46.36000000     2.65000000
   H     54.92000000    45.42000000     2.79000000
   H     54.51000000    46.45000000     1.75000000
   O     53.02000000    48.74000000     2.80000000
   H     52.76000000    48.13000000     2.11000000
   H     52.68000000    49.59000000     2.51000000

Ca 1.70



