%chk=loop2.cluster113.chk
%nprocshared=48
%mem=10GB
%nosave
#b3lyp/svp scf=(tight,noincore) Test 
#IOP(5/87=12) Density=Current Pop=(MK,readradii) iop(6/33=2) iop(6/42=6)

loop2.cluster113 

   -2  1 
   C     78.59000000    99.01000000     3.21000000
   C     78.77000000   100.52000000     3.10000000
   O     79.28000000   101.14000000     4.03000000
   H     77.64800000    98.72200000     2.74300000
   H     79.41400000    98.50700000     2.70400000
   H     78.57700000    98.72100000     4.26100000
   N     78.22000000   101.17000000     2.08000000
   C     78.07000000   102.61000000     2.17000000
   C     76.63000000   103.08000000     2.10000000
   O     76.25000000   103.98000000     2.85000000
   C     78.96000000   103.15000000     1.05000000
   C     79.06000000   104.67000000     1.11000000
   O     80.12000000   105.18000000     1.55000000
   O     78.18000000   105.40000000     0.61000000
   H     77.94000000   100.68000000     1.24000000
   H     78.54000000   103.07000000     3.04000000
   H     78.45000000   102.86000000     0.14000000
   H     79.95000000   102.69000000     1.07000000
   N     75.78000000   102.49000000     1.26000000
   C     74.39000000   102.87000000     1.05000000
   C     73.49000000   102.88000000     2.27000000
   O     72.61000000   103.74000000     2.38000000
   C     74.29000000   104.08000000     0.13000000
   H     76.05000000   101.68000000     0.72000000
   H     73.98000000   102.03000000     0.49000000
   H     74.60000000   104.93000000     0.75000000
   H     75.05000000   104.00000000    -0.64000000
   H     73.29000000   104.27000000    -0.26000000
   N     73.60000000   101.92000000     3.19000000
   C     72.76000000   101.63000000     4.33000000
   C     72.66000000   102.80000000     5.31000000
   O     71.62000000   103.00000000     5.93000000
   C     71.47000000   100.91000000     3.95000000
   C     71.60000000    99.58000000     3.23000000
   O     70.70000000    99.29000000     2.41000000
   O     72.57000000    98.82000000     3.43000000
   H     74.28000000   101.20000000     3.00000000
   H     73.26000000   100.89000000     4.95000000
   H     70.95000000   101.47000000     3.16000000
   H     70.80000000   100.85000000     4.81000000
   N     73.65000000   103.69000000     5.36000000
   C     73.61000000   104.87000000     6.20000000
   C     73.94000000   104.56000000     7.65000000
   O     74.69000000   103.63000000     7.95000000
   H     74.37000000   103.50000000     4.68000000
   H     72.62000000   105.31000000     6.08000000
   H     74.38000000   105.56000000     5.83000000
   N     73.39000000   105.24000000     8.66000000
   C     73.53000000   105.04000000    10.08000000
   C     74.92000000   104.96000000    10.68000000
   O     75.17000000   104.24000000    11.65000000
   C     72.61000000   103.92000000    10.58000000
   C     71.24000000   103.96000000     9.92000000
   N     70.52000000   105.08000000    10.05000000
   O     70.80000000   102.96000000     9.36000000
   H     72.69000000   105.95000000     8.48000000
   H     73.02000000   105.93000000    10.45000000
   H     72.36000000   104.07000000    11.63000000
   H     73.09000000   102.94000000    10.52000000
   H     70.89000000   105.90000000    10.49000000
   H     69.59000000   105.08000000     9.64000000
   N     75.89000000   105.70000000    10.14000000
   C     77.23000000   105.74000000    10.67000000
   C     78.00000000   104.43000000    10.55000000
   O     78.91000000   104.15000000    11.32000000
   H     75.68000000   106.28000000     9.33000000
   H     77.14000000   106.07000000    11.71000000
   H     77.71000000   106.57000000    10.15000000
   N     77.67000000   103.59000000     9.57000000
   C     78.45000000   102.48000000     9.04000000
   C     77.83000000   101.11000000     9.24000000
   O     76.62000000   100.95000000     9.41000000
   C     78.83000000   102.57000000     7.57000000
   C     77.58000000   102.62000000     6.70000000
   O     79.44000000   103.81000000     7.25000000
   H     76.93000000   103.78000000     8.92000000
   H     79.38000000   102.52000000     9.62000000
   H     79.34000000   101.72000000     7.13000000
   H     80.15000000   103.54000000     6.67000000
   H     77.68000000   102.83000000     5.63000000
   H     77.22000000   101.59000000     6.71000000
   H     76.83000000   103.28000000     7.12000000
   N     78.70000000   100.11000000     9.28000000
   C     78.39000000    98.70000000     9.42000000
   C     77.34000000    98.19000000     8.45000000
   O     77.35000000    98.43000000     7.24000000
   C     79.57000000    97.73000000     9.45000000
   C     80.35000000    97.76000000     8.14000000
   C     80.40000000    97.91000000    10.72000000
   C     81.62000000    96.91000000     8.21000000
   H     79.69000000   100.30000000     9.14000000
   H     77.92000000    98.63000000    10.40000000
   H     79.22000000    96.71000000     9.63000000
   H     80.70000000    98.76000000     7.89000000
   H     79.71000000    97.41000000     7.34000000
   H     79.76000000    98.08000000    11.59000000
   H     81.01000000    97.03000000    10.93000000
   H     80.95000000    98.84000000    10.61000000
   H     82.14000000    96.84000000     7.26000000
   H     82.27000000    97.40000000     8.93000000
   H     81.35000000    95.92000000     8.57000000
   N     76.34000000    97.47000000     8.95000000
   C     75.26000000    96.75000000     8.30000000
   C     74.16000000    96.60000000     9.35000000
   O     74.43000000    96.15000000    10.46000000
   C     75.72000000    95.41000000     7.73000000
   C     74.46000000    94.72000000     7.23000000
   O     73.70000000    95.28000000     6.41000000
   O     74.14000000    93.59000000     7.68000000
   H     76.45000000    97.34000000     9.94000000
   H     74.85000000    97.36000000     7.50000000
   H     76.29000000    94.88000000     8.49000000
   H     76.34000000    95.67000000     6.87000000
   N     72.87000000    96.75000000     9.04000000
   C     71.72000000    96.49000000     9.88000000
   C     70.97000000    97.78000000    10.18000000
   O     69.92000000    97.95000000     9.57000000
   C     70.92000000    95.33000000     9.29000000
   C     69.94000000    94.66000000    10.22000000
   C     68.55000000    94.87000000    10.16000000
   C     70.37000000    93.69000000    11.13000000
   C     67.65000000    94.27000000    11.05000000
   C     69.49000000    93.04000000    12.00000000
   C     68.11000000    93.26000000    11.91000000
   H     72.78000000    97.32000000     8.21000000
   H     72.14000000    96.13000000    10.81000000
   H     71.51000000    94.44000000     9.03000000
   H     70.54000000    95.65000000     8.32000000
   H     68.22000000    95.56000000     9.40000000
   H     71.41000000    93.41000000    11.19000000
   H     66.61000000    94.51000000    10.91000000
   H     69.82000000    92.29000000    12.71000000
   H     67.39000000    92.63000000    12.41000000
   N     71.40000000    98.72000000    11.02000000
   C     72.56000000    98.69000000    11.89000000
   C     72.38000000    97.67000000    13.01000000
   O     71.49000000    97.76000000    13.86000000
   C     72.77000000   100.09000000    12.46000000
   C     71.35000000   100.64000000    12.50000000
   C     70.74000000    99.99000000    11.26000000
   H     73.43000000    98.48000000    11.26000000
   H     73.17000000    99.92000000    13.46000000
   H     73.37000000   100.68000000    11.77000000
   H     70.85000000   100.28000000    13.40000000
   H     71.23000000   101.71000000    12.37000000
   H     69.67000000    99.87000000    11.37000000
   H     70.76000000   100.62000000    10.37000000
   N     73.32000000    96.73000000    13.10000000
   C     73.47000000    95.79000000    14.19000000
   C     74.87000000    95.21000000    14.26000000
   O     75.47000000    94.95000000    13.22000000
   C     72.54000000    94.61000000    13.93000000
   C     72.67000000    93.41000000    14.87000000
   C     72.25000000    93.79000000    16.29000000
   O     72.99000000    94.48000000    17.02000000
   O     71.10000000    93.49000000    16.66000000
   H     74.09000000    96.72000000    12.45000000
   H     73.16000000    96.22000000    15.15000000
   H     72.73000000    94.20000000    12.94000000
   H     71.55000000    95.04000000    13.91000000
   H     73.71000000    93.10000000    14.95000000
   H     72.08000000    92.53000000    14.61000000
   N     75.36000000    95.00000000    15.49000000
   C     76.64000000    94.40000000    15.79000000
   H     77.36200000    95.18300000    16.02100000
   H     76.53800000    93.73600000    16.64800000
   H     76.98600000    93.83000000    14.92800000
   H     74.75000000    95.07000000    16.29000000
  Ca     73.00000000    96.42000000     4.30000000
   O     72.70000000    98.47000000     6.77000000
   H     73.53000000    98.92000000     6.61000000
   H     72.10000000    99.16000000     7.05000000
   O     75.61000000    98.17000000     5.24000000
   H     76.00000000    98.33000000     6.10000000
   H     76.15000000    97.48000000     4.85000000
   O     73.24000000    93.71000000     3.96000000
   H     73.66000000    93.09000000     3.36000000
   H     72.98000000    93.17000000     4.71000000
   O     71.04000000    96.47000000     2.46000000
   H     70.92000000    97.38000000     2.20000000
   H     70.19000000    96.06000000     2.31000000
   O     70.24000000    96.56000000     5.19000000
   H     69.53000000    96.02000000     4.84000000
   H     69.81000000    97.37000000     5.46000000

Ca 1.70



