%chk=loop2.cluster174.chk
%nprocshared=48
%mem=10GB
%nosave
#b3lyp/svp scf=(tight,noincore) Test 
#IOP(5/87=12) Density=Current Pop=(MK,readradii) iop(6/33=2) iop(6/42=6)

loop2.cluster174 

   -2  1 
   C     76.36000000    42.53000000    39.61000000
   C     75.54000000    43.11000000    38.46000000
   O     74.35000000    43.33000000    38.67000000
   H     77.26100000    43.12700000    39.75000000
   H     75.76700000    42.54800000    40.52500000
   H     76.63800000    41.50200000    39.37600000
   N     76.00000000    43.36000000    37.23000000
   C     75.21000000    43.83000000    36.11000000
   C     74.84000000    45.29000000    36.37000000
   O     75.66000000    46.20000000    36.35000000
   C     75.91000000    43.44000000    34.81000000
   C     77.32000000    43.93000000    34.53000000
   O     78.26000000    43.53000000    35.25000000
   O     77.50000000    44.66000000    33.53000000
   H     76.98000000    43.14000000    37.12000000
   H     74.26000000    43.31000000    36.22000000
   H     75.31000000    43.77000000    33.97000000
   H     75.95000000    42.35000000    34.78000000
   N     73.58000000    45.65000000    36.57000000
   C     73.03000000    46.99000000    36.58000000
   C     73.01000000    47.70000000    37.93000000
   O     73.32000000    47.02000000    38.91000000
   C     71.67000000    46.87000000    35.89000000
   H     72.94000000    44.89000000    36.41000000
   H     73.60000000    47.60000000    35.88000000
   H     71.67000000    46.14000000    35.07000000
   H     71.05000000    46.50000000    36.70000000
   H     71.47000000    47.89000000    35.57000000
   N     72.59000000    48.94000000    38.15000000
   C     72.62000000    50.02000000    37.17000000
   C     74.03000000    50.23000000    36.63000000
   O     74.95000000    50.45000000    37.42000000
   C     72.07000000    51.25000000    37.87000000
   C     70.78000000    50.93000000    38.62000000
   O     70.47000000    51.61000000    39.62000000
   O     69.90000000    50.09000000    38.36000000
   H     72.71000000    49.24000000    39.11000000
   H     72.04000000    49.70000000    36.30000000
   H     71.78000000    52.01000000    37.15000000
   H     72.83000000    51.60000000    38.57000000
   N     74.27000000    50.14000000    35.32000000
   C     75.60000000    50.23000000    34.76000000
   C     76.28000000    48.87000000    34.67000000
   O     75.91000000    48.04000000    33.84000000
   H     73.49000000    50.00000000    34.69000000
   H     76.12000000    50.99000000    35.34000000
   H     75.45000000    50.49000000    33.72000000
   N     77.42000000    48.68000000    35.35000000
   C     78.12000000    49.59000000    36.23000000
   C     77.85000000    49.31000000    37.70000000
   O     78.37000000    49.99000000    38.59000000
   C     79.59000000    49.47000000    35.83000000
   C     79.86000000    50.15000000    34.50000000
   N     79.99000000    49.35000000    33.44000000
   O     79.96000000    51.38000000    34.44000000
   H     77.81000000    47.76000000    35.18000000
   H     77.90000000    50.65000000    36.14000000
   H     79.87000000    48.43000000    35.63000000
   H     80.16000000    49.88000000    36.65000000
   H     79.87000000    48.36000000    33.58000000
   H     79.86000000    49.80000000    32.54000000
   N     77.01000000    48.33000000    38.02000000
   C     76.92000000    47.63000000    39.29000000
   C     76.53000000    48.45000000    40.51000000
   O     76.92000000    48.06000000    41.61000000
   H     76.58000000    47.88000000    37.22000000
   H     77.96000000    47.33000000    39.46000000
   H     76.29000000    46.75000000    39.25000000
   N     75.80000000    49.57000000    40.41000000
   C     75.11000000    50.19000000    41.52000000
   C     73.77000000    49.55000000    41.86000000
   O     72.91000000    49.20000000    41.05000000
   C     74.83000000    51.67000000    41.26000000
   C     74.39000000    52.45000000    42.49000000
   O     75.95000000    52.37000000    40.76000000
   H     75.39000000    49.80000000    39.52000000
   H     75.76000000    50.20000000    42.39000000
   H     74.11000000    51.76000000    40.45000000
   H     75.63000000    53.15000000    40.30000000
   H     75.19000000    52.53000000    43.23000000
   H     74.09000000    53.46000000    42.22000000
   H     73.52000000    52.02000000    42.99000000
   N     73.65000000    49.35000000    43.18000000
   C     72.55000000    48.68000000    43.85000000
   C     71.71000000    49.50000000    44.81000000
   O     72.24000000    50.33000000    45.55000000
   C     73.13000000    47.44000000    44.52000000
   C     73.62000000    46.36000000    43.56000000
   C     74.27000000    47.80000000    45.47000000
   C     72.62000000    45.76000000    42.58000000
   H     74.45000000    49.65000000    43.71000000
   H     71.87000000    48.35000000    43.07000000
   H     72.34000000    47.03000000    45.15000000
   H     74.02000000    45.57000000    44.20000000
   H     74.43000000    46.73000000    42.93000000
   H     74.41000000    47.12000000    46.31000000
   H     75.24000000    47.72000000    44.98000000
   H     74.16000000    48.80000000    45.90000000
   H     71.61000000    45.63000000    42.98000000
   H     72.45000000    46.48000000    41.78000000
   H     72.97000000    44.87000000    42.06000000
   N     70.42000000    49.20000000    44.94000000
   C     69.45000000    49.77000000    45.86000000
   C     68.54000000    48.70000000    46.45000000
   O     68.55000000    47.56000000    46.00000000
   C     68.74000000    50.91000000    45.15000000
   C     68.45000000    50.69000000    43.67000000
   O     69.09000000    51.33000000    42.81000000
   O     67.65000000    49.86000000    43.20000000
   H     70.04000000    48.52000000    44.29000000
   H     69.96000000    50.28000000    46.68000000
   H     69.42000000    51.75000000    45.28000000
   H     67.76000000    51.21000000    45.53000000
   N     67.74000000    49.08000000    47.45000000
   C     66.65000000    48.25000000    47.90000000
   C     67.12000000    46.86000000    48.32000000
   O     67.96000000    46.73000000    49.21000000
   C     65.89000000    48.92000000    49.04000000
   C     64.78000000    48.09000000    49.64000000
   C     65.08000000    47.14000000    50.63000000
   C     63.45000000    48.22000000    49.22000000
   C     64.11000000    46.35000000    51.26000000
   C     62.44000000    47.45000000    49.82000000
   C     62.79000000    46.59000000    50.87000000
   H     67.68000000    50.09000000    47.57000000
   H     65.97000000    48.15000000    47.05000000
   H     65.47000000    49.85000000    48.65000000
   H     66.68000000    49.16000000    49.75000000
   H     66.12000000    47.06000000    50.89000000
   H     63.25000000    48.86000000    48.38000000
   H     64.42000000    45.62000000    52.00000000
   H     61.44000000    47.50000000    49.43000000
   H     62.04000000    45.85000000    51.12000000
   N     66.56000000    45.71000000    47.93000000
   C     67.08000000    44.41000000    48.27000000
   C     68.30000000    43.99000000    47.45000000
   O     68.95000000    43.04000000    47.85000000
   C     65.96000000    43.39000000    48.11000000
   C     64.81000000    44.19000000    47.52000000
   C     65.29000000    45.61000000    47.23000000
   H     67.43000000    44.37000000    49.31000000
   H     66.22000000    42.47000000    47.59000000
   H     65.65000000    43.13000000    49.13000000
   H     64.52000000    43.72000000    46.58000000
   H     63.95000000    44.25000000    48.19000000
   H     65.39000000    45.84000000    46.17000000
   H     64.58000000    46.40000000    47.49000000
   N     68.65000000    44.66000000    46.35000000
   C     69.56000000    44.14000000    45.35000000
   C     71.04000000    44.12000000    45.72000000
   O     71.88000000    43.50000000    45.09000000
   C     69.22000000    44.94000000    44.09000000
   C     67.80000000    44.60000000    43.63000000
   C     67.48000000    45.15000000    42.25000000
   O     66.57000000    46.00000000    42.17000000
   O     68.18000000    44.76000000    41.28000000
   H     68.23000000    45.56000000    46.17000000
   H     69.32000000    43.10000000    45.12000000
   H     69.98000000    44.63000000    43.38000000
   H     69.37000000    45.99000000    44.33000000
   H     67.11000000    45.12000000    44.28000000
   H     67.63000000    43.52000000    43.56000000
   N     71.33000000    44.89000000    46.78000000
   C     72.64000000    44.89000000    47.40000000
   H     73.31800000    45.51300000    46.81600000
   H     72.56300000    45.28700000    48.41200000
   H     73.02500000    43.87100000    47.43700000
   H     70.63000000    45.40000000    47.31000000
  Ca     68.18000000    50.38000000    40.42000000
   O     66.68000000    50.22000000    38.21000000
   H     66.91000000    50.09000000    37.29000000
   H     65.86000000    49.75000000    38.32000000
   O     66.80000000    48.18000000    40.60000000
   H     66.88000000    47.47000000    41.24000000
   H     65.87000000    48.35000000    40.55000000
   O     70.07000000    48.67000000    41.01000000
   H     70.96000000    48.99000000    40.87000000
   H     70.08000000    47.77000000    40.68000000

Ca 1.70



