%chk=loop2.cluster83.chk
%nprocshared=48
%mem=10GB
%nosave
#b3lyp/svp scf=(tight,noincore) Test 
#IOP(5/87=12) Density=Current Pop=(MK,readradii) iop(6/33=2) iop(6/42=6)

loop2.cluster83 

   -2  1 
   C     72.46000000   107.63000000     4.89000000
   C     72.51000000   109.09000000     5.31000000
   O     71.50000000   109.78000000     5.45000000
   H     71.81300000   107.52500000     4.01900000
   H     73.46400000   107.28900000     4.63900000
   H     72.06600000   107.02900000     5.70900000
   N     73.70000000   109.69000000     5.33000000
   C     74.00000000   111.07000000     5.69000000
   C     73.43000000   112.16000000     4.80000000
   O     73.02000000   113.18000000     5.34000000
   C     75.50000000   111.30000000     5.85000000
   C     75.92000000   112.68000000     6.33000000
   O     75.81000000   112.97000000     7.54000000
   O     76.51000000   113.44000000     5.53000000
   H     74.48000000   109.13000000     5.03000000
   H     73.60000000   111.31000000     6.67000000
   H     75.96000000   111.19000000     4.87000000
   H     75.88000000   110.54000000     6.54000000
   N     73.28000000   111.92000000     3.49000000
   C     72.49000000   112.71000000     2.57000000
   C     71.06000000   112.99000000     3.02000000
   O     70.40000000   113.87000000     2.46000000
   C     73.29000000   113.95000000     2.18000000
   H     73.60000000   111.06000000     3.09000000
   H     72.43000000   112.10000000     1.67000000
   H     73.56000000   114.54000000     3.05000000
   H     74.25000000   113.64000000     1.75000000
   H     72.75000000   114.48000000     1.39000000
   N     70.53000000   112.19000000     3.94000000
   C     69.30000000   112.43000000     4.67000000
   C     69.25000000   113.73000000     5.46000000
   O     68.26000000   114.45000000     5.37000000
   C     68.05000000   112.11000000     3.86000000
   C     67.83000000   110.61000000     3.72000000
   O     66.96000000   110.04000000     4.41000000
   O     68.50000000   109.89000000     2.95000000
   H     71.18000000   111.55000000     4.37000000
   H     69.27000000   111.70000000     5.48000000
   H     68.02000000   112.71000000     2.95000000
   H     67.19000000   112.42000000     4.45000000
   N     70.25000000   114.16000000     6.23000000
   C     70.12000000   115.30000000     7.12000000
   C     69.53000000   115.01000000     8.50000000
   O     69.55000000   113.84000000     8.86000000
   H     71.09000000   113.61000000     6.30000000
   H     69.54000000   116.10000000     6.68000000
   H     71.09000000   115.78000000     7.26000000
   N     69.05000000   116.02000000     9.23000000
   C     68.21000000   115.98000000    10.40000000
   C     68.59000000   115.11000000    11.59000000
   O     67.78000000   114.46000000    12.25000000
   C     66.80000000   115.61000000     9.94000000
   C     66.21000000   116.52000000     8.87000000
   N     65.98000000   117.82000000     9.07000000
   O     65.88000000   116.05000000     7.79000000
   H     69.27000000   116.96000000     8.93000000
   H     68.31000000   117.00000000    10.78000000
   H     66.08000000   115.63000000    10.76000000
   H     66.78000000   114.58000000     9.58000000
   H     66.10000000   118.25000000     9.98000000
   H     65.45000000   118.35000000     8.39000000
   N     69.91000000   115.07000000    11.78000000
   C     70.63000000   114.37000000    12.83000000
   C     71.20000000   113.03000000    12.37000000
   O     72.28000000   112.62000000    12.79000000
   H     70.53000000   115.52000000    11.14000000
   H     69.97000000   114.23000000    13.68000000
   H     71.49000000   115.01000000    13.03000000
   N     70.54000000   112.31000000    11.47000000
   C     71.04000000   111.04000000    10.98000000
   C     70.03000000   109.90000000    10.94000000
   O     68.87000000   110.17000000    10.67000000
   C     71.69000000   111.18000000     9.60000000
   C     72.87000000   112.15000000     9.62000000
   O     72.15000000   109.96000000     9.06000000
   H     69.79000000   112.80000000    11.01000000
   H     71.82000000   110.74000000    11.68000000
   H     71.02000000   111.57000000     8.83000000
   H     71.32000000   109.50000000     8.91000000
   H     73.51000000   111.94000000     8.77000000
   H     72.46000000   113.16000000     9.63000000
   H     73.40000000   111.91000000    10.54000000
   N     70.45000000   108.66000000    11.24000000
   C     69.70000000   107.43000000    11.07000000
   C     69.12000000   107.42000000     9.66000000
   O     69.75000000   107.86000000     8.70000000
   C     70.64000000   106.26000000    11.34000000
   C     71.29000000   106.22000000    12.72000000
   C     70.19000000   104.83000000    11.07000000
   C     70.34000000   106.00000000    13.89000000
   H     71.45000000   108.62000000    11.29000000
   H     68.88000000   107.42000000    11.78000000
   H     71.46000000   106.40000000    10.63000000
   H     71.79000000   107.16000000    12.93000000
   H     72.10000000   105.49000000    12.72000000
   H     70.34000000   104.60000000    10.01000000
   H     70.81000000   104.11000000    11.61000000
   H     69.15000000   104.54000000    11.25000000
   H     70.54000000   106.58000000    14.79000000
   H     69.28000000   106.21000000    13.75000000
   H     70.38000000   104.95000000    14.19000000
   N     67.94000000   106.80000000     9.53000000
   C     67.26000000   106.50000000     8.29000000
   C     65.78000000   106.29000000     8.61000000
   O     65.39000000   105.34000000     9.28000000
   C     67.91000000   105.24000000     7.72000000
   C     67.34000000   104.85000000     6.36000000
   O     67.08000000   105.81000000     5.61000000
   O     67.04000000   103.65000000     6.15000000
   H     67.41000000   106.58000000    10.36000000
   H     67.35000000   107.38000000     7.65000000
   H     67.73000000   104.42000000     8.41000000
   H     68.98000000   105.45000000     7.65000000
   N     65.01000000   107.32000000     8.24000000
   C     63.66000000   107.40000000     8.74000000
   C     63.34000000   108.87000000     9.00000000
   O     62.56000000   109.50000000     8.28000000
   C     62.74000000   106.60000000     7.82000000
   C     61.48000000   106.14000000     8.50000000
   C     60.36000000   106.96000000     8.65000000
   C     61.35000000   104.77000000     8.80000000
   C     59.10000000   106.45000000     9.00000000
   C     60.11000000   104.22000000     9.13000000
   C     59.01000000   105.07000000     9.23000000
   H     65.41000000   108.09000000     7.73000000
   H     63.71000000   106.92000000     9.72000000
   H     63.22000000   105.70000000     7.44000000
   H     62.54000000   107.26000000     6.98000000
   H     60.32000000   108.01000000     8.40000000
   H     62.27000000   104.21000000     8.68000000
   H     58.20000000   107.05000000     8.98000000
   H     59.97000000   103.15000000     9.28000000
   H     58.03000000   104.65000000     9.44000000
   N     63.91000000   109.48000000    10.03000000
   C     64.98000000   109.02000000    10.90000000
   C     64.55000000   107.99000000    11.94000000
   O     65.11000000   106.90000000    12.05000000
   C     65.59000000   110.21000000    11.63000000
   C     65.26000000   111.37000000    10.69000000
   C     63.90000000   110.92000000    10.17000000
   H     65.77000000   108.58000000    10.29000000
   H     65.20000000   110.26000000    12.65000000
   H     66.68000000   110.13000000    11.71000000
   H     65.36000000   112.37000000    11.13000000
   H     65.97000000   111.33000000     9.86000000
   H     63.10000000   111.24000000    10.83000000
   H     63.86000000   111.46000000     9.22000000
   N     63.37000000   108.24000000    12.50000000
   C     62.64000000   107.38000000    13.41000000
   C     63.45000000   106.34000000    14.17000000
   O     63.51000000   105.15000000    13.85000000
   C     61.39000000   106.73000000    12.82000000
   C     60.28000000   107.54000000    12.15000000
   C     59.44000000   108.30000000    13.15000000
   O     58.22000000   108.04000000    13.23000000
   O     60.04000000   109.07000000    13.93000000
   H     62.98000000   109.15000000    12.30000000
   H     62.26000000   108.02000000    14.20000000
   H     60.93000000   106.20000000    13.65000000
   H     61.73000000   106.03000000    12.05000000
   H     59.78000000   106.75000000    11.57000000
   H     60.74000000   108.30000000    11.52000000
   N     64.13000000   106.92000000    15.16000000
   C     64.98000000   106.10000000    15.99000000
   H     65.88200000   106.65600000    16.24600000
   H     64.44800000   105.83100000    16.90200000
   H     65.25400000   105.19500000    15.44800000
   H     64.26000000   107.92000000    15.24000000
  Ca     67.29000000   107.62300000     3.61000000
   O     68.55000000   107.40300000     1.29000000
   H     68.29000000   107.02300000     0.45000000
   H     69.49000000   107.54300000     1.21000000
   O     66.16000000   105.65300000     1.95000000
   H     65.36000000   105.53300000     1.44000000
   H     66.86000000   105.50300000     1.32000000
   O     69.07000000   108.26300000     5.84000000
   H     69.82000000   108.83300000     5.64000000
   H     69.30000000   107.86300000     6.68000000
   O     69.35000000   105.91300000     3.76000000
   H     69.00000000   105.04300000     3.97000000
   H     70.25000000   105.73300000     3.46000000
   O     65.75000000   109.04300000     1.83000000
   H     64.82000000   109.16300000     1.68000000
   H     66.17000000   109.69300000     1.26000000
   O     64.87000000   107.32300000     4.59000000
   H     64.88000000   106.75300000     5.36000000
   H     64.02000000   107.15300000     4.18000000

Ca 1.70



