%chk=loop2.cluster236.chk
%nprocshared=48
%mem=10GB
%nosave
#b3lyp/svp scf=(tight,noincore) Test 
#IOP(5/87=12) Density=Current Pop=(MK,readradii) iop(6/33=2) iop(6/42=6)

loop2.cluster236 

   -2  1 
   C     75.87000000    52.04000000    56.61000000
   C     75.12000000    51.98000000    55.29000000
   O     73.92000000    51.75000000    55.32000000
   H     76.76700000    52.64800000    56.49000000
   H     75.23000000    52.48400000    57.37300000
   H     76.15300000    51.03200000    56.91400000
   N     75.80000000    52.10000000    54.14000000
   C     75.26000000    52.09000000    52.80000000
   C     74.14000000    53.10000000    52.60000000
   O     74.40000000    54.30000000    52.65000000
   C     76.38000000    52.23000000    51.78000000
   C     75.95000000    52.17000000    50.32000000
   O     76.05000000    53.20000000    49.61000000
   O     75.19000000    51.23000000    50.03000000
   H     76.76000000    52.42000000    54.25000000
   H     74.79000000    51.16000000    52.48000000
   H     76.97000000    51.32000000    51.89000000
   H     77.01000000    53.11000000    51.95000000
   N     72.89000000    52.67000000    52.42000000
   C     71.68000000    53.41000000    52.14000000
   C     70.55000000    52.68000000    52.85000000
   O     70.45000000    51.46000000    52.79000000
   C     71.49000000    53.37000000    50.63000000
   H     72.72000000    51.67000000    52.46000000
   H     71.78000000    54.42000000    52.54000000
   H     72.46000000    53.63000000    50.19000000
   H     71.39000000    52.33000000    50.30000000
   H     70.69000000    54.04000000    50.34000000
   N     69.50000000    53.26000000    53.44000000
   C     69.20000000    54.68000000    53.45000000
   C     69.92000000    55.47000000    54.52000000
   O     70.18000000    55.00000000    55.63000000
   C     67.69000000    54.85000000    53.60000000
   C     67.07000000    54.08000000    54.76000000
   O     66.79000000    52.87000000    54.74000000
   O     66.86000000    54.77000000    55.78000000
   H     68.91000000    52.74000000    54.07000000
   H     69.51000000    55.05000000    52.47000000
   H     67.24000000    54.55000000    52.65000000
   H     67.41000000    55.90000000    53.70000000
   N     70.11000000    56.77000000    54.26000000
   C     70.87000000    57.66000000    55.11000000
   C     72.37000000    57.70000000    54.83000000
   O     72.89000000    57.41000000    53.76000000
   H     69.76000000    57.19000000    53.41000000
   H     70.63000000    57.39000000    56.14000000
   H     70.56000000    58.71000000    55.04000000
   N     73.18000000    58.03000000    55.84000000
   C     72.89000000    58.58000000    57.15000000
   C     73.79000000    57.84000000    58.13000000
   O     74.98000000    57.73000000    57.87000000
   C     73.07000000    60.09000000    57.21000000
   C     72.98000000    60.65000000    58.62000000
   N     71.89000000    60.47000000    59.37000000
   O     73.95000000    61.26000000    59.07000000
   H     74.16000000    58.09000000    55.61000000
   H     71.87000000    58.33000000    57.43000000
   H     72.24000000    60.45000000    56.59000000
   H     74.05000000    60.30000000    56.80000000
   H     70.99000000    60.37000000    58.92000000
   H     71.89000000    60.65000000    60.36000000
   N     73.21000000    57.45000000    59.28000000
   C     73.95000000    56.87000000    60.38000000
   C     73.06000000    56.06000000    61.31000000
   O     73.30000000    56.08000000    62.51000000
   H     72.25000000    57.73000000    59.38000000
   H     74.52000000    57.63000000    60.92000000
   H     74.77000000    56.23000000    60.06000000
   N     72.01000000    55.44000000    60.76000000
   C     71.08000000    54.67000000    61.56000000
   C     70.61000000    53.42000000    60.83000000
   O     70.27000000    53.51000000    59.65000000
   C     69.84000000    55.47000000    61.99000000
   C     70.20000000    56.60000000    62.94000000
   O     69.16000000    55.95000000    60.86000000
   H     71.87000000    55.47000000    59.76000000
   H     71.56000000    54.41000000    62.50000000
   H     69.13000000    54.87000000    62.55000000
   H     68.38000000    55.42000000    60.67000000
   H     70.98000000    57.27000000    62.58000000
   H     69.29000000    57.17000000    63.16000000
   H     70.57000000    56.19000000    63.88000000
   N     70.60000000    52.27000000    61.51000000
   C     70.15000000    50.96000000    61.09000000
   C     68.80000000    50.61000000    61.71000000
   O     68.61000000    50.90000000    62.89000000
   C     71.17000000    49.84000000    61.28000000
   C     72.47000000    50.09000000    60.52000000
   C     71.53000000    49.63000000    62.74000000
   C     72.45000000    50.31000000    59.01000000
   H     70.71000000    52.35000000    62.51000000
   H     69.94000000    51.05000000    60.03000000
   H     70.71000000    48.92000000    60.90000000
   H     73.13000000    49.25000000    60.71000000
   H     72.93000000    50.96000000    60.99000000
   H     71.76000000    50.62000000    63.14000000
   H     70.74000000    49.22000000    63.36000000
   H     72.40000000    48.99000000    62.85000000
   H     73.49000000    50.24000000    58.68000000
   H     71.86000000    49.61000000    58.42000000
   H     72.10000000    51.32000000    58.79000000
   N     67.86000000    49.94000000    61.04000000
   C     66.57000000    49.59000000    61.59000000
   C     66.08000000    48.26000000    61.03000000
   O     66.55000000    47.89000000    59.95000000
   C     65.60000000    50.73000000    61.31000000
   C     65.74000000    51.29000000    59.90000000
   O     66.39000000    52.32000000    59.61000000
   O     65.10000000    50.81000000    58.94000000
   H     68.00000000    49.70000000    60.06000000
   H     66.64000000    49.47000000    62.67000000
   H     65.78000000    51.62000000    61.92000000
   H     64.57000000    50.38000000    61.40000000
   N     65.00000000    47.69000000    61.56000000
   C     64.53000000    46.38000000    61.17000000
   C     65.69000000    45.39000000    61.08000000
   O     66.36000000    45.28000000    62.11000000
   C     63.42000000    45.94000000    62.12000000
   C     62.77000000    44.60000000    61.84000000
   C     63.23000000    43.36000000    62.30000000
   C     61.65000000    44.60000000    61.01000000
   C     62.51000000    42.18000000    62.11000000
   C     60.87000000    43.47000000    60.76000000
   C     61.38000000    42.27000000    61.29000000
   H     64.49000000    48.25000000    62.23000000
   H     64.13000000    46.50000000    60.16000000
   H     62.67000000    46.73000000    62.10000000
   H     63.86000000    45.92000000    63.12000000
   H     64.14000000    43.33000000    62.88000000
   H     61.34000000    45.56000000    60.62000000
   H     62.80000000    41.26000000    62.60000000
   H     60.01000000    43.53000000    60.11000000
   H     60.84000000    41.36000000    61.10000000
   N     65.88000000    44.61000000    60.02000000
   C     66.90000000    43.59000000    59.87000000
   C     68.23000000    44.15000000    59.39000000
   O     69.14000000    43.37000000    59.12000000
   C     66.16000000    42.46000000    59.18000000
   C     65.33000000    43.24000000    58.16000000
   C     65.01000000    44.56000000    58.86000000
   H     67.09000000    43.28000000    60.90000000
   H     66.90000000    41.76000000    58.79000000
   H     65.66000000    41.99000000    60.03000000
   H     65.97000000    43.45000000    57.30000000
   H     64.45000000    42.62000000    58.02000000
   H     65.32000000    45.36000000    58.19000000
   H     63.95000000    44.63000000    59.08000000
   N     68.39000000    45.47000000    59.31000000
   C     69.54000000    46.07000000    58.66000000
   C     70.85000000    45.99000000    59.42000000
   O     71.91000000    46.25000000    58.85000000
   C     69.27000000    47.56000000    58.48000000
   C     68.31000000    47.92000000    57.35000000
   C     68.01000000    49.41000000    57.26000000
   O     68.01000000    50.19000000    58.23000000
   O     67.67000000    49.81000000    56.12000000
   H     67.61000000    46.09000000    59.50000000
   H     69.69000000    45.64000000    57.66000000
   H     70.14000000    48.09000000    58.10000000
   H     68.90000000    48.01000000    59.40000000
   H     67.43000000    47.31000000    57.56000000
   H     68.70000000    47.56000000    56.39000000
   N     70.72000000    45.56000000    60.68000000
   C     71.80000000    45.62000000    61.64000000
   H     72.62600000    46.19500000    61.22100000
   H     71.44900000    46.10100000    62.55300000
   H     72.14000000    44.61000000    61.86800000
   H     69.82000000    45.30000000    61.05000000
  Ca     66.45000000    52.09000000    57.14000000
   O     68.93000000    53.04000000    57.35000000
   H     69.38000000    53.54000000    56.68000000
   H     69.45000000    53.17000000    58.14000000

Ca 1.70



