%chk=loop2.cluster67.chk
%nprocshared=48
%mem=10GB
%nosave
#b3lyp/svp scf=(tight,noincore) Test 
#IOP(5/87=12) Density=Current Pop=(MK,readradii) iop(6/33=2) iop(6/42=6)

loop2.cluster67 

   -2  1 
   C     85.29000000    49.43000000   -26.16000000
   C     83.96000000    50.12000000   -25.92000000
   O     83.47000000    50.32000000   -24.80000000
   H     86.04500000    49.85900000   -25.50100000
   H     85.19000000    48.36500000   -25.95200000
   H     85.59100000    49.57200000   -27.19800000
   N     83.16000000    50.44000000   -26.94000000
   C     83.37000000    50.48000000   -28.37000000
   C     82.19000000    49.88000000   -29.11000000
   O     81.05000000    50.04000000   -28.68000000
   C     83.71000000    51.87000000   -28.89000000
   C     82.86000000    53.04000000   -28.43000000
   O     83.22000000    54.14000000   -28.91000000
   O     82.08000000    52.98000000   -27.45000000
   H     82.24000000    50.73000000   -26.63000000
   H     84.20000000    49.85000000   -28.68000000
   H     83.74000000    51.93000000   -29.98000000
   H     84.70000000    52.05000000   -28.47000000
   N     82.40000000    49.28000000   -30.28000000
   C     81.49000000    48.83000000   -31.32000000
   C     80.82000000    50.00000000   -32.04000000
   O     80.75000000    50.05000000   -33.27000000
   C     80.42000000    47.86000000   -30.82000000
   H     83.38000000    49.34000000   -30.52000000
   H     81.99000000    48.31000000   -32.14000000
   H     79.47000000    48.02000000   -31.31000000
   H     80.78000000    46.84000000   -30.93000000
   H     80.21000000    48.02000000   -29.76000000
   N     80.32000000    50.98000000   -31.30000000
   C     79.53000000    52.13000000   -31.70000000
   C     79.60000000    53.26000000   -30.68000000
   O     79.81000000    52.97000000   -29.50000000
   C     78.09000000    51.69000000   -31.95000000
   C     77.45000000    50.72000000   -30.96000000
   O     77.99000000    50.37000000   -29.89000000
   O     76.27000000    50.39000000   -31.18000000
   H     80.41000000    50.91000000   -30.29000000
   H     79.92000000    52.64000000   -32.57000000
   H     78.07000000    51.39000000   -32.99000000
   H     77.46000000    52.58000000   -32.01000000
   N     79.50000000    54.50000000   -31.14000000
   C     79.66000000    55.68000000   -30.31000000
   C     78.37000000    55.92000000   -29.54000000
   O     77.37000000    56.27000000   -30.17000000
   H     79.55000000    54.64000000   -32.14000000
   H     79.87000000    56.54000000   -30.95000000
   H     80.56000000    55.65000000   -29.70000000
   N     78.42000000    55.74000000   -28.22000000
   C     77.39000000    56.18000000   -27.30000000
   C     77.80000000    56.98000000   -26.07000000
   O     76.99000000    57.65000000   -25.45000000
   C     76.59000000    54.95000000   -26.90000000
   C     76.41000000    53.97000000   -28.05000000
   N     75.48000000    54.22000000   -28.97000000
   O     77.03000000    52.92000000   -28.17000000
   H     79.26000000    55.41000000   -27.77000000
   H     76.70000000    56.78000000   -27.88000000
   H     75.58000000    55.22000000   -26.60000000
   H     77.11000000    54.51000000   -26.04000000
   H     74.83000000    54.96000000   -28.75000000
   H     75.32000000    53.61000000   -29.76000000
   N     79.10000000    57.09000000   -25.75000000
   C     79.47000000    57.77000000   -24.53000000
   C     79.10000000    56.96000000   -23.29000000
   O     79.03000000    55.74000000   -23.31000000
   H     79.79000000    56.59000000   -26.29000000
   H     79.05000000    58.77000000   -24.53000000
   H     80.55000000    57.83000000   -24.46000000
   N     78.64000000    57.59000000   -22.20000000
   C     78.65000000    58.99000000   -21.83000000
   C     79.74000000    59.30000000   -20.82000000
   O     80.18000000    60.45000000   -20.76000000
   C     77.34000000    59.44000000   -21.19000000
   C     76.30000000    59.54000000   -22.30000000
   O     76.90000000    58.55000000   -20.19000000
   H     78.47000000    56.96000000   -21.43000000
   H     78.92000000    59.60000000   -22.69000000
   H     77.44000000    60.44000000   -20.77000000
   H     76.08000000    58.97000000   -19.94000000
   H     75.93000000    58.55000000   -22.56000000
   H     75.41000000    60.12000000   -22.05000000
   H     76.74000000    59.95000000   -23.21000000
   N     80.17000000    58.30000000   -20.04000000
   C     81.01000000    58.37000000   -18.87000000
   C     80.32000000    59.18000000   -17.78000000
   O     80.75000000    60.26000000   -17.39000000
   C     82.44000000    58.71000000   -19.27000000
   C     82.92000000    57.81000000   -20.40000000
   C     83.37000000    58.52000000   -18.07000000
   C     84.38000000    57.97000000   -20.82000000
   H     79.89000000    57.35000000   -20.27000000
   H     81.01000000    57.37000000   -18.44000000
   H     82.53000000    59.76000000   -19.55000000
   H     82.32000000    58.02000000   -21.29000000
   H     82.69000000    56.79000000   -20.10000000
   H     84.33000000    59.01000000   -18.25000000
   H     83.07000000    59.17000000   -17.25000000
   H     83.42000000    57.46000000   -17.85000000
   H     84.61000000    57.25000000   -21.60000000
   H     84.46000000    58.95000000   -21.30000000
   H     85.18000000    58.03000000   -20.08000000
   N     79.21000000    58.72000000   -17.20000000
   C     78.54000000    57.44000000   -17.37000000
   C     79.28000000    56.32000000   -16.66000000
   O     79.60000000    55.32000000   -17.29000000
   C     77.08000000    57.51000000   -16.91000000
   C     76.70000000    58.31000000   -15.67000000
   O     75.50000000    58.37000000   -15.33000000
   O     77.62000000    58.90000000   -15.07000000
   H     78.68000000    59.37000000   -16.64000000
   H     78.47000000    57.17000000   -18.42000000
   H     76.59000000    56.54000000   -16.93000000
   H     76.58000000    58.15000000   -17.63000000
   N     79.64000000    56.52000000   -15.39000000
   C     80.28000000    55.56000000   -14.51000000
   C     79.48000000    55.14000000   -13.28000000
   O     78.73000000    55.99000000   -12.83000000
   C     81.57000000    56.28000000   -14.13000000
   C     81.43000000    57.56000000   -13.34000000
   C     81.52000000    58.75000000   -14.07000000
   C     81.54000000    57.53000000   -11.94000000
   C     81.47000000    59.94000000   -13.33000000
   C     81.40000000    58.73000000   -11.24000000
   C     81.33000000    59.95000000   -11.94000000
   H     79.37000000    57.35000000   -14.88000000
   H     80.49000000    54.68000000   -15.12000000
   H     82.12000000    56.61000000   -15.01000000
   H     82.22000000    55.59000000   -13.59000000
   H     81.64000000    58.70000000   -15.14000000
   H     81.69000000    56.58000000   -11.45000000
   H     81.40000000    60.85000000   -13.91000000
   H     81.43000000    58.72000000   -10.16000000
   H     81.16000000    60.87000000   -11.41000000
   N     79.53000000    53.87000000   -12.86000000
   C     80.50000000    52.84000000   -13.15000000
   C     80.17000000    52.09000000   -14.43000000
   O     79.10000000    52.17000000   -15.04000000
   C     80.53000000    51.91000000   -11.95000000
   C     79.14000000    52.07000000   -11.35000000
   C     78.80000000    53.52000000   -11.66000000
   H     81.44000000    53.40000000   -13.23000000
   H     80.65000000    50.85000000   -12.20000000
   H     81.22000000    52.26000000   -11.18000000
   H     78.38000000    51.50000000   -11.89000000
   H     79.10000000    51.89000000   -10.27000000
   H     77.75000000    53.73000000   -11.86000000
   H     79.27000000    54.13000000   -10.88000000
   N     81.20000000    51.38000000   -14.91000000
   C     81.29000000    50.68000000   -16.17000000
   C     82.66000000    50.51000000   -16.81000000
   O     83.08000000    49.46000000   -17.28000000
   C     80.44000000    49.41000000   -16.07000000
   C     80.72000000    48.55000000   -14.85000000
   C     82.21000000    48.44000000   -14.56000000
   O     82.84000000    47.38000000   -14.79000000
   O     82.77000000    49.25000000   -13.80000000
   H     82.05000000    51.29000000   -14.38000000
   H     80.80000000    51.29000000   -16.93000000
   H     80.49000000    48.84000000   -17.00000000
   H     79.39000000    49.70000000   -16.05000000
   H     80.20000000    47.59000000   -14.89000000
   H     80.26000000    48.91000000   -13.93000000
   N     83.56000000    51.48000000   -16.66000000
   C     83.52000000    52.86000000   -16.21000000
   H     82.48300000    53.18100000   -16.11700000
   H     84.01300000    52.94100000   -15.24100000
   H     84.03300000    53.49400000   -16.93400000
   H     84.48000000    51.23000000   -16.99000000
  Ca     78.77000000    51.00000000   -27.51800000
   O     79.32000000    53.32000000   -26.37800000
   H     79.25000000    53.49000000   -25.43800000
   H     80.13000000    53.76000000   -26.63800000
   O     78.80000000    48.41000000   -27.45800000
   H     79.29000000    47.66000000   -27.10800000
   H     78.34000000    48.06000000   -28.21800000
   O     76.08000000    50.27000000   -27.91800000
   H     75.53000000    51.05000000   -27.81800000
   H     76.24000000    50.21000000   -28.85800000
   O     80.50000000    50.84000000   -25.58800000
   H     80.46000000    50.19000000   -24.88800000
   H     81.24000000    51.40000000   -25.34800000
   O     77.38000000    51.55000000   -25.23800000
   H     76.50000000    51.84000000   -24.97800000
   H     77.97000000    51.97000000   -24.61800000

Ca 1.70



