%chk=loop2.cluster137.chk
%nprocshared=48
%mem=10GB
%nosave
#b3lyp/svp scf=(tight,noincore) Test 
#IOP(5/87=12) Density=Current Pop=(MK,readradii) iop(6/33=2) iop(6/42=6)

loop2.cluster137 

   -2  1 
   C     85.97000000    72.30000000    20.28000000
   C     86.62000000    72.33000000    18.91000000
   O     86.36000000    73.25000000    18.14000000
   H     84.95700000    71.90700000    20.19200000
   H     86.55100000    71.66100000    20.94500000
   H     85.93300000    73.31000000    20.68700000
   N     87.43000000    71.31000000    18.60000000
   C     88.24000000    71.17000000    17.41000000
   C     89.58000000    71.89000000    17.50000000
   O     90.65000000    71.29000000    17.48000000
   C     88.30000000    69.67000000    17.11000000
   C     88.86000000    69.36000000    15.73000000
   O     88.91000000    68.19000000    15.30000000
   O     89.17000000    70.34000000    15.01000000
   H     87.62000000    70.61000000    19.30000000
   H     87.74000000    71.62000000    16.55000000
   H     87.25000000    69.40000000    17.08000000
   H     88.82000000    69.11000000    17.89000000
   N     89.61000000    73.19000000    17.80000000
   C     90.71000000    74.03000000    18.21000000
   C     90.29000000    74.74000000    19.49000000
   O     89.10000000    74.95000000    19.71000000
   C     90.96000000    75.02000000    17.08000000
   H     88.73000000    73.69000000    17.78000000
   H     91.60000000    73.41000000    18.37000000
   H     90.04000000    75.54000000    16.86000000
   H     91.78000000    75.68000000    17.39000000
   H     91.20000000    74.46000000    16.17000000
   N     91.23000000    75.21000000    20.31000000
   C     92.67000000    75.08000000    20.24000000
   C     93.24000000    73.74000000    20.71000000
   O     93.04000000    73.35000000    21.86000000
   C     93.39000000    76.22000000    20.95000000
   C     93.01000000    77.65000000    20.61000000
   O     92.62000000    77.85000000    19.44000000
   O     93.16000000    78.58000000    21.43000000
   H     90.78000000    75.79000000    21.00000000
   H     92.98000000    75.20000000    19.20000000
   H     94.44000000    76.02000000    20.73000000
   H     93.29000000    76.16000000    22.04000000
   N     94.20000000    73.21000000    19.95000000
   C     95.06000000    72.09000000    20.27000000
   C     94.30000000    70.77000000    20.33000000
   O     93.47000000    70.45000000    19.48000000
   H     94.28000000    73.58000000    19.01000000
   H     95.53000000    72.29000000    21.23000000
   H     95.76000000    72.04000000    19.44000000
   N     94.49000000    69.88000000    21.30000000
   C     95.53000000    69.90000000    22.31000000
   C     95.11000000    70.71000000    23.53000000
   O     95.85000000    70.54000000    24.50000000
   C     95.93000000    68.46000000    22.61000000
   C     96.38000000    67.59000000    21.44000000
   N     97.62000000    67.11000000    21.45000000
   O     95.68000000    67.25000000    20.49000000
   H     94.06000000    68.98000000    21.12000000
   H     96.40000000    70.41000000    21.90000000
   H     95.13000000    67.97000000    23.18000000
   H     96.81000000    68.51000000    23.25000000
   H     98.29000000    67.30000000    22.18000000
   H     97.85000000    66.32000000    20.86000000
   N     93.95000000    71.37000000    23.59000000
   C     93.24000000    71.87000000    24.76000000
   C     93.89000000    73.14000000    25.28000000
   O     94.21000000    73.20000000    26.46000000
   H     93.45000000    71.43000000    22.72000000
   H     93.33000000    71.08000000    25.51000000
   H     92.20000000    72.00000000    24.47000000
   N     94.17000000    74.08000000    24.37000000
   C     95.06000000    75.21000000    24.52000000
   C     94.23000000    76.48000000    24.64000000
   O     94.75000000    77.56000000    24.34000000
   C     96.12000000    75.21000000    23.43000000
   C     97.45000000    75.88000000    23.75000000
   O     96.51000000    73.88000000    23.16000000
   H     93.94000000    73.87000000    23.40000000
   H     95.46000000    75.20000000    25.54000000
   H     95.60000000    75.66000000    22.58000000
   H     97.43000000    73.89000000    22.88000000
   H     97.85000000    75.43000000    24.66000000
   H     98.20000000    75.78000000    22.96000000
   H     97.26000000    76.94000000    23.93000000
   N     92.91000000    76.51000000    24.81000000
   C     92.08000000    77.70000000    24.86000000
   C     92.37000000    78.72000000    25.96000000
   O     93.10000000    78.47000000    26.91000000
   C     90.61000000    77.34000000    24.70000000
   C     90.45000000    76.70000000    23.32000000
   C     90.10000000    76.56000000    25.92000000
   C     89.05000000    76.71000000    22.71000000
   H     92.55000000    75.65000000    25.18000000
   H     92.38000000    78.23000000    23.96000000
   H     90.09000000    78.30000000    24.72000000
   H     90.83000000    75.68000000    23.38000000
   H     91.02000000    77.22000000    22.56000000
   H     89.02000000    76.64000000    25.94000000
   H     90.37000000    75.53000000    25.69000000
   H     90.64000000    76.93000000    26.79000000
   H     88.82000000    77.74000000    22.43000000
   H     88.97000000    76.08000000    21.83000000
   H     88.36000000    76.27000000    23.43000000
   N     91.72000000    79.88000000    25.79000000
   C     92.00000000    81.11000000    26.50000000
   C     90.70000000    81.65000000    27.09000000
   O     89.77000000    81.81000000    26.31000000
   C     92.79000000    82.14000000    25.70000000
   C     92.84000000    81.96000000    24.19000000
   O     93.49000000    81.03000000    23.66000000
   O     92.15000000    82.72000000    23.48000000
   H     91.10000000    80.01000000    25.01000000
   H     92.70000000    80.90000000    27.31000000
   H     93.81000000    82.07000000    26.06000000
   H     92.40000000    83.13000000    25.92000000
   N     90.69000000    81.99000000    28.38000000
   C     89.64000000    82.82000000    28.94000000
   C     88.24000000    82.39000000    28.52000000
   O     87.93000000    81.22000000    28.72000000
   C     89.77000000    82.93000000    30.45000000
   C     89.15000000    84.23000000    30.91000000
   C     87.77000000    84.25000000    31.10000000
   C     89.91000000    85.39000000    31.15000000
   C     87.06000000    85.37000000    31.57000000
   C     89.22000000    86.56000000    31.50000000
   C     87.84000000    86.52000000    31.72000000
   H     91.48000000    81.67000000    28.92000000
   H     89.85000000    83.83000000    28.60000000
   H     90.77000000    82.86000000    30.90000000
   H     89.18000000    82.15000000    30.93000000
   H     87.23000000    83.33000000    30.95000000
   H     90.97000000    85.49000000    30.99000000
   H     85.99000000    85.32000000    31.69000000
   H     89.77000000    87.45000000    31.75000000
   H     87.34000000    87.40000000    32.10000000
   N     87.41000000    83.26000000    27.94000000
   C     86.02000000    83.01000000    27.65000000
   C     85.76000000    81.87000000    26.67000000
   O     84.63000000    81.38000000    26.65000000
   C     85.55000000    84.28000000    26.95000000
   C     86.79000000    84.88000000    26.28000000
   C     87.88000000    84.46000000    27.26000000
   H     85.49000000    82.88000000    28.59000000
   H     84.76000000    84.19000000    26.20000000
   H     85.34000000    85.10000000    27.63000000
   H     87.00000000    84.42000000    25.32000000
   H     86.78000000    85.97000000    26.26000000
   H     88.82000000    84.25000000    26.75000000
   H     87.92000000    85.19000000    28.07000000
   N     86.77000000    81.27000000    26.03000000
   C     86.45000000    80.12000000    25.22000000
   C     86.17000000    78.90000000    26.09000000
   O     85.32000000    78.09000000    25.73000000
   C     87.67000000    79.77000000    24.37000000
   C     88.14000000    80.85000000    23.39000000
   C     89.40000000    80.46000000    22.64000000
   O     90.49000000    80.31000000    23.23000000
   O     89.39000000    80.43000000    21.39000000
   H     87.73000000    81.55000000    26.12000000
   H     85.65000000    80.35000000    24.51000000
   H     87.45000000    78.82000000    23.88000000
   H     88.45000000    79.67000000    25.13000000
   H     88.35000000    81.75000000    23.97000000
   H     87.38000000    81.14000000    22.66000000
   N     86.85000000    78.80000000    27.24000000
   C     86.66000000    77.68000000    28.13000000
   H     85.63800000    77.31200000    28.03700000
   H     87.35700000    76.88400000    27.86700000
   H     86.84000000    77.99700000    29.15700000
   H     87.40000000    79.59000000    27.57000000
  Ca     92.24000000    80.95000000    21.54000000
   O     91.04000000    83.09000000    20.60000000
   H     90.33000000    83.63000000    20.96000000
   H     91.45000000    83.65000000    19.94000000
   O     92.53000000    80.42000000    19.08000000
   H     92.73000000    79.51000000    18.85000000
   H     92.64000000    80.90000000    18.27000000

Ca 1.70



