%chk=CaMKII_loop3_95.0.chk
%nprocshared=48
%mem=10GB
%nosave
#b3lyp/svp scf=(tight,noincore) Test 
#IOP(5/87=12) Density=Current Pop=(MK,readradii) iop(6/33=2) iop(6/42=6)

CaMKII_loop3_95.0 

   0   1
   C     62.50000000    44.89000000    40.74000000
   C     61.86000000    44.53000000    42.08000000
   O     62.20000000    43.47000000    42.59000000
   H     63.51300000    44.49100000    40.70300000
   H     61.91100000    44.46100000    39.92900000
   H     62.53300000    45.97400000    40.63200000
   N     60.81000000    45.21000000    42.54000000
   C     60.19000000    44.79000000    43.78000000
   C     59.21000000    43.65000000    43.53000000
   O     58.13000000    43.85000000    42.98000000
   C     59.54000000    46.04000000    44.37000000
   C     58.84000000    45.66000000    45.66000000
   O     57.95000000    46.39000000    46.15000000
   O     59.17000000    44.61000000    46.26000000
   H     60.53000000    46.11000000    42.18000000
   H     60.98000000    44.57000000    44.50000000
   H     58.80000000    46.48000000    43.70000000
   H     60.34000000    46.75000000    44.54000000
   N     59.44000000    42.42000000    43.99000000
   C     58.89000000    41.12000000    43.62000000
   C     57.68000000    40.66000000    44.43000000
   O     56.88000000    39.84000000    44.00000000
   C     59.91000000    39.99000000    43.55000000
   C     61.08000000    40.31000000    42.63000000
   C     60.71000000    40.55000000    41.17000000
   C     61.86000000    40.54000000    40.17000000
   N     61.45000000    40.84000000    38.79000000
   H     60.28000000    42.43000000    44.55000000
   H     58.59000000    41.16000000    42.58000000
   H     59.42000000    39.05000000    43.31000000
   H     60.34000000    39.87000000    44.55000000
   H     61.79000000    39.48000000    42.63000000
   H     61.78000000    40.99000000    43.12000000
   H     60.28000000    41.55000000    41.11000000
   H     59.98000000    39.79000000    40.86000000
   H     62.38000000    39.58000000    40.17000000
   H     62.64000000    41.20000000    40.53000000
   H     62.18000000    40.76000000    38.09000000
   H     60.74000000    40.21000000    38.44000000
   H     61.28000000    41.83000000    38.72000000
   N     57.33000000    41.33000000    45.53000000
   C     56.21000000    41.01000000    46.39000000
   C     55.40000000    42.25000000    46.75000000
   O     54.39000000    42.07000000    47.43000000
   C     56.71000000    40.31000000    47.65000000
   C     57.63000000    41.12000000    48.56000000
   O     57.98000000    40.65000000    49.66000000
   O     58.20000000    42.16000000    48.18000000
   H     57.95000000    42.11000000    45.67000000
   H     55.49000000    40.39000000    45.87000000
   H     57.35000000    39.50000000    47.30000000
   H     55.82000000    39.95000000    48.16000000
   N     55.84000000    43.41000000    46.25000000
   C     55.14000000    44.68000000    46.25000000
   C     55.15000000    45.38000000    47.60000000
   O     54.42000000    46.33000000    47.85000000
   H     56.77000000    43.46000000    45.85000000
   H     54.12000000    44.56000000    45.88000000
   H     55.69000000    45.31000000    45.55000000
   N     55.98000000    44.88000000    48.51000000
   C     56.16000000    45.38000000    49.86000000
   C     56.75000000    46.78000000    49.88000000
   O     56.54000000    47.49000000    50.86000000
   C     56.96000000    44.34000000    50.65000000
   C     58.41000000    44.77000000    50.74000000
   N     59.07000000    44.81000000    51.90000000
   O     59.07000000    45.08000000    49.75000000
   H     56.44000000    43.99000000    48.33000000
   H     55.20000000    45.38000000    50.38000000
   H     56.93000000    43.38000000    50.14000000
   H     56.57000000    44.25000000    51.66000000
   H     58.48000000    44.71000000    52.71000000
   H     60.03000000    45.13000000    51.95000000
   N     57.31000000    47.23000000    48.76000000
   C     57.79000000    48.59000000    48.58000000
   C     59.30000000    48.79000000    48.61000000
   O     59.66000000    49.95000000    48.37000000
   H     57.19000000    46.66000000    47.93000000
   H     57.51000000    49.15000000    49.47000000
   H     57.33000000    49.07000000    47.72000000
   N     60.13000000    47.75000000    48.70000000
   C     61.56000000    47.92000000    48.49000000
   C     62.20000000    46.65000000    47.96000000
   O     61.60000000    45.58000000    47.89000000
   C     62.34000000    48.44000000    49.69000000
   C     62.19000000    47.52000000    50.88000000
   C     61.44000000    47.98000000    51.97000000
   C     62.85000000    46.29000000    50.96000000
   C     61.21000000    47.15000000    53.08000000
   C     62.73000000    45.50000000    52.11000000
   C     61.91000000    45.93000000    53.17000000
   O     61.59000000    45.04000000    54.15000000
   H     59.81000000    46.84000000    48.97000000
   H     61.69000000    48.67000000    47.71000000
   H     61.97000000    49.45000000    49.90000000
   H     63.41000000    48.60000000    49.59000000
   H     60.83000000    48.87000000    51.89000000
   H     63.54000000    45.96000000    50.20000000
   H     60.44000000    47.35000000    53.80000000
   H     63.20000000    44.53000000    52.13000000
   H     62.29000000    44.39000000    54.27000000
   N     63.41000000    46.90000000    47.43000000
   C     64.13000000    45.98000000    46.57000000
   C     65.32000000    45.45000000    47.35000000
   O     66.11000000    46.21000000    47.90000000
   C     64.60000000    46.69000000    45.31000000
   C     63.59000000    47.62000000    44.65000000
   C     65.17000000    45.66000000    44.34000000
   C     64.24000000    48.70000000    43.79000000
   H     63.74000000    47.85000000    47.44000000
   H     63.56000000    45.12000000    46.22000000
   H     65.46000000    47.31000000    45.59000000
   H     62.98000000    48.12000000    45.40000000
   H     62.81000000    47.08000000    44.11000000
   H     66.10000000    45.24000000    44.73000000
   H     64.38000000    44.95000000    44.08000000
   H     65.53000000    46.17000000    43.45000000
   H     64.80000000    48.20000000    43.00000000
   H     63.53000000    49.44000000    43.43000000
   H     64.88000000    49.27000000    44.48000000
   N     65.42000000    44.12000000    47.37000000
   C     66.42000000    43.43000000    48.16000000
   C     67.40000000    42.67000000    47.29000000
   O     67.21000000    42.56000000    46.08000000
   C     65.72000000    42.60000000    49.23000000
   O     65.17000000    41.47000000    48.59000000
   H     64.87000000    43.52000000    46.76000000
   H     67.03000000    44.10000000    48.76000000
   H     64.84000000    43.15000000    49.57000000
   H     66.35000000    42.36000000    50.09000000
   H     64.36000000    41.82000000    48.22000000
   N     68.52000000    42.21000000    47.85000000
   C     69.53000000    41.46000000    47.14000000
   C     69.03000000    40.22000000    46.40000000
   O     69.38000000    40.02000000    45.24000000
   C     70.64000000    41.09000000    48.11000000
   H     68.67000000    42.32000000    48.84000000
   H     69.94000000    42.08000000    46.34000000
   H     71.26000000    40.31000000    47.67000000
   H     71.22000000    41.98000000    48.36000000
   H     70.14000000    40.74000000    49.01000000
   N     68.16000000    39.47000000    47.08000000
   C     67.39000000    38.39000000    46.49000000
   C     66.57000000    38.79000000    45.28000000
   O     66.45000000    38.00000000    44.34000000
   C     66.42000000    38.05000000    47.63000000
   H     67.91000000    39.71000000    48.03000000
   H     68.02000000    37.53000000    46.28000000
   H     66.03000000    38.94000000    48.11000000
   H     65.68000000    37.39000000    47.19000000
   H     66.93000000    37.40000000    48.34000000
   N     66.07000000    40.03000000    45.23000000
   C     65.27000000    40.45000000    44.10000000
   C     66.12000000    41.02000000    42.98000000
   O     65.77000000    40.88000000    41.81000000
   C     64.28000000    41.54000000    44.50000000
   C     63.29000000    41.02000000    45.54000000
   C     62.52000000    42.16000000    46.20000000
   O     61.40000000    42.60000000    45.85000000
   O     63.00000000    42.61000000    47.26000000
   H     66.09000000    40.62000000    46.05000000
   H     64.65000000    39.63000000    43.73000000
   H     63.72000000    41.71000000    43.58000000
   H     64.85000000    42.41000000    44.83000000
   H     63.83000000    40.57000000    46.37000000
   H     62.68000000    40.28000000    45.01000000
   N     67.26000000    41.64000000    43.26000000
   C     68.24000000    42.13000000    42.31000000
   H     69.17300000    41.58200000    42.43600000
   H     67.86800000    41.98400000    41.29600000
   H     68.41600000    43.19100000    42.48400000
   H     67.46000000    41.72000000    44.25000000
  Ca     60.45000000    43.30000000    48.06000000
   O     60.82000000    41.99000000    50.45000000
   H     61.39000000    41.22000000    50.50000000
   H     60.15000000    41.83000000    51.12000000

Ca 1.70



