%chk=CaMKII_loop3_66.0.chk
%nprocshared=48
%mem=10GB
%nosave
#b3lyp/svp scf=(tight,noincore) Test 
#IOP(5/87=12) Density=Current Pop=(MK,readradii) iop(6/33=2) iop(6/42=6)

CaMKII_loop3_66.0 

   0   1
   C     77.62000000    54.48000000    16.69000000
   C     77.56000000    53.17000000    15.91000000
   O     78.57000000    52.76000000    15.34000000
   H     78.08200000    55.25000000    16.07100000
   H     76.61000000    54.78900000    16.96000000
   H     78.21200000    54.33800000    17.59400000
   N     76.44000000    52.45000000    15.92000000
   C     76.27000000    51.28000000    15.07000000
   C     76.04000000    51.70000000    13.62000000
   O     75.02000000    52.25000000    13.22000000
   C     75.13000000    50.45000000    15.64000000
   C     74.70000000    49.23000000    14.84000000
   O     73.69000000    48.61000000    15.25000000
   O     75.42000000    48.70000000    13.96000000
   H     75.73000000    52.73000000    16.58000000
   H     77.21000000    50.74000000    15.11000000
   H     74.32000000    51.18000000    15.65000000
   H     75.15000000    50.25000000    16.72000000
   N     77.01000000    51.35000000    12.77000000
   C     77.10000000    51.73000000    11.37000000
   C     76.03000000    51.15000000    10.46000000
   O     75.52000000    51.87000000     9.60000000
   C     78.52000000    51.41000000    10.92000000
   C     78.87000000    52.23000000     9.68000000
   C     80.30000000    52.03000000     9.21000000
   C     80.75000000    52.64000000     7.88000000
   N     79.89000000    52.34000000     6.73000000
   H     77.79000000    50.87000000    13.18000000
   H     76.91000000    52.80000000    11.32000000
   H     78.60000000    50.34000000    10.72000000
   H     79.10000000    51.69000000    11.79000000
   H     78.80000000    53.27000000     9.99000000
   H     78.13000000    52.07000000     8.90000000
   H     80.43000000    50.96000000     9.08000000
   H     80.98000000    52.40000000     9.98000000
   H     81.79000000    52.43000000     7.63000000
   H     80.82000000    53.72000000     8.00000000
   H     79.83000000    51.33000000     6.63000000
   H     78.94000000    52.63000000     6.85000000
   H     80.34000000    52.81000000     5.96000000
   N     75.59000000    49.93000000    10.79000000
   C     74.74000000    49.08000000     9.97000000
   C     73.39000000    48.76000000    10.59000000
   O     72.51000000    48.16000000     9.98000000
   C     75.56000000    47.81000000     9.76000000
   C     76.22000000    47.26000000    11.01000000
   O     77.32000000    47.76000000    11.33000000
   O     75.72000000    46.28000000    11.62000000
   H     75.97000000    49.58000000    11.65000000
   H     74.73000000    49.51000000     8.97000000
   H     76.37000000    48.07000000     9.07000000
   H     75.03000000    46.98000000     9.30000000
   N     73.15000000    49.19000000    11.84000000
   C     71.90000000    48.94000000    12.53000000
   C     71.68000000    47.55000000    13.10000000
   O     70.50000000    47.23000000    13.19000000
   H     73.83000000    49.81000000    12.23000000
   H     71.00000000    49.13000000    11.93000000
   H     71.87000000    49.60000000    13.40000000
   N     72.63000000    46.65000000    13.38000000
   C     72.50000000    45.27000000    13.80000000
   C     72.34000000    45.04000000    15.29000000
   O     72.05000000    43.89000000    15.64000000
   C     73.67000000    44.46000000    13.23000000
   C     74.94000000    44.62000000    14.05000000
   N     75.53000000    43.53000000    14.54000000
   O     75.36000000    45.72000000    14.41000000
   H     73.58000000    46.98000000    13.36000000
   H     71.60000000    44.88000000    13.31000000
   H     73.85000000    44.76000000    12.20000000
   H     73.49000000    43.40000000    13.12000000
   H     75.26000000    42.58000000    14.31000000
   H     76.42000000    43.48000000    15.00000000
   N     72.64000000    46.08000000    16.07000000
   C     72.57000000    46.05000000    17.51000000
   C     73.88000000    45.90000000    18.28000000
   O     73.89000000    45.64000000    19.48000000
   H     72.84000000    46.98000000    15.66000000
   H     71.90000000    45.23000000    17.75000000
   H     72.17000000    47.01000000    17.85000000
   N     74.99000000    46.10000000    17.57000000
   C     76.36000000    46.12000000    18.05000000
   C     77.28000000    47.26000000    17.61000000
   O     77.21000000    47.79000000    16.51000000
   C     76.87000000    44.72000000    17.70000000
   C     76.16000000    43.63000000    18.47000000
   C     76.67000000    43.31000000    19.73000000
   C     75.07000000    42.92000000    17.97000000
   C     76.00000000    42.43000000    20.59000000
   C     74.35000000    42.04000000    18.78000000
   C     74.87000000    41.77000000    20.06000000
   O     74.14000000    40.97000000    20.89000000
   H     74.93000000    46.27000000    16.58000000
   H     76.29000000    46.16000000    19.14000000
   H     77.94000000    44.83000000    17.88000000
   H     76.76000000    44.48000000    16.64000000
   H     77.59000000    43.79000000    20.02000000
   H     74.65000000    43.17000000    17.00000000
   H     76.39000000    42.09000000    21.54000000
   H     73.37000000    41.66000000    18.53000000
   H     73.51000000    40.46000000    20.37000000
   N     78.25000000    47.58000000    18.46000000
   C     79.27000000    48.59000000    18.24000000
   C     80.61000000    47.93000000    18.49000000
   O     80.86000000    47.29000000    19.51000000
   C     79.07000000    49.75000000    19.21000000
   C     77.79000000    50.52000000    18.89000000
   C     80.27000000    50.68000000    19.35000000
   C     77.31000000    51.48000000    19.97000000
   H     78.12000000    47.26000000    19.41000000
   H     79.17000000    49.07000000    17.26000000
   H     79.04000000    49.23000000    20.17000000
   H     76.95000000    49.84000000    18.75000000
   H     77.77000000    51.05000000    17.94000000
   H     81.15000000    50.09000000    19.60000000
   H     80.45000000    51.13000000    18.37000000
   H     79.97000000    51.37000000    20.13000000
   H     78.03000000    52.29000000    20.09000000
   H     76.43000000    51.97000000    19.55000000
   H     77.23000000    51.03000000    20.96000000
   N     81.51000000    48.19000000    17.54000000
   C     82.92000000    47.86000000    17.56000000
   C     83.87000000    49.05000000    17.65000000
   O     83.39000000    50.18000000    17.73000000
   C     83.23000000    47.04000000    16.31000000
   O     83.16000000    47.76000000    15.09000000
   H     81.14000000    48.70000000    16.75000000
   H     83.18000000    47.24000000    18.41000000
   H     82.56000000    46.19000000    16.37000000
   H     84.23000000    46.61000000    16.33000000
   H     83.23000000    47.08000000    14.42000000
   N     85.17000000    48.81000000    17.79000000
   C     86.13000000    49.90000000    17.89000000
   C     86.29000000    50.50000000    16.50000000
   O     86.42000000    51.71000000    16.38000000
   C     87.47000000    49.31000000    18.29000000
   H     85.48000000    47.85000000    17.85000000
   H     85.85000000    50.58000000    18.69000000
   H     87.52000000    48.54000000    19.06000000
   H     87.88000000    48.61000000    17.56000000
   H     88.19000000    50.13000000    18.37000000
   N     86.09000000    49.75000000    15.41000000
   C     86.06000000    50.10000000    14.01000000
   C     84.89000000    51.01000000    13.64000000
   O     84.96000000    52.02000000    12.94000000
   C     86.05000000    48.80000000    13.21000000
   H     85.99000000    48.77000000    15.65000000
   H     87.01000000    50.58000000    13.76000000
   H     85.26000000    48.09000000    13.45000000
   H     85.98000000    49.06000000    12.16000000
   H     86.97000000    48.24000000    13.34000000
   N     83.69000000    50.71000000    14.14000000
   C     82.54000000    51.58000000    13.95000000
   C     82.52000000    52.85000000    14.78000000
   O     82.05000000    53.89000000    14.31000000
   C     81.25000000    50.78000000    14.13000000
   C     81.00000000    49.85000000    12.95000000
   C     79.78000000    48.94000000    13.11000000
   O     79.78000000    47.77000000    12.69000000
   O     78.79000000    49.38000000    13.73000000
   H     83.56000000    49.94000000    14.79000000
   H     82.57000000    51.82000000    12.89000000
   H     80.51000000    51.57000000    14.18000000
   H     81.46000000    50.23000000    15.05000000
   H     81.92000000    49.30000000    12.77000000
   H     80.78000000    50.53000000    12.13000000
   N     83.06000000    52.84000000    16.00000000
   C     83.42000000    54.00000000    16.80000000
   H     84.30500000    54.47300000    16.37500000
   H     82.59400000    54.71100000    16.80200000
   H     83.63200000    53.68600000    17.82200000
   H     83.31000000    51.95000000    16.41000000
  Ca     77.44000000    47.22000000    13.80000000
   O     78.10000000    44.59000000    13.50000000
   H     78.90000000    44.29000000    13.92000000
   H     77.76000000    43.82000000    13.05000000

Ca 1.70



