%chk=CaMKII_loop3_71.0.chk
%nprocshared=48
%mem=10GB
%nosave
#b3lyp/svp scf=(tight,noincore) Test 
#IOP(5/87=12) Density=Current Pop=(MK,readradii) iop(6/33=2) iop(6/42=6)

CaMKII_loop3_71.0 

   0   1
   C     75.42000000    43.72000000    21.87000000
   C     74.19000000    42.89000000    22.18000000
   O     74.12000000    41.67000000    22.03000000
   H     76.24600000    43.06000000    21.60700000
   H     75.20800000    44.38600000    21.03400000
   H     75.69100000    44.31000000    22.74600000
   N     73.16000000    43.65000000    22.57000000
   C     71.94000000    43.05000000    23.07000000
   C     71.07000000    42.75000000    21.86000000
   O     70.05000000    43.41000000    21.64000000
   C     71.30000000    43.92000000    24.15000000
   C     70.14000000    43.21000000    24.83000000
   O     69.99000000    41.99000000    24.60000000
   O     69.38000000    43.90000000    25.55000000
   H     73.21000000    44.66000000    22.53000000
   H     72.16000000    42.14000000    23.61000000
   H     70.93000000    44.83000000    23.68000000
   H     71.98000000    44.27000000    24.93000000
   N     71.51000000    41.87000000    20.95000000
   C     70.91000000    41.61000000    19.65000000
   C     69.47000000    41.12000000    19.66000000
   O     68.74000000    41.40000000    18.72000000
   C     71.81000000    40.70000000    18.82000000
   C     71.71000000    41.08000000    17.35000000
   C     72.49000000    39.98000000    16.62000000
   C     72.57000000    40.22000000    15.12000000
   N     71.99000000    39.09000000    14.37000000
   H     72.41000000    41.48000000    21.19000000
   H     70.89000000    42.54000000    19.08000000
   H     71.57000000    39.65000000    18.99000000
   H     72.86000000    40.84000000    19.07000000
   H     72.17000000    42.05000000    17.15000000
   H     70.68000000    41.15000000    17.00000000
   H     72.02000000    39.05000000    16.93000000
   H     73.51000000    40.02000000    17.00000000
   H     73.55000000    40.56000000    14.78000000
   H     71.95000000    41.07000000    14.86000000
   H     72.08000000    39.12000000    13.37000000
   H     72.30000000    38.24000000    14.82000000
   H     70.98000000    39.12000000    14.47000000
   N     68.99000000    40.52000000    20.76000000
   C     67.65000000    40.07000000    21.04000000
   C     66.98000000    41.02000000    22.03000000
   O     65.79000000    40.91000000    22.30000000
   C     67.68000000    38.66000000    21.62000000
   C     68.53000000    38.55000000    22.87000000
   O     69.35000000    37.61000000    22.99000000
   O     68.29000000    39.26000000    23.88000000
   H     69.71000000    40.37000000    21.45000000
   H     66.97000000    40.12000000    20.19000000
   H     68.16000000    37.98000000    20.91000000
   H     66.64000000    38.36000000    21.72000000
   N     67.68000000    42.05000000    22.51000000
   C     67.00000000    43.25000000    22.97000000
   C     66.37000000    43.32000000    24.36000000
   O     65.74000000    44.28000000    24.80000000
   H     68.68000000    42.08000000    22.41000000
   H     66.29000000    43.59000000    22.22000000
   H     67.76000000    44.01000000    23.15000000
   N     66.49000000    42.28000000    25.19000000
   C     65.76000000    42.00000000    26.41000000
   C     66.15000000    42.98000000    27.51000000
   O     65.51000000    43.00000000    28.56000000
   C     65.92000000    40.53000000    26.78000000
   C     67.19000000    40.39000000    27.60000000
   N     67.17000000    39.92000000    28.85000000
   O     68.27000000    40.61000000    27.05000000
   H     67.23000000    41.62000000    24.98000000
   H     64.73000000    42.24000000    26.17000000
   H     66.05000000    39.85000000    25.94000000
   H     65.02000000    40.20000000    27.31000000
   H     66.34000000    39.59000000    29.31000000
   H     68.08000000    39.77000000    29.26000000
   N     67.09000000    43.90000000    27.27000000
   C     67.63000000    44.96000000    28.09000000
   C     68.95000000    44.55000000    28.73000000
   O     69.32000000    45.17000000    29.72000000
   H     67.65000000    43.65000000    26.47000000
   H     66.94000000    45.21000000    28.90000000
   H     67.88000000    45.90000000    27.60000000
   N     69.54000000    43.40000000    28.36000000
   C     70.69000000    42.85000000    29.05000000
   C     71.70000000    42.19000000    28.13000000
   O     71.36000000    41.25000000    27.42000000
   C     70.28000000    41.81000000    30.10000000
   C     69.33000000    42.35000000    31.14000000
   C     69.75000000    42.74000000    32.42000000
   C     67.98000000    42.49000000    30.80000000
   C     68.80000000    43.26000000    33.30000000
   C     67.03000000    43.13000000    31.61000000
   C     67.46000000    43.48000000    32.91000000
   O     66.56000000    44.13000000    33.70000000
   H     69.30000000    43.05000000    27.45000000
   H     71.26000000    43.68000000    29.47000000
   H     71.14000000    41.52000000    30.71000000
   H     69.82000000    40.93000000    29.66000000
   H     70.80000000    42.67000000    32.69000000
   H     67.73000000    42.26000000    29.78000000
   H     69.11000000    43.51000000    34.30000000
   H     65.98000000    43.15000000    31.36000000
   H     65.74000000    44.37000000    33.25000000
   N     72.96000000    42.62000000    28.19000000
   C     74.06000000    41.97000000    27.50000000
   C     74.50000000    40.74000000    28.27000000
   O     74.83000000    40.88000000    29.44000000
   C     75.24000000    42.86000000    27.13000000
   C     74.77000000    44.10000000    26.36000000
   C     76.33000000    42.12000000    26.37000000
   C     75.91000000    45.12000000    26.42000000
   H     73.17000000    43.33000000    28.88000000
   H     73.66000000    41.70000000    26.52000000
   H     75.68000000    43.18000000    28.07000000
   H     73.88000000    44.56000000    26.78000000
   H     74.59000000    43.91000000    25.30000000
   H     76.84000000    41.34000000    26.95000000
   H     75.88000000    41.68000000    25.48000000
   H     77.12000000    42.80000000    26.05000000
   H     76.12000000    45.32000000    27.47000000
   H     76.83000000    44.81000000    25.93000000
   H     75.60000000    46.05000000    25.95000000
   N     74.66000000    39.58000000    27.61000000
   C     75.22000000    38.40000000    28.22000000
   C     76.67000000    38.18000000    27.80000000
   O     77.12000000    38.71000000    26.78000000
   C     74.41000000    37.18000000    27.80000000
   O     74.44000000    36.99000000    26.40000000
   H     74.22000000    39.63000000    26.70000000
   H     75.20000000    38.42000000    29.31000000
   H     73.38000000    37.28000000    28.15000000
   H     74.78000000    36.27000000    28.27000000
   H     73.92000000    37.75000000    26.12000000
   N     77.44000000    37.42000000    28.58000000
   C     78.70000000    36.88000000    28.12000000
   C     78.76000000    36.35000000    26.70000000
   O     79.66000000    36.72000000    25.95000000
   C     79.24000000    35.84000000    29.10000000
   H     76.99000000    36.89000000    29.32000000
   H     79.45000000    37.67000000    28.18000000
   H     79.09000000    36.19000000    30.12000000
   H     78.71000000    34.89000000    29.11000000
   H     80.29000000    35.72000000    28.81000000
   N     77.80000000    35.54000000    26.27000000
   C     77.66000000    35.10000000    24.89000000
   C     77.46000000    36.21000000    23.87000000
   O     78.01000000    36.17000000    22.77000000
   C     76.50000000    34.12000000    24.86000000
   H     77.17000000    35.18000000    26.97000000
   H     78.61000000    34.69000000    24.54000000
   H     75.56000000    34.66000000    25.00000000
   H     76.56000000    33.55000000    23.94000000
   H     76.61000000    33.35000000    25.62000000
   N     76.69000000    37.25000000    24.19000000
   C     76.45000000    38.39000000    23.33000000
   C     77.77000000    39.13000000    23.17000000
   O     78.09000000    39.65000000    22.10000000
   C     75.32000000    39.21000000    23.96000000
   C     74.01000000    38.57000000    23.52000000
   C     72.83000000    39.23000000    24.21000000
   O     72.90000000    39.43000000    25.45000000
   O     71.88000000    39.65000000    23.52000000
   H     76.17000000    37.29000000    25.06000000
   H     76.15000000    38.04000000    22.35000000
   H     75.37000000    40.25000000    23.64000000
   H     75.47000000    39.08000000    25.03000000
   H     73.97000000    37.50000000    23.74000000
   H     73.92000000    38.66000000    22.44000000
   N     78.55000000    39.32000000    24.24000000
   C     79.79000000    40.06000000    24.12000000
   H     80.56600000    39.40500000    23.72400000
   H     79.64700000    40.90300000    23.44400000
   H     80.09100000    40.42800000    25.10100000
   H     78.15000000    39.04000000    25.12000000
  Ca     70.27000000    39.62000000    25.61000000
   O     70.73000000    38.24000000    27.70000000
   H     71.11000000    38.49000000    28.55000000
   H     70.74000000    37.28000000    27.71000000

Ca 1.70



