%Nproc=40
%chk=holo5.chk
%mem=80GB
%NoSave
#maxdisk=300GB
#MP2(semidirect)/Gen scf=(tight,noincore) Test maxdisk=550GB
#IOP(5/87=12) Density=Current Pop=(MK,readradii) iop(6/33=2) iop(6/42=6)

holo_loop_3_model_5 

   0   1
   C     22.89100000    31.08000000    35.48100000
   C     24.02500000    32.10000000    35.44300000
   C     23.49200000    33.49200000    35.13400000
   O     22.31600000    33.84600000    35.09400000
   O     24.52900000    34.37200000    35.02300000
   H     23.29100000    30.10900000    35.77300000
   H     22.43600000    31.00800000    34.49300000
   H     22.13800000    31.39000000    36.20500000
   H     24.74900000    31.76900000    34.69900000
   H     24.57000000    31.95500000    36.37600000
   H     25.31600000    33.82400000    34.99700000
   C     18.77800000    33.79400000    32.46900000
   C     17.83400000    34.56000000    33.39200000
   C     18.41200000    34.82600000    34.77500000
   O     17.67900000    34.62500000    35.76700000
   O     19.61300000    35.17100000    34.77600000
   H     19.18000000    32.92300000    32.98700000
   H     19.60500000    34.43800000    32.17100000
   H     18.22100000    33.47900000    31.58700000
   H     16.93500000    33.96000000    33.52600000
   H     17.76700000    35.54800000    32.93600000
   C     21.63500000    38.19400000    34.57200000
   C     20.33400000    38.27500000    35.36600000
   C     20.27700000    37.52800000    36.69100000
   N     19.46400000    38.11100000    37.57500000
   O     20.83400000    36.50200000    37.07600000
   H     21.65000000    37.25000000    34.02700000
   H     22.47800000    38.25000000    35.26100000
   H     21.70600000    39.01100000    33.85400000
   H     19.50200000    38.01100000    34.71300000
   H     20.20700000    39.31900000    35.65000000
  HD     18.90600000    38.88200000    37.23700000
  HD     19.64400000    38.00400000    38.56300000
   C     23.52800000    35.59200000    39.29200000
   C     22.57100000    36.53200000    40.01900000
   C     23.09900000    37.86400000    40.49500000
   C     22.91700000    39.01000000    39.71100000
   C     23.81200000    37.99500000    41.69300000
   C     23.42800000    40.23600000    40.15600000
   C     24.22200000    39.23100000    42.20700000
   C     24.18800000    40.33900000    41.33800000
   O     24.70800000    41.54700000    41.70000000
   H     23.76700000    36.00800000    38.31300000
   H     23.05600000    34.61700000    39.17000000
   H     24.44600000    35.48100000    39.87000000
   H     22.23500000    36.05700000    40.94100000
   H     21.72100000    36.57900000    39.33800000
   H     22.47000000    38.89600000    38.73400000
   H     23.87300000    37.09900000    42.29200000
   H     23.42700000    41.10600000    39.51700000
   H     24.92700000    39.25500000    43.02500000
   H     25.15600000    41.59500000    42.54800000
   C     18.90000000    31.85600000    42.07600000
   C     17.94400000    32.98500000    41.70000000
   O     17.43000000    32.64100000    40.43400000
   H     19.77900000    31.86900000    41.43200000
   H     18.40400000    30.89300000    41.95600000
   H     19.18700000    32.00000000    43.11800000
   H     18.52100000    33.91000000    41.69100000
   H     17.12200000    33.08100000    42.41000000
   H     18.18800000    32.45400000    39.87500000
   C     17.04800000    28.08900000    38.31600000
   C     18.23900000    28.92000000    37.84800000
   C     17.82000000    30.26200000    37.25600000
   C     18.90800000    31.32600000    37.27600000
   O     19.46800000    31.61200000    36.19600000
   O     19.03300000    31.84000000    38.40900000
   H     16.44100000    28.58500000    39.07300000
   H     17.37400000    27.15800000    38.78000000
   H     16.51400000    27.90100000    37.38500000
   H     18.82300000    28.34700000    37.12700000
   H     18.83700000    29.10300000    38.74000000
   H     17.03500000    30.74800000    37.83700000
   H     17.54900000    30.10700000    36.21200000
  Ca     20.02400000    34.01500000    37.09200000
   O     19.05100000    35.37800000    39.20200000
   H     19.38200000    35.63000000    40.06400000
   H     18.19500000    35.80100000    39.14100000

C O H 0
aug-cc-pVTZ 
****
@/project/cheung/pzhang5/SPQM_Ca/1node/ca_ccpvtz_basisset.gbs/N

Ca 1.70




