%chk=holoCaM_loop3_53.0.chk
%nprocshared=48
%mem=10GB
%nosave
#b3lyp/svp scf=(tight,noincore) Test 
#IOP(5/87=12) Density=Current Pop=(MK,readradii) iop(6/33=2) iop(6/42=6)

holoCaM_loop3_53.0 

   0   1
   C     60.14000000    49.51000000    27.34000000
   C     61.11000000    48.36000000    27.52000000
   O     60.99000000    47.55000000    28.45000000
   H     59.23000000    49.30900000    27.90600000
   H     60.59700000    50.43100000    27.70200000
   H     59.89400000    49.61600000    26.28400000
   N     62.21000000    48.31000000    26.76000000
   C     63.40000000    47.61000000    27.18000000
   C     64.01000000    48.29000000    28.40000000
   O     64.16000000    49.51000000    28.41000000
   C     64.43000000    47.44000000    26.07000000
   C     65.74000000    46.76000000    26.44000000
   O     65.89000000    45.55000000    26.18000000
   O     66.68000000    47.38000000    27.00000000
   H     62.30000000    48.99000000    26.02000000
   H     63.05000000    46.61000000    27.43000000
   H     64.60000000    48.40000000    25.59000000
   H     63.94000000    46.83000000    25.30000000
   N     64.34000000    47.49000000    29.42000000
   C     64.63000000    47.87000000    30.78000000
   C     66.03000000    47.50000000    31.28000000
   O     66.41000000    48.07000000    32.30000000
   C     63.52000000    47.32000000    31.67000000
   C     62.13000000    47.94000000    31.59000000
   C     62.00000000    49.44000000    31.36000000
   C     60.58000000    49.97000000    31.52000000
   N     60.44000000    51.39000000    31.15000000
   H     64.18000000    46.50000000    29.30000000
   H     64.63000000    48.95000000    30.84000000
   H     63.82000000    47.45000000    32.71000000
   H     63.31000000    46.25000000    31.62000000
   H     61.51000000    47.59000000    32.42000000
   H     61.62000000    47.50000000    30.73000000
   H     62.26000000    49.62000000    30.32000000
   H     62.71000000    49.84000000    32.08000000
   H     60.30000000    49.88000000    32.57000000
   H     59.82000000    49.33000000    31.08000000
   H     59.47000000    51.67000000    31.06000000
   H     60.82000000    52.06000000    31.81000000
   H     60.93000000    51.52000000    30.28000000
   N     66.81000000    46.63000000    30.63000000
   C     68.09000000    46.13000000    31.07000000
   C     69.25000000    46.46000000    30.13000000
   O     70.41000000    46.23000000    30.45000000
   C     67.98000000    44.64000000    31.38000000
   C     67.53000000    43.71000000    30.27000000
   O     67.35000000    44.11000000    29.10000000
   O     67.47000000    42.47000000    30.41000000
   H     66.50000000    46.16000000    29.79000000
   H     68.23000000    46.58000000    32.05000000
   H     67.23000000    44.57000000    32.17000000
   H     68.96000000    44.26000000    31.67000000
   N     69.06000000    47.11000000    28.98000000
   C     70.05000000    47.59000000    28.03000000
   C     70.60000000    46.67000000    26.95000000
   O     71.53000000    46.94000000    26.20000000
   H     68.14000000    47.30000000    28.61000000
   H     70.94000000    47.94000000    28.56000000
   H     69.63000000    48.45000000    27.52000000
   N     69.90000000    45.54000000    26.80000000
   C     70.25000000    44.56000000    25.79000000
   C     69.74000000    44.86000000    24.38000000
   O     70.39000000    44.36000000    23.46000000
   C     69.96000000    43.16000000    26.31000000
   C     68.79000000    42.43000000    25.66000000
   N     68.96000000    41.23000000    25.11000000
   O     67.73000000    43.01000000    25.45000000
   H     69.03000000    45.43000000    27.29000000
   H     71.34000000    44.68000000    25.73000000
   H     69.78000000    43.06000000    27.38000000
   H     70.87000000    42.56000000    26.21000000
   H     69.80000000    40.72000000    25.31000000
   H     68.18000000    40.68000000    24.77000000
   N     68.69000000    45.66000000    24.24000000
   C     68.28000000    46.18000000    22.95000000
   C     67.20000000    45.33000000    22.29000000
   O     67.02000000    45.43000000    21.08000000
   H     68.30000000    46.04000000    25.09000000
   H     69.15000000    46.20000000    22.29000000
   H     67.84000000    47.14000000    23.23000000
   N     66.55000000    44.43000000    23.02000000
   C     65.55000000    43.53000000    22.51000000
   C     64.39000000    43.45000000    23.50000000
   O     64.62000000    43.42000000    24.70000000
   C     66.21000000    42.17000000    22.29000000
   C     67.21000000    42.21000000    21.16000000
   C     68.57000000    42.42000000    21.42000000
   C     66.75000000    41.96000000    19.86000000
   C     69.44000000    42.57000000    20.34000000
   C     67.70000000    41.89000000    18.83000000
   C     69.05000000    42.27000000    19.01000000
   O     69.91000000    42.36000000    17.96000000
   H     66.80000000    44.44000000    24.00000000
   H     65.18000000    43.73000000    21.50000000
   H     65.42000000    41.43000000    22.10000000
   H     66.70000000    41.88000000    23.22000000
   H     68.78000000    42.70000000    22.45000000
   H     65.69000000    41.79000000    19.74000000
   H     70.46000000    42.90000000    20.44000000
   H     67.42000000    41.60000000    17.83000000
   H     69.52000000    41.92000000    17.21000000
   N     63.17000000    43.32000000    22.97000000
   C     62.04000000    43.18000000    23.86000000
   C     61.91000000    41.75000000    24.37000000
   O     61.62000000    40.84000000    23.59000000
   C     60.78000000    43.75000000    23.20000000
   C     60.82000000    45.26000000    23.00000000
   C     59.38000000    43.36000000    23.67000000
   C     60.63000000    46.13000000    24.24000000
   H     63.07000000    43.19000000    21.98000000
   H     62.15000000    43.82000000    24.73000000
   H     61.00000000    43.39000000    22.20000000
   H     59.95000000    45.44000000    22.37000000
   H     61.76000000    45.60000000    22.56000000
   H     59.28000000    43.75000000    24.68000000
   H     58.61000000    43.86000000    23.09000000
   H     59.30000000    42.28000000    23.66000000
   H     60.68000000    47.17000000    23.92000000
   H     59.75000000    45.82000000    24.79000000
   H     61.54000000    45.92000000    24.80000000
   N     61.92000000    41.51000000    25.69000000
   C     61.56000000    40.26000000    26.31000000
   C     60.11000000    40.13000000    26.77000000
   O     59.36000000    41.10000000    26.63000000
   C     62.34000000    40.06000000    27.61000000
   O     61.88000000    41.07000000    28.48000000
   H     62.04000000    42.32000000    26.28000000
   H     61.84000000    39.40000000    25.70000000
   H     63.39000000    40.23000000    27.36000000
   H     62.14000000    39.07000000    28.02000000
   H     62.32000000    41.84000000    28.12000000
   N     59.68000000    38.93000000    27.15000000
   C     58.31000000    38.72000000    27.58000000
   C     57.95000000    39.44000000    28.88000000
   O     56.83000000    39.93000000    28.94000000
   C     58.11000000    37.22000000    27.79000000
   H     60.25000000    38.10000000    27.01000000
   H     57.62000000    39.06000000    26.81000000
   H     58.83000000    36.84000000    28.51000000
   H     57.15000000    36.97000000    28.22000000
   H     58.28000000    36.64000000    26.88000000
   N     58.91000000    39.58000000    29.80000000
   C     58.84000000    40.44000000    30.96000000
   C     58.75000000    41.92000000    30.60000000
   O     58.08000000    42.69000000    31.28000000
   C     59.94000000    40.25000000    32.00000000
   H     59.71000000    38.98000000    29.66000000
   H     57.91000000    40.13000000    31.44000000
   H     59.73000000    40.79000000    32.92000000
   H     60.01000000    39.19000000    32.24000000
   H     60.89000000    40.49000000    31.53000000
   N     59.38000000    42.35000000    29.51000000
   C     59.33000000    43.74000000    29.11000000
   C     58.07000000    44.07000000    28.32000000
   O     57.54000000    45.16000000    28.51000000
   C     60.57000000    44.21000000    28.37000000
   C     61.83000000    44.23000000    29.24000000
   C     63.10000000    44.17000000    28.40000000
   O     64.14000000    44.58000000    28.96000000
   O     63.22000000    43.33000000    27.48000000
   H     59.96000000    41.67000000    29.04000000
   H     59.30000000    44.42000000    29.96000000
   H     60.40000000    45.20000000    27.93000000
   H     60.87000000    43.52000000    27.58000000
   H     61.82000000    43.38000000    29.91000000
   H     61.84000000    45.18000000    29.77000000
   N     57.54000000    43.12000000    27.55000000
   C     56.29000000    43.13000000    26.82000000
   H     55.56000000    43.73400000    27.35900000
   H     56.45100000    43.55400000    25.82900000
   H     55.91700000    42.11000000    26.72400000
   H     58.08000000    42.28000000    27.36000000
  Ca     65.73000000    43.22000000    27.31000000
   O     65.49000000    40.85000000    26.15000000
   H     65.21000000    40.11000000    26.69000000
   H     65.91000000    40.44000000    25.39000000

Ca 1.70



