%chk=holoCaM_loop3_47.0.chk
%nprocshared=48
%mem=10GB
%nosave
#b3lyp/svp scf=(tight,noincore) Test 
#IOP(5/87=12) Density=Current Pop=(MK,readradii) iop(6/33=2) iop(6/42=6)

holoCaM_loop3_47.0 

   0   1
   C     90.97000000    58.89000000   101.62800000
   C     92.31000000    59.38000000   101.09800000
   O     92.98000000    58.76000000   100.27800000
   H     90.21000000    59.00700000   100.85600000
   H     91.05000000    57.83800000   101.90300000
   H     90.68900000    59.47500000   102.50400000
   N     92.68000000    60.61000000   101.46800000
   C     94.00000000    61.14000000   101.21800000
   C     94.91000000    60.65000000   102.33800000
   O     94.63000000    60.91000000   103.50800000
   C     93.99000000    62.67000000   101.18800000
   C     95.29000000    63.31000000   100.70800000
   O     95.22000000    64.55000000   100.57800000
   O     96.34000000    62.64000000   100.61800000
   H     92.13000000    61.01000000   102.20800000
   H     94.29000000    60.70000000   100.26800000
   H     93.97000000    63.03000000   102.20800000
   H     93.17000000    63.08000000   100.59800000
   N     96.02000000    59.95000000   102.12800000
   C     96.88000000    59.30000000   103.10800000
   C     98.23000000    59.94000000   103.38800000
   O     98.87000000    59.50000000   104.34800000
   C     97.04000000    57.83000000   102.73800000
   C     95.70000000    57.11000000   102.85800000
   C     95.80000000    55.61000000   102.59800000
   C     96.59000000    54.68000000   103.50800000
   N     95.90000000    54.48000000   104.78800000
   H     96.33000000    59.84000000   101.16800000
   H     96.43000000    59.39000000   104.09800000
   H     97.74000000    57.40000000   103.44800000
   H     97.45000000    57.69000000   101.73800000
   H     95.08000000    57.58000000   102.08800000
   H     95.31000000    57.22000000   103.86800000
   H     96.27000000    55.46000000   101.62800000
   H     94.77000000    55.27000000   102.69800000
   H     97.53000000    55.17000000   103.77800000
   H     96.70000000    53.70000000   103.04800000
   H     95.09000000    53.90000000   104.63800000
   H     96.54000000    54.09000000   105.46800000
   H     95.49000000    55.31000000   105.19800000
   N     98.54000000    61.06000000   102.73800000
   C     99.60000000    61.99000000   103.05800000
   C     99.04000000    63.34000000   103.45800000
   O     99.80000000    64.26000000   103.75800000
   C    100.69000000    62.06000000   101.99800000
   C    100.32000000    62.54000000   100.59800000
   O    100.96000000    63.39000000    99.95800000
   O     99.32000000    62.01000000   100.05800000
   H     98.07000000    61.28000000   101.86800000
   H    100.13000000    61.55000000   103.90800000
   H    101.07000000    61.04000000   101.89800000
   H    101.55000000    62.66000000   102.29800000
   N     97.73000000    63.54000000   103.28800000
   C     96.96000000    64.68000000   103.72800000
   C     97.07000000    65.87000000   102.77800000
   O     96.80000000    66.98000000   103.23800000
   H     97.24000000    62.80000000   102.79800000
   H     97.43000000    65.04000000   104.63800000
   H     95.92000000    64.42000000   103.91800000
   N     97.64000000    65.73000000   101.58800000
   C     98.11000000    66.87000000   100.83800000
   C     97.05000000    67.78000000   100.20800000
   O     97.36000000    68.90000000    99.81800000
   C     99.12000000    66.44000000    99.77800000
   C     98.45000000    65.92000000    98.50800000
   N     98.77000000    66.30000000    97.27800000
   O     97.62000000    65.01000000    98.57800000
   H     97.80000000    64.77000000   101.28800000
   H     98.59000000    67.54000000   101.54800000
   H     99.86000000    65.74000000   100.14800000
   H     99.57000000    67.34000000    99.35800000
   H     99.63000000    66.81000000    97.09800000
   H     98.45000000    65.66000000    96.56800000
   N     95.79000000    67.34000000   100.22800000
   C     94.65000000    67.94000000    99.55800000
   C     94.00000000    67.17000000    98.41800000
   O     93.01000000    67.68000000    97.87800000
   H     95.59000000    66.40000000   100.54800000
   H     94.96000000    68.89000000    99.11800000
   H     93.88000000    68.01000000   100.31800000
   N     94.47000000    65.98000000    98.05800000
   C     94.13000000    65.28000000    96.83800000
   C     94.30000000    63.77000000    96.86800000
   O     95.07000000    63.20000000    97.63800000
   C     95.07000000    65.86000000    95.77800000
   C     95.12000000    67.34000000    95.50800000
   C     96.04000000    68.10000000    96.24800000
   C     94.47000000    67.95000000    94.43800000
   C     96.17000000    69.47000000    95.97800000
   C     94.62000000    69.30000000    94.09800000
   C     95.52000000    70.06000000    94.86800000
   O     95.59000000    71.42000000    94.83800000
   H     95.25000000    65.58000000    98.56800000
   H     93.12000000    65.54000000    96.50800000
   H     94.67000000    65.31000000    94.92800000
   H     96.06000000    65.52000000    96.06800000
   H     96.57000000    67.72000000    97.10800000
   H     93.75000000    67.30000000    93.95800000
   H     96.93000000    70.03000000    96.50800000
   H     94.04000000    69.84000000    93.36800000
   H     94.76000000    71.66000000    94.41800000
   N     93.50000000    63.06000000    96.05800000
   C     93.58000000    61.63000000    95.84800000
   C     94.42000000    61.30000000    94.62800000
   O     94.44000000    62.04000000    93.64800000
   C     92.20000000    61.01000000    95.69800000
   C     91.32000000    61.31000000    96.90800000
   C     92.27000000    59.49000000    95.54800000
   C     91.85000000    61.15000000    98.33800000
   H     92.81000000    63.57000000    95.52800000
   H     93.98000000    61.11000000    96.71800000
   H     91.73000000    61.45000000    94.81800000
   H     90.37000000    60.77000000    96.80800000
   H     91.11000000    62.37000000    96.82800000
   H     91.28000000    59.02000000    95.53800000
   H     92.69000000    59.15000000    94.60800000
   H     92.89000000    59.12000000    96.35800000
   H     92.69000000    61.75000000    98.67800000
   H     91.01000000    61.28000000    99.00800000
   H     92.06000000    60.09000000    98.46800000
   N     95.13000000    60.17000000    94.73800000
   C     95.83000000    59.40000000    93.72800000
   C     95.58000000    57.90000000    93.67800000
   O     94.90000000    57.34000000    94.53800000
   C     97.31000000    59.74000000    93.82800000
   O     97.86000000    58.96000000    94.86800000
   H     95.19000000    59.77000000    95.65800000
   H     95.40000000    59.76000000    92.79800000
   H     97.46000000    60.81000000    93.98800000
   H     97.84000000    59.49000000    92.90800000
   H     97.29000000    59.02000000    95.63800000
   N     96.12000000    57.19000000    92.67800000
   C     95.97000000    55.78000000    92.41800000
   C     96.27000000    54.88000000    93.60800000
   O     95.45000000    54.01000000    93.90800000
   C     96.79000000    55.46000000    91.17800000
   H     96.56000000    57.68000000    91.91800000
   H     94.90000000    55.63000000    92.27800000
   H     96.50000000    56.12000000    90.35800000
   H     97.86000000    55.52000000    91.39800000
   H     96.57000000    54.46000000    90.77800000
   N     97.37000000    55.00000000    94.36800000
   C     97.76000000    54.14000000    95.46800000
   C     96.83000000    54.31000000    96.65800000
   O     96.51000000    53.36000000    97.35800000
   C     99.20000000    54.55000000    95.74800000
   H     97.99000000    55.76000000    94.14800000
   H     97.81000000    53.10000000    95.14800000
   H     99.21000000    55.61000000    96.00800000
   H     99.62000000    54.05000000    96.62800000
   H     99.91000000    54.39000000    94.93800000
   N     96.13000000    55.45000000    96.73800000
   C     95.12000000    55.83000000    97.69800000
   C     93.72000000    55.46000000    97.22800000
   O     92.80000000    55.23000000    98.01800000
   C     95.28000000    57.34000000    97.88800000
   C     96.58000000    57.89000000    98.47800000
   C     96.59000000    59.40000000    98.28800000
   O     96.73000000    60.06000000    99.34800000
   O     96.59000000    59.93000000    97.15800000
   H     96.40000000    56.10000000    96.01800000
   H     95.49000000    55.44000000    98.64800000
   H     94.53000000    57.70000000    98.58800000
   H     95.09000000    57.77000000    96.90800000
   H     97.42000000    57.53000000    97.87800000
   H     96.74000000    57.56000000    99.50800000
   N     93.51000000    55.29000000    95.92800000
   C     92.32000000    54.68000000    95.34800000
   H     91.53100000    55.42800000    95.26800000
   H     92.55600000    54.29400000    94.35600000
   H     91.98200000    53.86300000    95.98600000
   H     94.24000000    55.56000000    95.28800000
  Ca     97.55000000    62.33000000    98.25000000
   O     99.29000000    60.89000000    96.92000000
   H    100.08000000    61.29000000    96.56000000
   H     99.35000000    59.97000000    96.66000000

Ca 1.70



