%Nproc=40
%chk=holo6.chk
%mem=80GB
%NoSave
#maxdisk=300GB
#MP2(semidirect)/Gen scf=(tight,noincore) Test maxdisk=550GB
#IOP(5/87=12) Density=Current Pop=(MK,readradii) iop(6/33=2) iop(6/42=6)

holo_loop_3_model_6 

   0   1
   C     39.60400000    51.16400000    51.96200000
   C     40.26500000    49.79200000    51.86400000
   C     40.62200000    49.11300000    53.17900000
   O     39.79200000    48.69600000    53.98300000
   O     41.95600000    48.91500000    53.38200000
   H     39.34900000    51.52400000    50.96500000
   H     40.29100000    51.87000000    52.42900000
   H     38.70100000    51.07700000    52.56600000
   H     41.08300000    49.76200000    51.14500000
   H     39.49000000    49.12400000    51.48900000
   H     42.38800000    49.13400000    52.55300000
   C     41.93200000    53.42200000    56.52100000
   C     40.85600000    52.94200000    57.49100000
   C     40.02700000    51.72500000    57.10900000
   O     39.26400000    51.23500000    57.96800000
   O     40.13400000    51.28800000    55.94200000
   H     41.48300000    53.63600000    55.55100000
   H     42.68900000    52.64700000    56.40200000
   H     42.39400000    54.32600000    56.91900000
   H     40.13500000    53.75400000    57.59000000
   H     41.36100000    52.70600000    58.42800000
   C     31.38900000    50.75700000    55.84600000
   C     32.79000000    50.15400000    55.89700000
   C     33.53400000    50.46300000    57.19300000
   C     34.84600000    49.78000000    57.55300000
   O     34.73500000    48.68500000    58.14700000
   O     35.93100000    50.21200000    57.10900000
   H     30.76400000    50.25200000    56.58200000
   H     30.97700000    50.62300000    54.84600000
   H     31.41800000    51.82100000    56.08200000
   H     33.27900000    50.55300000    55.00900000
   H     32.68400000    49.07000000    55.84800000
   H     32.83000000    50.22800000    57.99100000
   H     33.62000000    51.54100000    57.33600000
  Ca     38.27800000    49.42700000    56.37800000
   O     37.45100000    48.36200000    58.89700000
   H     37.35800000    47.87200000    59.71400000
   H     36.55200000    48.53700000    58.62000000

C O H 0
aug-cc-pVTZ 
****
@/project/cheung/pzhang5/SPQM_Ca/1node/ca_ccpvtz_basisset.gbs/N

Ca 1.70




