%chk=holoCaM.loop2.water1.frame19.chk
%nprocshared=12
%mem=10GB
%nosave
#b3lyp/svp scf=(tight,noincore,xqc) Test 
#IOP(5/87=12) Density=Current Pop=(MK,readradii) iop(6/33=2) iop(6/42=6)

holoCaM.loop2.water1.frame19 

   -2  1 
   C     65.03000000     2.10000000     9.42000000
   C     64.66000000     1.43000000     8.06000000
   O     63.96000000     2.03000000     7.22000000
   H     65.86700000     2.78200000     9.27200000
   H     64.17100000     2.65500000     9.79800000
   H     65.31100000     1.33100000    10.14000000
   N     65.18000000     0.24000000     7.76000000
   C     64.89000000    -0.57000000     6.60000000
   C     63.39000000    -0.91000000     6.55000000
   O     62.84000000    -1.44000000     7.53000000
   C     65.78000000    -1.85000000     6.61000000
   C     65.37000000    -2.74000000     5.51000000
   O     65.10000000    -3.92000000     5.80000000
   O     65.21000000    -2.27000000     4.34000000
   H     65.72000000    -0.24000000     8.47000000
   H     65.14000000    -0.01000000     5.69000000
   H     65.68000000    -2.22000000     7.63000000
   H     66.84000000    -1.63000000     6.55000000
   N     62.84000000    -0.92000000     5.31000000
   C     61.56000000    -1.50000000     5.00000000
   C     61.66000000    -2.77000000     4.14000000
   O     60.58000000    -3.38000000     3.97000000
   C     60.70000000    -0.48000000     4.35000000
   H     63.32000000    -0.57000000     4.50000000
   H     61.16000000    -1.86000000     5.95000000
   H     61.17000000    -0.16000000     3.43000000
   H     59.74000000    -0.90000000     4.03000000
   H     60.46000000     0.42000000     4.91000000
   N     62.80000000    -3.20000000     3.51000000
   C     62.90000000    -4.16000000     2.32000000
   C     64.15000000    -5.08000000     2.37000000
   O     64.21000000    -6.09000000     1.63000000
   C     62.91000000    -3.40000000     1.00000000
   C     63.98000000    -2.31000000     0.85000000
   O     65.19000000    -2.53000000     1.13000000
   O     63.60000000    -1.21000000     0.38000000
   H     63.63000000    -2.68000000     3.72000000
   H     62.06000000    -4.86000000     2.34000000
   H     61.90000000    -3.03000000     0.86000000
   H     63.17000000    -4.13000000     0.23000000
   N     65.21000000    -4.88000000     3.19000000
   C     66.25000000    -5.88000000     3.41000000
   C     67.43000000    -5.76000000     2.39000000
   O     68.39000000    -6.54000000     2.37000000
   H     65.16000000    -4.14000000     3.89000000
   H     65.82000000    -6.88000000     3.32000000
   H     66.68000000    -5.77000000     4.41000000
   N     67.31000000    -4.84000000     1.44000000
   C     68.34000000    -4.52000000     0.42000000
   C     69.68000000    -4.04000000     1.05000000
   O     70.55000000    -3.64000000     0.23000000
   C     67.79000000    -3.43000000    -0.59000000
   C     67.82000000    -2.00000000    -0.20000000
   N     67.30000000    -1.22000000    -1.09000000
   O     68.15000000    -1.59000000     0.91000000
   H     66.52000000    -4.22000000     1.38000000
   H     68.51000000    -5.36000000    -0.25000000
   H     66.78000000    -3.68000000    -0.91000000
   H     68.26000000    -3.52000000    -1.57000000
   H     66.79000000    -1.62000000    -1.86000000
   H     67.04000000    -0.27000000    -0.87000000
   N     69.92000000    -4.09000000     2.38000000
   C     71.29000000    -3.81000000     2.90000000
   C     71.67000000    -2.36000000     3.03000000
   O     72.72000000    -2.00000000     3.54000000
   H     69.23000000    -4.40000000     3.04000000
   H     72.13000000    -4.21000000     2.34000000
   H     71.35000000    -4.21000000     3.91000000
   N     70.75000000    -1.43000000     2.59000000
   C     71.07000000    -0.06000000     2.26000000
   C     69.91000000     0.87000000     2.52000000
   O     68.73000000     0.53000000     2.43000000
   C     71.56000000     0.16000000     0.87000000
   C     72.99000000    -0.38000000     0.64000000
   O     70.76000000    -0.47000000    -0.17000000
   H     69.80000000    -1.74000000     2.41000000
   H     71.77000000     0.25000000     3.04000000
   H     71.52000000     1.23000000     0.67000000
   H     70.43000000    -1.28000000     0.22000000
   H     73.44000000     0.19000000    -0.16000000
   H     73.60000000    -0.10000000     1.49000000
   H     73.02000000    -1.47000000     0.60000000
   N     70.22000000     2.18000000     2.82000000
   C     69.16000000     3.18000000     3.23000000
   C     68.59000000     3.73000000     1.90000000
   O     69.36000000     4.40000000     1.20000000
   C     69.78000000     4.23000000     4.18000000
   C     70.55000000     3.65000000     5.39000000
   C     68.77000000     5.32000000     4.62000000
   C     70.94000000     4.62000000     6.54000000
   H     71.22000000     2.32000000     2.75000000
   H     68.40000000     2.64000000     3.80000000
   H     70.47000000     4.80000000     3.56000000
   H     71.39000000     3.06000000     5.01000000
   H     69.91000000     2.95000000     5.92000000
   H     68.18000000     4.94000000     5.46000000
   H     69.28000000     6.22000000     4.97000000
   H     68.11000000     5.60000000     3.80000000
   H     71.62000000     5.36000000     6.12000000
   H     69.99000000     4.96000000     6.93000000
   H     71.55000000     4.06000000     7.25000000
   N     67.30000000     3.41000000     1.57000000
   C     66.57000000     4.16000000     0.59000000
   C     66.09000000     5.52000000     1.09000000
   O     65.90000000     5.79000000     2.28000000
   C     65.42000000     3.22000000    -0.01000000
   C     65.86000000     1.78000000    -0.31000000
   O     65.91000000     0.94000000     0.63000000
   O     66.02000000     1.43000000    -1.49000000
   H     66.86000000     2.67000000     2.09000000
   H     67.34000000     4.29000000    -0.18000000
   H     65.02000000     3.72000000    -0.88000000
   H     64.59000000     3.05000000     0.68000000
   N     65.86000000     6.41000000     0.12000000
   C     65.34000000     7.80000000     0.39000000
   C     64.15000000     7.91000000     1.40000000
   O     64.31000000     8.70000000     2.30000000
   C     64.95000000     8.56000000    -0.88000000
   C     64.52000000    10.01000000    -0.66000000
   C     65.39000000    10.97000000    -0.12000000
   C     63.24000000    10.52000000    -1.05000000
   C     64.96000000    12.32000000    -0.03000000
   C     62.88000000    11.84000000    -1.13000000
   C     63.74000000    12.77000000    -0.53000000
   H     66.01000000     6.13000000    -0.83000000
   H     66.11000000     8.30000000     0.97000000
   H     64.21000000     7.98000000    -1.42000000
   H     65.83000000     8.56000000    -1.53000000
   H     66.42000000    10.70000000     0.10000000
   H     62.60000000     9.80000000    -1.54000000
   H     65.56000000    13.16000000     0.30000000
   H     62.06000000    12.14000000    -1.77000000
   H     63.55000000    13.83000000    -0.52000000
   N     63.10000000     7.08000000     1.33000000
   C     62.07000000     7.05000000     2.37000000
   C     62.44000000     6.43000000     3.75000000
   O     61.69000000     6.49000000     4.74000000
   C     61.00000000     6.16000000     1.81000000
   C     61.69000000     5.13000000     0.93000000
   C     62.78000000     6.06000000     0.30000000
   H     61.68000000     8.04000000     2.59000000
   H     60.35000000     5.66000000     2.53000000
   H     60.23000000     6.65000000     1.22000000
   H     62.12000000     4.31000000     1.51000000
   H     61.00000000     4.76000000     0.17000000
   H     63.61000000     5.40000000     0.03000000
   H     62.39000000     6.51000000    -0.62000000
   N     63.60000000     5.79000000     3.87000000
   C     64.23000000     5.37000000     5.11000000
   C     65.18000000     6.41000000     5.59000000
   O     65.41000000     6.41000000     6.78000000
   C     65.01000000     4.01000000     4.93000000
   C     64.11000000     2.96000000     4.27000000
   C     64.94000000     1.78000000     3.76000000
   O     66.19000000     1.75000000     3.93000000
   O     64.42000000     0.74000000     3.42000000
   H     64.11000000     5.64000000     3.01000000
   H     63.47000000     5.20000000     5.87000000
   H     65.34000000     3.72000000     5.92000000
   H     65.78000000     4.20000000     4.19000000
   H     63.52000000     3.44000000     3.49000000
   H     63.45000000     2.43000000     4.96000000
   N     65.73000000     7.27000000     4.74000000
   C     66.41000000     8.42000000     5.26000000
   H     67.34100000     8.56800000     4.71400000
   H     65.77700000     9.30000000     5.14400000
   H     66.63000000     8.26600000     6.31600000
   H     65.43000000     7.19000000     3.78000000
  Ca     66.41000000    -0.74200000     2.58000000
   O     68.36000000    -1.96200000     3.98000000
   H     68.62000000    -2.69200000     4.54000000
   H     68.68000000    -1.18200000     4.43000000

Ca 1.00



