%chk=loop2.holoCaM-CaMKII.run18.water2.chk
%nprocshared=20
%mem=10GB
%nosave
#b3lyp/svp scf=(tight,noincore,xqc) Test 
#IOP(5/87=12) Density=Current Pop=(MK,readradii) iop(6/33=2) iop(6/42=6)

loop2.holoCaM-CaMKII.run18.water2 

   -2  1 
   C     88.42800000    79.00000000     0.35000000
   C     89.32800000    78.42000000    -0.74000000
   O     90.54800000    78.41000000    -0.63000000
   H     87.45900000    78.50300000     0.32300000
   H     88.88900000    78.84200000     1.32500000
   H     88.29300000    80.06800000     0.18000000
   N     88.72800000    78.03000000    -1.87000000
   C     89.41800000    77.37000000    -2.95000000
   C     90.41800000    78.28000000    -3.65000000
   O     90.10800000    79.38000000    -4.11000000
   C     88.40800000    76.95000000    -4.01000000
   C     89.05800000    76.15000000    -5.14000000
   O     90.04800000    75.44000000    -4.89000000
   O     88.48800000    76.22000000    -6.25000000
   H     87.72800000    78.12000000    -1.99000000
   H     89.95800000    76.50000000    -2.58000000
   H     87.93800000    77.84000000    -4.42000000
   H     87.62800000    76.30000000    -3.60000000
   N     91.57800000    77.70000000    -3.98000000
   C     92.73800000    78.26000000    -4.62000000
   C     93.38800000    77.62000000    -5.84000000
   O     94.50800000    77.89000000    -6.27000000
   C     93.76800000    78.23000000    -3.49000000
   H     91.73800000    76.80000000    -3.55000000
   H     92.56800000    79.31000000    -4.88000000
   H     94.59800000    78.84000000    -3.84000000
   H     93.37800000    78.66000000    -2.57000000
   H     93.99800000    77.17000000    -3.35000000
   N     92.58800000    76.68000000    -6.35000000
   C     92.84800000    75.79000000    -7.46000000
   C     91.69800000    75.29000000    -8.33000000
   O     91.89800000    75.19000000    -9.53000000
   C     93.56800000    74.58000000    -6.87000000
   C     92.80800000    73.84000000    -5.78000000
   O     91.71800000    73.29000000    -6.04000000
   O     93.31800000    73.66000000    -4.65000000
   H     91.74800000    76.33000000    -5.89000000
   H     93.59800000    76.19000000    -8.14000000
   H     94.44800000    75.05000000    -6.41000000
   H     93.76800000    73.86000000    -7.66000000
   N     90.47800000    75.08000000    -7.83000000
   C     89.37800000    74.53000000    -8.58000000
   C     89.05800000    73.04000000    -8.67000000
   O     88.21800000    72.57000000    -9.44000000
   H     90.23800000    75.43000000    -6.91000000
   H     89.42800000    75.00000000    -9.56000000
   H     88.49800000    75.06000000    -8.20000000
   N     89.76800000    72.23000000    -7.89000000
   C     89.76800000    70.78000000    -7.80000000
   C     88.59800000    70.14000000    -7.06000000
   O     88.56800000    68.92000000    -6.91000000
   C     91.16800000    70.41000000    -7.35000000
   C     91.41800000    70.54000000    -5.85000000
   N     92.67800000    70.51000000    -5.42000000
   O     90.47800000    70.73000000    -5.08000000
   H     90.30800000    72.74000000    -7.21000000
   H     89.71800000    70.37000000    -8.81000000
   H     91.97800000    70.80000000    -7.96000000
   H     91.16800000    69.32000000    -7.30000000
   H     93.46800000    70.45000000    -6.05000000
   H     92.79800000    70.59000000    -4.42000000
   N     87.59800000    70.88000000    -6.58000000
   C     86.39800000    70.41000000    -5.92000000
   C     86.55800000    69.84000000    -4.52000000
   O     85.63800000    69.32000000    -3.89000000
   H     87.74800000    71.88000000    -6.55000000
   H     85.83800000    69.70000000    -6.52000000
   H     85.74800000    71.27000000    -5.77000000
   N     87.78800000    69.84000000    -4.01000000
   C     88.12800000    69.37000000    -2.68000000
   C     88.73800000    70.49000000    -1.85000000
   O     89.46800000    71.35000000    -2.34000000
   C     89.05800000    68.19000000    -2.92000000
   C     88.57800000    66.93000000    -3.65000000
   O     90.29800000    68.51000000    -3.52000000
   H     88.55800000    70.16000000    -4.58000000
   H     87.29800000    68.91000000    -2.15000000
   H     89.37800000    67.74000000    -1.97000000
   H     90.04800000    69.20000000    -4.13000000
   H     87.59800000    66.64000000    -3.28000000
   H     88.46800000    67.14000000    -4.71000000
   H     89.20800000    66.06000000    -3.46000000
   N     88.53800000    70.29000000    -0.55000000
   C     89.33800000    70.92000000     0.49000000
   C     90.72800000    70.31000000     0.56000000
   O     90.90800000    69.19000000     1.02000000
   C     88.65800000    71.09000000     1.84000000
   C     87.13800000    71.24000000     1.83000000
   C     89.49800000    72.14000000     2.57000000
   C     86.63800000    71.04000000     3.25000000
   H     88.04800000    69.44000000    -0.30000000
   H     89.48800000    71.93000000     0.10000000
   H     88.77800000    70.14000000     2.36000000
   H     86.65800000    70.42000000     1.30000000
   H     86.89800000    72.27000000     1.56000000
   H     90.53800000    71.85000000     2.76000000
   H     89.64800000    72.97000000     1.88000000
   H     88.91800000    72.57000000     3.38000000
   H     87.14800000    71.54000000     4.07000000
   H     85.60800000    71.39000000     3.34000000
   H     86.75800000    69.99000000     3.49000000
   N     91.75800000    71.05000000     0.15000000
   C     93.17800000    70.88000000     0.37000000
   C     93.73800000    71.44000000     1.67000000
   O     93.26800000    72.39000000     2.30000000
   C     93.92800000    71.44000000    -0.84000000
   C     93.46800000    70.91000000    -2.19000000
   O     92.48800000    71.44000000    -2.77000000
   O     94.11800000    70.11000000    -2.89000000
   H     91.55800000    71.96000000    -0.26000000
   H     93.42800000    69.81000000     0.36000000
   H     94.98800000    71.31000000    -0.64000000
   H     93.74800000    72.51000000    -0.82000000
   N     94.93800000    71.06000000     2.11000000
   C     95.50800000    71.43000000     3.39000000
   C     95.64800000    72.91000000     3.71000000
   O     95.07800000    73.28000000     4.74000000
   C     96.78800000    70.61000000     3.56000000
   C     97.15800000    70.48000000     5.02000000
   C     98.29800000    71.11000000     5.54000000
   C     96.34800000    69.66000000     5.82000000
   C     98.53800000    70.98000000     6.91000000
   C     96.68800000    69.44000000     7.16000000
   C     97.78800000    70.10000000     7.71000000
   H     95.38800000    70.38000000     1.52000000
   H     94.84800000    70.97000000     4.11000000
   H     97.52800000    71.12000000     2.96000000
   H     96.74800000    69.63000000     3.08000000
   H     98.99800000    71.64000000     4.91000000
   H     95.38800000    69.24000000     5.56000000
   H     99.39800000    71.42000000     7.38000000
   H     96.07800000    68.84000000     7.82000000
   H     98.01800000    70.07000000     8.77000000
   N     96.21800000    73.79000000     2.88000000
   C     96.39800000    75.21000000     3.10000000
   C     95.04800000    75.90000000     3.01000000
   O     95.05800000    77.02000000     3.52000000
   C     97.35800000    75.66000000     2.01000000
   C     97.17800000    74.63000000     0.91000000
   C     96.88800000    73.34000000     1.68000000
   H     96.88800000    75.45000000     4.04000000
   H     97.18800000    76.69000000     1.68000000
   H     98.36800000    75.64000000     2.44000000
   H     96.22800000    74.83000000     0.40000000
   H     97.97800000    74.63000000     0.17000000
   H     96.33800000    72.63000000     1.08000000
   H     97.85800000    72.90000000     1.93000000
   N     94.01800000    75.30000000     2.40000000
   C     92.68800000    75.87000000     2.39000000
   C     91.91800000    75.58000000     3.67000000
   O     91.15800000    76.43000000     4.13000000
   C     91.89800000    75.28000000     1.22000000
   C     92.67800000    75.30000000    -0.09000000
   C     91.85800000    74.71000000    -1.23000000
   O     92.01800000    75.12000000    -2.40000000
   O     90.98800000    73.84000000    -1.01000000
   H     94.02800000    74.31000000     2.20000000
   H     92.71800000    76.93000000     2.15000000
   H     90.99800000    75.90000000     1.17000000
   H     91.52800000    74.30000000     1.51000000
   H     93.52800000    74.65000000     0.05000000
   H     93.04800000    76.31000000    -0.27000000
   N     92.20800000    74.40000000     4.20000000
   C     91.54800000    73.91000000     5.40000000
   H     90.54400000    73.56900000     5.14800000
   H     92.11900000    73.08000000     5.81600000
   H     91.48500000    74.71300000     6.13400000
   H     92.81800000    73.77000000     3.69000000
  Ca     90.76000000    73.19000000    -3.60800000
   O     88.64000000    74.14000000    -2.15800000
   H     89.26000000    74.28000000    -1.43800000
   H     87.88000000    74.68000000    -1.91800000
   O     88.57000000    73.10000000    -5.20800000
   H     87.71000000    73.48000000    -5.02800000
   H     89.04000000    73.78000000    -5.69800000

Ca 1.00



