%chk=loop2.holoCaM.run59.water2.chk
%nprocshared=20
%mem=10GB
%nosave
#b3lyp/svp scf=(tight,noincore,xqc) Test 
#IOP(5/87=12) Density=Current Pop=(MK,readradii) iop(6/33=2) iop(6/42=6)

loop2.holoCaM.run59.water2 

   -2  1 
   C     53.19000000    64.23000000    -8.28000000
   C     51.78000000    63.80000000    -7.90000000
   O     51.20000000    64.56000000    -7.13000000
   H     53.88000000    63.40400000    -8.10700000
   H     53.21400000    64.50800000    -9.33400000
   H     53.48700000    65.08400000    -7.67100000
   N     51.17000000    62.80000000    -8.53000000
   C     49.73000000    62.58000000    -8.57000000
   C     49.21000000    62.10000000    -7.22000000
   O     49.64000000    61.04000000    -6.79000000
   C     49.39000000    61.56000000    -9.64000000
   C     47.93000000    61.18000000    -9.82000000
   O     47.58000000    60.25000000   -10.59000000
   O     47.08000000    61.95000000    -9.33000000
   H     51.67000000    62.20000000    -9.18000000
   H     49.21000000    63.50000000    -8.84000000
   H     50.03000000    60.70000000    -9.41000000
   H     49.61000000    61.86000000   -10.67000000
   N     48.32000000    62.83000000    -6.54000000
   C     47.77000000    62.50000000    -5.24000000
   C     46.60000000    61.53000000    -5.14000000
   O     46.33000000    60.99000000    -4.07000000
   C     47.63000000    63.81000000    -4.48000000
   H     48.14000000    63.70000000    -7.02000000
   H     48.54000000    61.95000000    -4.71000000
   H     48.49000000    64.49000000    -4.43000000
   H     46.76000000    64.36000000    -4.84000000
   H     47.47000000    63.63000000    -3.42000000
   N     45.97000000    61.21000000    -6.27000000
   C     44.78000000    60.39000000    -6.40000000
   C     44.94000000    59.12000000    -7.21000000
   O     44.28000000    58.15000000    -6.86000000
   C     43.58000000    61.18000000    -6.93000000
   C     43.84000000    62.05000000    -8.15000000
   O     44.00000000    61.53000000    -9.28000000
   O     44.01000000    63.28000000    -8.05000000
   H     46.24000000    61.75000000    -7.08000000
   H     44.42000000    60.05000000    -5.43000000
   H     43.33000000    61.87000000    -6.12000000
   H     42.74000000    60.52000000    -7.14000000
   N     46.03000000    59.02000000    -7.99000000
   C     46.66000000    57.81000000    -8.46000000
   C     46.13000000    57.29000000    -9.79000000
   O     46.73000000    56.42000000   -10.42000000
   H     46.47000000    59.86000000    -8.31000000
   H     46.39000000    57.03000000    -7.75000000
   H     47.75000000    57.93000000    -8.42000000
   N     45.11000000    57.92000000   -10.38000000
   C     44.57000000    57.54000000   -11.67000000
   C     45.45000000    57.68000000   -12.91000000
   O     45.11000000    57.23000000   -14.00000000
   C     43.16000000    58.13000000   -11.70000000
   C     42.29000000    57.77000000   -10.50000000
   N     41.97000000    56.49000000   -10.29000000
   O     41.99000000    58.63000000    -9.66000000
   H     44.60000000    58.56000000    -9.80000000
   H     44.42000000    56.47000000   -11.62000000
   H     42.65000000    57.75000000   -12.58000000
   H     43.23000000    59.22000000   -11.76000000
   H     42.31000000    55.79000000   -10.92000000
   H     41.72000000    56.31000000    -9.33000000
   N     46.56000000    58.41000000   -12.83000000
   C     47.48000000    58.68000000   -13.92000000
   C     47.04000000    59.94000000   -14.65000000
   O     47.48000000    60.07000000   -15.79000000
   H     46.87000000    58.79000000   -11.94000000
   H     47.55000000    57.77000000   -14.51000000
   H     48.38000000    58.96000000   -13.37000000
   N     46.39000000    60.95000000   -14.07000000
   C     46.10000000    62.18000000   -14.78000000
   C     46.37000000    63.40000000   -13.91000000
   O     46.29000000    63.38000000   -12.69000000
   C     44.71000000    62.30000000   -15.39000000
   C     44.52000000    61.67000000   -16.76000000
   O     43.62000000    61.82000000   -14.63000000
   H     46.04000000    60.72000000   -13.15000000
   H     46.82000000    62.22000000   -15.60000000
   H     44.47000000    63.36000000   -15.53000000
   H     43.64000000    62.24000000   -13.77000000
   H     44.66000000    60.60000000   -16.60000000
   H     43.52000000    61.79000000   -17.16000000
   H     45.24000000    62.10000000   -17.46000000
   N     46.70000000    64.52000000   -14.56000000
   C     47.30000000    65.65000000   -13.89000000
   C     46.34000000    66.84000000   -13.86000000
   O     45.73000000    67.12000000   -14.89000000
   C     48.61000000    65.97000000   -14.60000000
   C     49.64000000    64.85000000   -14.48000000
   C     49.23000000    67.33000000   -14.27000000
   C     50.24000000    64.80000000   -13.08000000
   H     46.81000000    64.50000000   -15.56000000
   H     47.52000000    65.38000000   -12.85000000
   H     48.31000000    66.00000000   -15.64000000
   H     50.47000000    65.10000000   -15.14000000
   H     49.10000000    63.91000000   -14.63000000
   H     50.10000000    67.44000000   -14.92000000
   H     48.49000000    68.04000000   -14.62000000
   H     49.49000000    67.44000000   -13.21000000
   H     50.95000000    63.98000000   -12.98000000
   H     50.74000000    65.73000000   -12.83000000
   H     49.47000000    64.56000000   -12.34000000
   N     46.08000000    67.37000000   -12.67000000
   C     45.24000000    68.50000000   -12.31000000
   C     46.11000000    69.74000000   -12.16000000
   O     47.32000000    69.68000000   -11.95000000
   C     44.59000000    68.22000000   -10.96000000
   C     43.87000000    66.88000000   -10.88000000
   O     44.14000000    65.90000000   -10.16000000
   O     42.91000000    66.71000000   -11.65000000
   H     46.50000000    66.89000000   -11.88000000
   H     44.42000000    68.69000000   -12.99000000
   H     43.92000000    68.99000000   -10.58000000
   H     45.44000000    68.19000000   -10.27000000
   N     45.54000000    70.95000000   -12.20000000
   C     46.28000000    72.19000000   -12.10000000
   C     47.15000000    72.32000000   -10.85000000
   O     48.23000000    72.90000000   -10.94000000
   C     45.24000000    73.28000000   -12.36000000
   C     45.80000000    74.68000000   -12.24000000
   C     46.75000000    75.04000000   -13.20000000
   C     45.53000000    75.48000000   -11.13000000
   C     47.43000000    76.26000000   -13.06000000
   C     46.08000000    76.77000000   -11.10000000
   C     47.04000000    77.14000000   -12.05000000
   H     44.54000000    70.97000000   -12.28000000
   H     46.85000000    72.30000000   -13.03000000
   H     44.40000000    73.12000000   -11.69000000
   H     44.89000000    73.18000000   -13.38000000
   H     47.12000000    74.37000000   -13.97000000
   H     44.94000000    75.13000000   -10.30000000
   H     48.23000000    76.56000000   -13.71000000
   H     45.87000000    77.34000000   -10.21000000
   H     47.56000000    78.08000000   -11.97000000
   N     46.78000000    71.86000000    -9.66000000
   C     47.70000000    71.85000000    -8.54000000
   C     48.94000000    71.00000000    -8.74000000
   O     50.00000000    71.44000000    -8.31000000
   C     46.92000000    71.42000000    -7.30000000
   C     45.44000000    71.42000000    -7.66000000
   C     45.47000000    71.45000000    -9.19000000
   H     48.01000000    72.88000000    -8.34000000
   H     47.24000000    70.42000000    -7.00000000
   H     47.15000000    72.05000000    -6.45000000
   H     44.94000000    70.52000000    -7.30000000
   H     44.96000000    72.30000000    -7.25000000
   H     45.27000000    70.44000000    -9.55000000
   H     44.68000000    72.13000000    -9.51000000
   N     48.78000000    69.85000000    -9.41000000
   C     49.80000000    68.84000000    -9.58000000
   C     50.60000000    69.19000000   -10.83000000
   O     51.78000000    68.84000000   -10.87000000
   C     49.10000000    67.49000000    -9.67000000
   C     47.99000000    67.03000000    -8.72000000
   C     47.40000000    65.75000000    -9.28000000
   O     47.09000000    65.55000000   -10.47000000
   O     47.03000000    64.90000000    -8.43000000
   H     47.86000000    69.68000000    -9.80000000
   H     50.46000000    68.86000000    -8.71000000
   H     49.95000000    66.81000000    -9.72000000
   H     48.57000000    67.57000000   -10.63000000
   H     47.29000000    67.86000000    -8.62000000
   H     48.40000000    66.93000000    -7.71000000
   N     50.09000000    70.04000000   -11.73000000
   C     50.71000000    70.66000000   -12.88000000
   H     51.71800000    70.26600000   -13.00500000
   H     50.12200000    70.44300000   -13.77200000
   H     50.75800000    71.73900000   -12.73000000
   H     49.12000000    70.28000000   -11.61000000
  Ca     45.42000000    63.66000000   -10.20700000
   O     45.24000000    61.03000000   -11.45700000
   H     44.50000000    60.92000000   -10.86700000
   H     46.01000000    60.77000000   -10.94700000
   O     43.22000000    63.94000000   -11.85700000
   H     42.84000000    64.81000000   -11.78700000
   H     42.48000000    63.37000000   -12.08700000

Ca 1.00



