%chk=loop2.holoCaM.run21.water1.chk
%nprocshared=20
%mem=10GB
%nosave
#b3lyp/svp scf=(tight,noincore,xqc) Test 
#IOP(5/87=12) Density=Current Pop=(MK,readradii) iop(6/33=2) iop(6/42=6)

loop2.holoCaM.run21.water1 

   -2  1 
   C     59.36000000    44.38000000     8.36000000
   C     57.89000000    44.43000000     8.75000000
   O     57.60000000    44.14000000     9.91000000
   H     59.96200000    44.15600000     9.24100000
   H     59.51100000    43.60400000     7.61000000
   H     59.66100000    45.34400000     7.95100000
   N     57.01000000    44.75000000     7.81000000
   C     55.56000000    44.67000000     7.90000000
   C     55.12000000    43.36000000     8.54000000
   O     55.20000000    42.32000000     7.89000000
   C     55.00000000    44.88000000     6.50000000
   C     53.49000000    44.73000000     6.42000000
   O     52.79000000    45.01000000     7.41000000
   O     53.04000000    44.62000000     5.26000000
   H     57.36000000    45.04000000     6.91000000
   H     55.20000000    45.48000000     8.55000000
   H     55.37000000    44.17000000     5.75000000
   H     55.34000000    45.87000000     6.18000000
   N     54.55000000    43.46000000     9.74000000
   C     54.20000000    42.39000000    10.65000000
   C     52.80000000    41.88000000    10.36000000
   O     52.56000000    40.67000000    10.45000000
   C     54.37000000    42.74000000    12.12000000
   H     54.39000000    44.40000000    10.08000000
   H     54.84000000    41.52000000    10.54000000
   H     55.43000000    42.87000000    12.38000000
   H     53.93000000    43.73000000    12.22000000
   H     54.10000000    41.96000000    12.83000000
   N     51.88000000    42.82000000    10.11000000
   C     50.47000000    42.48000000    10.09000000
   C     49.95000000    42.29000000     8.68000000
   O     48.82000000    41.86000000     8.44000000
   C     49.51000000    43.34000000    10.91000000
   C     49.50000000    44.78000000    10.41000000
   O     48.73000000    45.57000000    11.00000000
   O     50.28000000    45.19000000     9.52000000
   H     52.13000000    43.80000000    10.17000000
   H     50.38000000    41.49000000    10.53000000
   H     49.92000000    43.28000000    11.91000000
   H     48.48000000    42.98000000    11.01000000
   N     50.72000000    42.64000000     7.65000000
   C     50.57000000    42.27000000     6.25000000
   C     49.67000000    43.16000000     5.41000000
   O     49.08000000    42.70000000     4.44000000
   H     51.66000000    42.94000000     7.87000000
   H     50.18000000    41.26000000     6.29000000
   H     51.58000000    42.18000000     5.86000000
   N     49.35000000    44.39000000     5.85000000
   C     48.64000000    45.34000000     5.02000000
   C     49.47000000    46.09000000     3.98000000
   O     49.04000000    46.95000000     3.21000000
   C     47.88000000    46.33000000     5.89000000
   C     48.63000000    47.20000000     6.89000000
   N     47.92000000    47.95000000     7.73000000
   O     49.86000000    47.19000000     6.95000000
   H     49.82000000    44.73000000     6.67000000
   H     47.90000000    44.84000000     4.39000000
   H     47.02000000    45.82000000     6.33000000
   H     47.37000000    47.10000000     5.31000000
   H     46.95000000    47.92000000     7.45000000
   H     48.36000000    48.67000000     8.29000000
   N     50.70000000    45.62000000     3.79000000
   C     51.59000000    46.03000000     2.72000000
   C     52.32000000    47.36000000     2.82000000
   O     52.95000000    47.84000000     1.88000000
   H     51.08000000    45.13000000     4.59000000
   H     51.01000000    46.21000000     1.81000000
   H     52.24000000    45.20000000     2.47000000
   N     52.19000000    47.99000000     3.99000000
   C     52.87000000    49.20000000     4.40000000
   C     53.44000000    49.11000000     5.81000000
   O     53.22000000    48.07000000     6.42000000
   C     51.91000000    50.38000000     4.49000000
   C     51.35000000    50.60000000     3.08000000
   O     50.81000000    50.17000000     5.35000000
   H     51.99000000    47.34000000     4.74000000
   H     53.64000000    49.39000000     3.65000000
   H     52.41000000    51.29000000     4.80000000
   H     50.10000000    50.71000000     4.99000000
   H     50.80000000    49.77000000     2.65000000
   H     50.68000000    51.46000000     3.09000000
   H     52.24000000    50.87000000     2.52000000
   N     54.14000000    50.16000000     6.24000000
   C     54.80000000    50.26000000     7.52000000
   C     53.97000000    51.08000000     8.50000000
   O     53.50000000    52.17000000     8.15000000
   C     56.16000000    50.92000000     7.28000000
   C     56.98000000    49.83000000     6.59000000
   C     56.82000000    51.48000000     8.53000000
   C     58.40000000    50.21000000     6.21000000
   H     54.25000000    50.92000000     5.58000000
   H     54.85000000    49.23000000     7.87000000
   H     55.99000000    51.72000000     6.56000000
   H     56.49000000    49.49000000     5.68000000
   H     57.00000000    48.93000000     7.22000000
   H     56.20000000    52.31000000     8.88000000
   H     56.88000000    50.75000000     9.34000000
   H     57.83000000    51.87000000     8.39000000
   H     58.88000000    50.68000000     7.07000000
   H     58.94000000    49.33000000     5.87000000
   H     58.25000000    50.82000000     5.31000000
   N     53.82000000    50.57000000     9.72000000
   C     53.48000000    51.28000000    10.94000000
   C     54.72000000    51.50000000    11.80000000
   O     55.80000000    50.96000000    11.53000000
   C     52.44000000    50.44000000    11.68000000
   C     51.40000000    49.76000000    10.81000000
   O     51.51000000    48.52000000    10.71000000
   O     50.34000000    50.34000000    10.50000000
   H     54.11000000    49.61000000     9.77000000
   H     53.02000000    52.26000000    10.84000000
   H     51.95000000    51.05000000    12.44000000
   H     52.91000000    49.64000000    12.25000000
   N     54.58000000    52.44000000    12.73000000
   C     55.68000000    52.88000000    13.56000000
   C     56.39000000    51.72000000    14.25000000
   O     57.62000000    51.69000000    14.25000000
   C     55.31000000    54.03000000    14.50000000
   C     56.46000000    54.67000000    15.24000000
   C     57.35000000    55.51000000    14.57000000
   C     56.57000000    54.47000000    16.62000000
   C     58.46000000    56.03000000    15.25000000
   C     57.68000000    55.02000000    17.27000000
   C     58.70000000    55.69000000    16.58000000
   H     53.66000000    52.85000000    12.83000000
   H     56.42000000    53.29000000    12.87000000
   H     54.57000000    53.59000000    15.18000000
   H     54.77000000    54.79000000    13.94000000
   H     57.30000000    55.72000000    13.51000000
   H     55.88000000    53.82000000    17.14000000
   H     59.26000000    56.56000000    14.75000000
   H     57.73000000    54.79000000    18.32000000
   H     59.57000000    55.95000000    17.17000000
   N     55.74000000    50.73000000    14.86000000
   C     56.41000000    49.57000000    15.42000000
   C     57.31000000    48.80000000    14.47000000
   O     58.29000000    48.15000000    14.83000000
   C     55.31000000    48.64000000    15.92000000
   C     54.35000000    49.72000000    16.43000000
   C     54.35000000    50.70000000    15.26000000
   H     57.00000000    49.90000000    16.28000000
   H     54.82000000    48.12000000    15.10000000
   H     55.68000000    48.09000000    16.79000000
   H     53.34000000    49.33000000    16.52000000
   H     54.71000000    50.18000000    17.34000000
   H     53.68000000    50.27000000    14.51000000
   H     53.91000000    51.64000000    15.61000000
   N     57.04000000    48.90000000    13.17000000
   C     57.68000000    48.25000000    12.04000000
   C     58.80000000    49.15000000    11.54000000
   O     59.76000000    48.70000000    10.92000000
   C     56.65000000    47.94000000    10.97000000
   C     55.52000000    47.03000000    11.46000000
   C     54.40000000    46.86000000    10.45000000
   O     54.23000000    47.70000000     9.53000000
   O     53.45000000    46.07000000    10.66000000
   H     56.15000000    49.29000000    12.91000000
   H     58.21000000    47.31000000    12.20000000
   H     57.12000000    47.35000000    10.18000000
   H     56.30000000    48.88000000    10.55000000
   H     55.13000000    47.32000000    12.44000000
   H     55.88000000    46.01000000    11.64000000
   N     58.85000000    50.41000000    11.97000000
   C     59.82000000    51.47000000    11.78000000
   H     60.73200000    51.05500000    11.35000000
   H     59.41000000    52.22100000    11.10500000
   H     60.04900000    51.93000000    12.74100000
   H     58.06000000    50.68000000    12.53000000
  Ca     51.92000000    47.04000000     8.72000000
   O     51.19000000    49.53000000     7.91000000
   H     50.86000000    49.82000000     7.06000000
   H     50.91000000    50.22000000     8.51000000

Ca 1.00



