%chk=loop2.holoCaM-CaMKII.run3.water2.chk
%nprocshared=20
%mem=10GB
%nosave
#b3lyp/svp scf=(tight,noincore,xqc) Test 
#IOP(5/87=12) Density=Current Pop=(MK,readradii) iop(6/33=2) iop(6/42=6)

loop2.holoCaM-CaMKII.run3.water2 

   -2  1 
   C     56.62000000    58.97000000    19.47000000
   C     57.27000000    59.45000000    18.18000000
   O     58.21000000    60.24000000    18.11000000
   H     55.61100000    58.61700000    19.25800000
   H     57.20800000    58.15500000    19.89200000
   H     56.57400000    59.79300000    20.18300000
   N     56.83000000    58.88000000    17.06000000
   C     57.42000000    58.89000000    15.73000000
   C     57.09000000    60.14000000    14.92000000
   O     55.92000000    60.46000000    14.73000000
   C     56.96000000    57.66000000    14.96000000
   C     57.83000000    57.45000000    13.72000000
   O     58.90000000    58.08000000    13.59000000
   O     57.45000000    56.56000000    12.93000000
   H     56.09000000    58.20000000    17.18000000
   H     58.50000000    58.91000000    15.89000000
   H     55.98000000    57.93000000    14.57000000
   H     56.96000000    56.76000000    15.57000000
   N     58.13000000    60.80000000    14.40000000
   C     57.90000000    61.91000000    13.49000000
   C     58.55000000    61.65000000    12.14000000
   O     58.69000000    62.61000000    11.39000000
   C     58.40000000    63.20000000    14.13000000
   H     59.09000000    60.56000000    14.58000000
   H     56.84000000    62.03000000    13.28000000
   H     59.48000000    63.31000000    13.95000000
   H     57.89000000    64.04000000    13.65000000
   H     58.21000000    63.24000000    15.20000000
   N     59.00000000    60.44000000    11.80000000
   C     59.65000000    60.06000000    10.56000000
   C     59.07000000    58.82000000     9.90000000
   O     58.77000000    58.93000000     8.71000000
   C     61.17000000    60.00000000    10.65000000
   C     61.78000000    59.10000000    11.72000000
   O     61.55000000    57.88000000    11.80000000
   O     62.35000000    59.63000000    12.70000000
   H     58.95000000    59.69000000    12.48000000
   H     59.48000000    60.90000000     9.88000000
   H     61.49000000    61.04000000    10.72000000
   H     61.46000000    59.69000000     9.64000000
   N     58.82000000    57.68000000    10.54000000
   C     58.54000000    56.45000000     9.83000000
   C     59.69000000    55.46000000     9.70000000
   O     59.66000000    54.67000000     8.75000000
   H     59.04000000    57.67000000    11.53000000
   H     58.39000000    56.69000000     8.78000000
   H     57.67000000    55.91000000    10.21000000
   N     60.78000000    55.50000000    10.47000000
   C     61.93000000    54.63000000    10.35000000
   C     61.86000000    53.32000000    11.11000000
   O     62.77000000    52.49000000    11.05000000
   C     63.18000000    55.42000000    10.74000000
   C     63.28000000    55.74000000    12.22000000
   N     64.22000000    56.65000000    12.51000000
   O     62.47000000    55.41000000    13.09000000
   H     60.81000000    56.28000000    11.11000000
   H     62.04000000    54.28000000     9.32000000
   H     63.30000000    56.36000000    10.19000000
   H     63.96000000    54.69000000    10.53000000
   H     64.78000000    56.96000000    11.73000000
   H     64.20000000    57.15000000    13.39000000
   N     60.81000000    53.14000000    11.91000000
   C     60.54000000    51.97000000    12.72000000
   C     61.27000000    51.84000000    14.05000000
   O     61.25000000    50.76000000    14.65000000
   H     60.02000000    53.76000000    11.84000000
   H     60.83000000    51.11000000    12.12000000
   H     59.45000000    51.95000000    12.79000000
   N     62.00000000    52.87000000    14.48000000
   C     62.86000000    53.01000000    15.64000000
   C     62.58000000    54.26000000    16.47000000
   O     62.09000000    55.22000000    15.88000000
   C     64.35000000    52.94000000    15.30000000
   C     64.75000000    51.57000000    14.75000000
   O     64.71000000    53.92000000    14.37000000
   H     61.90000000    53.68000000    13.89000000
   H     62.71000000    52.22000000    16.38000000
   H     64.89000000    53.10000000    16.23000000
   H     64.12000000    54.68000000    14.42000000
   H     65.81000000    51.39000000    14.60000000
   H     64.39000000    50.85000000    15.49000000
   H     64.13000000    51.43000000    13.86000000
   N     62.88000000    54.31000000    17.77000000
   C     62.80000000    55.54000000    18.52000000
   C     64.19000000    56.15000000    18.43000000
   O     65.20000000    55.56000000    18.82000000
   C     62.49000000    55.43000000    20.01000000
   C     61.15000000    54.78000000    20.37000000
   C     62.58000000    56.74000000    20.78000000
   C     60.98000000    54.06000000    21.70000000
   H     63.26000000    53.51000000    18.25000000
   H     62.05000000    56.19000000    18.08000000
   H     63.23000000    54.73000000    20.40000000
   H     60.95000000    53.99000000    19.64000000
   H     60.37000000    55.51000000    20.14000000
   H     62.21000000    56.59000000    21.79000000
   H     63.59000000    57.15000000    20.69000000
   H     61.80000000    57.30000000    20.26000000
   H     59.90000000    53.95000000    21.79000000
   H     61.48000000    53.11000000    21.86000000
   H     61.31000000    54.70000000    22.52000000
   N     64.22000000    57.40000000    17.95000000
   C     65.38000000    58.25000000    17.79000000
   C     65.64000000    59.06000000    19.05000000
   O     64.68000000    59.41000000    19.74000000
   C     65.24000000    59.15000000    16.57000000
   C     64.92000000    58.25000000    15.39000000
   O     63.79000000    57.85000000    15.05000000
   O     65.89000000    57.98000000    14.65000000
   H     63.34000000    57.74000000    17.58000000
   H     66.23000000    57.60000000    17.55000000
   H     66.13000000    59.76000000    16.46000000
   H     64.36000000    59.78000000    16.67000000
   N     66.88000000    59.51000000    19.25000000
   C     67.18000000    60.44000000    20.33000000
   C     66.25000000    61.65000000    20.34000000
   O     65.84000000    61.91000000    21.47000000
   C     68.63000000    60.88000000    20.23000000
   C     69.23000000    61.41000000    21.51000000
   C     69.82000000    62.68000000    21.59000000
   C     69.24000000    60.59000000    22.65000000
   C     70.17000000    63.21000000    22.84000000
   C     69.54000000    61.11000000    23.91000000
   C     70.05000000    62.41000000    23.99000000
   H     67.56000000    59.20000000    18.58000000
   H     67.10000000    59.90000000    21.27000000
   H     68.82000000    61.69000000    19.52000000
   H     69.16000000    59.99000000    19.89000000
   H     69.77000000    63.31000000    20.72000000
   H     68.90000000    59.57000000    22.56000000
   H     70.34000000    64.27000000    22.91000000
   H     69.31000000    60.53000000    24.79000000
   H     70.24000000    62.93000000    24.91000000
   N     65.91000000    62.39000000    19.28000000
   C     65.20000000    63.63000000    19.52000000
   C     63.73000000    63.35000000    19.77000000
   O     62.98000000    64.11000000    20.38000000
   C     65.54000000    64.61000000    18.40000000
   C     66.67000000    63.91000000    17.64000000
   C     66.50000000    62.42000000    17.96000000
   H     65.71000000    64.08000000    20.37000000
   H     64.67000000    64.73000000    17.76000000
   H     65.85000000    65.60000000    18.74000000
   H     66.61000000    63.99000000    16.56000000
   H     67.65000000    64.24000000    17.97000000
   H     65.76000000    61.95000000    17.32000000
   H     67.47000000    61.94000000    17.82000000
   N     63.27000000    62.14000000    19.45000000
   C     61.95000000    61.66000000    19.82000000
   C     61.92000000    61.38000000    21.31000000
   O     60.95000000    61.78000000    21.94000000
   C     61.65000000    60.43000000    18.97000000
   C     61.58000000    60.72000000    17.47000000
   C     61.14000000    59.58000000    16.57000000
   O     60.62000000    59.88000000    15.47000000
   O     61.46000000    58.40000000    16.85000000
   H     63.92000000    61.51000000    18.99000000
   H     61.20000000    62.41000000    19.60000000
   H     60.69000000    60.06000000    19.33000000
   H     62.34000000    59.62000000    19.21000000
   H     62.52000000    61.02000000    17.00000000
   H     61.03000000    61.64000000    17.27000000
   N     62.92000000    60.72000000    21.92000000
   C     63.04000000    60.46000000    23.34000000
   H     63.57400000    61.28300000    23.81600000
   H     62.04600000    60.37100000    23.77900000
   H     63.59100000    59.53200000    23.49500000
   H     63.57000000    60.34000000    21.25000000
  Ca     61.37000000    57.33000000    14.52000000
   O     59.69000000    56.39000000    16.71000000
   H     60.13000000    57.07000000    17.22000000
   H     59.15000000    55.92000000    17.34000000
   O     59.76000000    54.96000000    14.21000000
   H     59.00000000    54.58000000    13.77000000
   H     59.58000000    54.86000000    15.14000000

Ca 1.00



