%chk=loop2.holoCaM-CaMKII.run23.water2.chk
%nprocshared=20
%mem=10GB
%nosave
#b3lyp/svp scf=(tight,noincore,xqc) Test 
#IOP(5/87=12) Density=Current Pop=(MK,readradii) iop(6/33=2) iop(6/42=6)

loop2.holoCaM-CaMKII.run23.water2 

   -2  1 
   C     90.22000000    62.28000000     7.46000000
   C     91.69000000    61.97000000     7.22000000
   O     92.48000000    62.09000000     8.16000000
   H     89.62300000    61.39200000     7.25300000
   H     90.07600000    62.58000000     8.49800000
   H     89.90600000    63.08900000     6.80100000
   N     92.02000000    61.36000000     6.08000000
   C     93.26000000    60.70000000     5.75000000
   C     94.46000000    61.63000000     5.66000000
   O     94.37000000    62.76000000     5.19000000
   C     93.14000000    60.01000000     4.39000000
   C     94.48000000    59.33000000     4.14000000
   O     95.03000000    58.59000000     4.97000000
   O     94.99000000    59.44000000     3.00000000
   H     91.29000000    61.18000000     5.40000000
   H     93.45000000    59.91000000     6.48000000
   H     92.90000000    60.80000000     3.68000000
   H     92.37000000    59.24000000     4.38000000
   N     95.66000000    61.26000000     6.13000000
   C     96.92000000    61.94000000     5.95000000
   C     98.05000000    61.07000000     5.42000000
   O     99.17000000    61.56000000     5.29000000
   C     97.37000000    62.53000000     7.29000000
   H     95.67000000    60.36000000     6.59000000
   H     96.77000000    62.76000000     5.25000000
   H     97.50000000    61.71000000     8.00000000
   H     98.29000000    63.11000000     7.14000000
   H     96.61000000    63.23000000     7.63000000
   N     97.90000000    59.79000000     5.08000000
   C     98.97000000    58.90000000     4.67000000
   C     98.72000000    58.08000000     3.41000000
   O     99.78000000    57.72000000     2.91000000
   C     99.21000000    58.01000000     5.88000000
   C     97.96000000    57.29000000     6.37000000
   O     97.08000000    56.86000000     5.60000000
   O     97.82000000    57.15000000     7.61000000
   H     97.06000000    59.30000000     5.37000000
   H     99.91000000    59.40000000     4.42000000
   H     99.71000000    58.56000000     6.68000000
   H     99.93000000    57.25000000     5.57000000
   N     97.46000000    57.86000000     3.04000000
   C     97.05000000    57.04000000     1.92000000
   C     97.05000000    55.53000000     2.13000000
   O     97.02000000    54.72000000     1.21000000
   H     96.74000000    58.41000000     3.49000000
   H     97.79000000    57.17000000     1.13000000
   H     96.07000000    57.44000000     1.65000000
   N     97.14000000    55.08000000     3.39000000
   C     97.10000000    53.70000000     3.81000000
   C     95.78000000    52.95000000     3.65000000
   O     95.69000000    51.74000000     3.80000000
   C     97.83000000    53.49000000     5.13000000
   C     96.99000000    53.74000000     6.38000000
   N     97.62000000    53.57000000     7.55000000
   O     95.79000000    53.98000000     6.35000000
   H     97.25000000    55.72000000     4.17000000
   H     97.72000000    53.24000000     3.04000000
   H     98.75000000    54.06000000     5.16000000
   H     98.09000000    52.44000000     5.01000000
   H     98.59000000    53.31000000     7.58000000
   H     97.14000000    53.77000000     8.42000000
   N     94.68000000    53.62000000     3.30000000
   C     93.35000000    53.11000000     3.05000000
   C     92.57000000    52.58000000     4.24000000
   O     91.58000000    51.85000000     4.13000000
   H     94.78000000    54.63000000     3.28000000
   H     93.49000000    52.25000000     2.38000000
   H     92.70000000    53.81000000     2.53000000
   N     93.10000000    52.88000000     5.42000000
   C     92.52000000    52.42000000     6.66000000
   C     92.49000000    53.64000000     7.57000000
   O     93.29000000    54.57000000     7.47000000
   C     93.25000000    51.22000000     7.26000000
   C     93.01000000    49.95000000     6.44000000
   O     94.63000000    51.52000000     7.38000000
   H     93.95000000    53.43000000     5.39000000
   H     91.50000000    52.05000000     6.53000000
   H     92.86000000    50.99000000     8.25000000
   H     94.77000000    52.43000000     7.11000000
   H     93.65000000    50.09000000     5.57000000
   H     93.34000000    49.05000000     6.96000000
   H     91.98000000    49.86000000     6.11000000
   N     91.68000000    53.53000000     8.63000000
   C     91.70000000    54.38000000     9.81000000
   C     92.73000000    53.94000000    10.84000000
   O     92.52000000    52.81000000    11.27000000
   C     90.30000000    54.42000000    10.42000000
   C     89.30000000    55.04000000     9.45000000
   C     90.35000000    55.27000000    11.68000000
   C     89.44000000    56.55000000     9.24000000
   H     91.01000000    52.78000000     8.69000000
   H     92.02000000    55.38000000     9.51000000
   H     89.92000000    53.41000000    10.61000000
   H     88.31000000    54.77000000     9.83000000
   H     89.35000000    54.71000000     8.41000000
   H     89.35000000    55.62000000    11.94000000
   H     90.86000000    54.80000000    12.52000000
   H     90.78000000    56.27000000    11.57000000
   H     89.20000000    57.14000000    10.12000000
   H     90.43000000    56.70000000     8.82000000
   H     88.69000000    56.86000000     8.52000000
   N     93.56000000    54.93000000    11.17000000
   C     94.59000000    55.08000000    12.18000000
   C     94.20000000    55.90000000    13.40000000
   O     93.49000000    56.89000000    13.32000000
   C     95.74000000    55.77000000    11.45000000
   C     96.29000000    55.09000000    10.20000000
   O     95.71000000    55.30000000     9.11000000
   O     97.29000000    54.35000000    10.29000000
   H     93.38000000    55.77000000    10.65000000
   H     94.91000000    54.12000000    12.59000000
   H     96.48000000    55.83000000    12.24000000
   H     95.47000000    56.82000000    11.27000000
   N     94.75000000    55.55000000    14.57000000
   C     94.25000000    56.17000000    15.78000000
   C     94.23000000    57.69000000    15.85000000
   O     93.25000000    58.23000000    16.35000000
   C     94.88000000    55.48000000    16.99000000
   C     94.34000000    55.97000000    18.31000000
   C     95.11000000    56.87000000    19.06000000
   C     93.06000000    55.61000000    18.77000000
   C     94.65000000    57.23000000    20.33000000
   C     92.73000000    55.91000000    20.10000000
   C     93.47000000    56.76000000    20.92000000
   H     95.32000000    54.72000000    14.63000000
   H     93.22000000    55.84000000    15.87000000
   H     95.94000000    55.72000000    17.06000000
   H     94.70000000    54.40000000    16.95000000
   H     96.11000000    57.18000000    18.80000000
   H     92.44000000    54.95000000    18.18000000
   H     95.35000000    57.82000000    20.90000000
   H     91.76000000    55.56000000    20.41000000
   H     93.11000000    56.98000000    21.91000000
   N     95.26000000    58.40000000    15.39000000
   C     95.28000000    59.84000000    15.24000000
   C     94.19000000    60.41000000    14.34000000
   O     93.72000000    61.47000000    14.74000000
   C     96.64000000    60.20000000    14.64000000
   C     97.53000000    59.08000000    15.16000000
   C     96.58000000    57.90000000    15.02000000
   H     95.19000000    60.33000000    16.21000000
   H     96.47000000    60.18000000    13.57000000
   H     96.89000000    61.24000000    14.88000000
   H     98.42000000    58.89000000    14.55000000
   H     97.71000000    59.27000000    16.22000000
   H     96.57000000    57.55000000    13.99000000
   H     96.92000000    57.13000000    15.71000000
   N     93.77000000    59.75000000    13.26000000
   C     92.73000000    60.15000000    12.34000000
   C     91.40000000    59.74000000    12.97000000
   O     90.53000000    60.60000000    13.06000000
   C     92.86000000    59.39000000    11.02000000
   C     94.23000000    59.49000000    10.36000000
   C     94.24000000    58.83000000     8.99000000
   O     95.18000000    59.09000000     8.19000000
   O     93.48000000    57.88000000     8.72000000
   H     94.15000000    58.85000000    13.02000000
   H     92.82000000    61.22000000    12.18000000
   H     92.07000000    59.68000000    10.32000000
   H     92.77000000    58.32000000    11.23000000
   H     94.98000000    58.95000000    10.93000000
   H     94.49000000    60.55000000    10.45000000
   N     91.26000000    58.61000000    13.66000000
   C     90.20000000    58.28000000    14.59000000
   H     89.29800000    58.02100000    14.03500000
   H     90.50500000    57.43200000    15.20300000
   H     89.99800000    59.13800000    15.23100000
   H     92.00000000    57.92000000    13.66000000
  Ca     94.92000000    56.68000000     7.01000000
   O     92.44000000    57.50000000     6.39000000
   H     91.51000000    57.65000000     6.21000000
   H     92.59000000    57.94000000     7.23000000
   O     94.21000000    56.22000000     4.18000000
   H     93.60000000    56.32000000     3.45000000
   H     94.75000000    57.00000000     4.16000000

Ca 1.00



