%chk=loop2.holoCaM.run4.water1.chk
%nprocshared=20
%mem=10GB
%nosave
#b3lyp/svp scf=(tight,noincore,xqc) Test 
#IOP(5/87=12) Density=Current Pop=(MK,readradii) iop(6/33=2) iop(6/42=6)

loop2.holoCaM.run4.water1 

   -2  1 
   C     48.13000000    31.28000000    13.49000000
   C     49.18000000    31.48000000    12.41000000
   O     48.84000000    32.17000000    11.44000000
   H     47.20300000    30.93200000    13.03500000
   H     48.48200000    30.53800000    14.20700000
   H     47.95000000    32.22500000    14.00200000
   N     50.42000000    31.02000000    12.56000000
   C     51.60000000    31.31000000    11.76000000
   C     51.52000000    30.82000000    10.32000000
   O     51.52000000    29.62000000    10.05000000
   C     52.68000000    30.56000000    12.53000000
   C     54.01000000    30.89000000    11.87000000
   O     54.10000000    31.87000000    11.10000000
   O     54.93000000    30.08000000    12.11000000
   H     50.57000000    30.39000000    13.33000000
   H     51.77000000    32.39000000    11.76000000
   H     52.39000000    29.51000000    12.60000000
   H     52.72000000    30.93000000    13.55000000
   N     51.24000000    31.76000000     9.41000000
   C     50.57000000    31.55000000     8.15000000
   C     51.57000000    31.46000000     7.01000000
   O     51.36000000    30.64000000     6.12000000
   C     49.49000000    32.59000000     7.86000000
   H     51.43000000    32.72000000     9.66000000
   H     50.11000000    30.56000000     8.18000000
   H     48.99000000    32.80000000     8.81000000
   H     49.83000000    33.57000000     7.54000000
   H     48.76000000    32.15000000     7.18000000
   N     52.69000000    32.18000000     7.07000000
   C     53.93000000    31.85000000     6.40000000
   C     54.71000000    30.73000000     7.06000000
   O     55.70000000    30.25000000     6.49000000
   C     54.78000000    33.12000000     6.27000000
   C     55.12000000    33.88000000     7.55000000
   O     55.56000000    35.03000000     7.33000000
   O     55.03000000    33.29000000     8.65000000
   H     52.76000000    33.01000000     7.65000000
   H     53.68000000    31.54000000     5.39000000
   H     54.48000000    33.81000000     5.49000000
   H     55.69000000    32.71000000     5.84000000
   N     54.38000000    30.24000000     8.25000000
   C     54.95000000    29.05000000     8.86000000
   C     56.43000000    29.18000000     9.18000000
   O     57.20000000    28.45000000     8.57000000
   H     53.58000000    30.63000000     8.72000000
   H     54.84000000    28.25000000     8.14000000
   H     54.44000000    28.78000000     9.79000000
   N     56.82000000    30.19000000     9.98000000
   C     58.22000000    30.44000000    10.20000000
   C     58.57000000    30.33000000    11.68000000
   O     59.74000000    30.52000000    12.00000000
   C     58.51000000    31.81000000     9.60000000
   C     57.93000000    33.05000000    10.27000000
   N     58.36000000    34.25000000     9.90000000
   O     56.99000000    32.97000000    11.07000000
   H     56.15000000    30.89000000    10.28000000
   H     58.88000000    29.76000000     9.65000000
   H     58.10000000    31.81000000     8.59000000
   H     59.58000000    31.98000000     9.59000000
   H     59.08000000    34.35000000     9.20000000
   H     57.93000000    35.04000000    10.37000000
   N     57.64000000    29.99000000    12.59000000
   C     57.91000000    29.94000000    14.01000000
   C     58.05000000    31.27000000    14.72000000
   O     58.40000000    31.29000000    15.90000000
   H     56.68000000    29.88000000    12.31000000
   H     58.85000000    29.45000000    14.27000000
   H     57.06000000    29.53000000    14.56000000
   N     57.59000000    32.37000000    14.12000000
   C     57.34000000    33.65000000    14.75000000
   C     55.97000000    34.25000000    14.43000000
   O     55.24000000    33.77000000    13.56000000
   C     58.40000000    34.71000000    14.44000000
   C     59.76000000    34.26000000    14.94000000
   O     58.43000000    35.04000000    13.07000000
   H     57.24000000    32.28000000    13.18000000
   H     57.28000000    33.40000000    15.81000000
   H     58.25000000    35.61000000    15.03000000
   H     59.33000000    35.22000000    12.77000000
   H     60.08000000    33.48000000    14.25000000
   H     60.46000000    35.10000000    14.86000000
   H     59.78000000    33.93000000    15.98000000
   N     55.63000000    35.30000000    15.18000000
   C     54.36000000    35.98000000    15.03000000
   C     54.51000000    37.34000000    14.38000000
   O     55.41000000    38.09000000    14.76000000
   C     53.78000000    36.20000000    16.42000000
   C     53.19000000    34.92000000    17.02000000
   C     52.74000000    37.31000000    16.54000000
   C     52.06000000    34.24000000    16.25000000
   H     56.25000000    35.59000000    15.92000000
   H     53.57000000    35.45000000    14.50000000
   H     54.58000000    36.50000000    17.10000000
   H     52.87000000    35.13000000    18.04000000
   H     54.07000000    34.29000000    17.12000000
   H     52.11000000    37.34000000    15.65000000
   H     52.06000000    37.16000000    17.38000000
   H     53.36000000    38.20000000    16.65000000
   H     52.46000000    34.01000000    15.27000000
   H     51.66000000    33.34000000    16.73000000
   H     51.28000000    35.00000000    16.19000000
   N     53.65000000    37.60000000    13.39000000
   C     53.42000000    38.86000000    12.71000000
   C     52.15000000    39.54000000    13.22000000
   O     51.33000000    38.93000000    13.90000000
   C     53.24000000    38.68000000    11.21000000
   C     54.25000000    37.87000000    10.40000000
   O     55.36000000    38.39000000    10.17000000
   O     53.99000000    36.70000000    10.04000000
   H     53.09000000    36.78000000    13.17000000
   H     54.30000000    39.49000000    12.76000000
   H     53.17000000    39.70000000    10.84000000
   H     52.24000000    38.35000000    10.93000000
   N     51.86000000    40.82000000    13.00000000
   C     50.78000000    41.61000000    13.56000000
   C     49.40000000    41.08000000    13.22000000
   O     48.58000000    40.96000000    14.14000000
   C     50.95000000    43.06000000    13.12000000
   C     49.94000000    43.95000000    13.81000000
   C     49.76000000    43.92000000    15.19000000
   C     49.18000000    44.83000000    13.03000000
   C     48.73000000    44.67000000    15.77000000
   C     48.23000000    45.67000000    13.63000000
   C     47.92000000    45.52000000    14.99000000
   H     52.47000000    41.39000000    12.42000000
   H     50.89000000    41.48000000    14.63000000
   H     50.91000000    43.25000000    12.05000000
   H     51.93000000    43.48000000    13.39000000
   H     50.32000000    43.26000000    15.84000000
   H     49.23000000    44.84000000    11.95000000
   H     48.41000000    44.55000000    16.79000000
   H     47.61000000    46.33000000    13.04000000
   H     47.17000000    46.14000000    15.44000000
   N     49.11000000    40.54000000    12.03000000
   C     47.89000000    39.85000000    11.69000000
   C     47.67000000    38.55000000    12.45000000
   O     46.54000000    38.29000000    12.86000000
   C     47.94000000    39.59000000    10.19000000
   C     48.83000000    40.69000000     9.62000000
   C     49.79000000    40.89000000    10.80000000
   H     47.03000000    40.49000000    11.88000000
   H     48.44000000    38.64000000    10.00000000
   H     46.97000000    39.59000000     9.69000000
   H     49.43000000    40.35000000     8.78000000
   H     48.31000000    41.63000000     9.49000000
   H     50.67000000    40.27000000    10.65000000
   H     49.99000000    41.96000000    10.74000000
   N     48.76000000    37.80000000    12.65000000
   C     48.70000000    36.56000000    13.40000000
   C     48.54000000    36.83000000    14.89000000
   O     47.64000000    36.27000000    15.52000000
   C     50.02000000    35.82000000    13.22000000
   C     50.22000000    35.32000000    11.79000000
   C     51.65000000    34.88000000    11.51000000
   O     52.60000000    35.09000000    12.30000000
   O     51.89000000    34.24000000    10.46000000
   H     49.64000000    38.09000000    12.26000000
   H     47.92000000    35.90000000    13.03000000
   H     49.96000000    34.92000000    13.83000000
   H     50.90000000    36.40000000    13.50000000
   H     50.04000000    36.11000000    11.05000000
   H     49.69000000    34.38000000    11.69000000
   N     49.31000000    37.77000000    15.45000000
   C     49.16000000    38.27000000    16.80000000
   H     48.10400000    38.27200000    17.07100000
   H     49.71000000    37.62800000    17.48900000
   H     49.55200000    39.28600000    16.85800000
   H     50.02000000    38.16000000    14.85000000
  Ca     54.54000000    34.31000000    10.83000000
   O     56.07000000    36.10000000    11.76000000
   H     55.76000000    37.00000000    11.68000000
   H     56.92000000    36.19000000    12.20000000

Ca 1.00



