%chk=loop2.apoCaM-CA-Ng.Init295.run38.water5.chk
%nprocshared=20
%mem=10GB
%nosave
#b3lyp/svp scf=(tight,noincore,xqc) Test 
#IOP(5/87=12) Density=Current Pop=(MK,readradii) iop(6/33=2) iop(6/42=6)

loop2.apoCaM-CA-Ng.Init295.run38.water5 

   -2  1 
   C     91.64000000    51.74000000    36.60000000
   C     92.70000000    51.60000000    35.52000000
   O     92.40000000    52.03000000    34.40000000
   H     90.71500000    51.27100000    36.26400000
   H     91.98300000    51.25200000    37.51200000
   H     91.46000000    52.79700000    36.79800000
   N     93.88000000    51.08000000    35.85000000
   C     94.99000000    51.08000000    34.91000000
   C     95.58000000    52.49000000    34.93000000
   O     96.16000000    52.88000000    35.94000000
   C     95.98000000    49.95000000    35.14000000
   C     97.07000000    49.88000000    34.08000000
   O     98.12000000    49.30000000    34.40000000
   O     96.86000000    50.36000000    32.94000000
   H     94.13000000    50.72000000    36.76000000
   H     94.62000000    50.97000000    33.89000000
   H     95.42000000    49.03000000    34.98000000
   H     96.41000000    50.04000000    36.14000000
   N     95.32000000    53.23000000    33.85000000
   C     95.65000000    54.63000000    33.68000000
   C     94.78000000    55.51000000    34.56000000
   O     93.61000000    55.25000000    34.83000000
   C     95.63000000    55.05000000    32.21000000
   H     94.70000000    52.87000000    33.15000000
   H     96.67000000    54.76000000    34.04000000
   H     94.64000000    54.80000000    31.83000000
   H     95.86000000    56.11000000    32.11000000
   H     96.38000000    54.48000000    31.67000000
   N     95.23000000    56.64000000    35.12000000
   C     96.43000000    57.42000000    34.91000000
   C     97.40000000    57.40000000    36.09000000
   O     96.93000000    57.39000000    37.23000000
   C     96.13000000    58.88000000    34.58000000
   C     95.12000000    59.00000000    33.45000000
   O     94.03000000    59.57000000    33.71000000
   O     95.42000000    58.63000000    32.30000000
   H     94.47000000    57.10000000    35.60000000
   H     96.92000000    56.98000000    34.04000000
   H     97.02000000    59.49000000    34.43000000
   H     95.63000000    59.22000000    35.49000000
   N     98.72000000    57.49000000    35.94000000
   C     99.62000000    57.00000000    36.97000000
   C     99.72000000    55.50000000    37.19000000
   O     99.46000000    54.72000000    36.27000000
   H     99.10000000    57.45000000    35.00000000
   H     99.36000000    57.35000000    37.96000000
   H    100.65000000    57.32000000    36.82000000
   N    100.32000000    54.92000000    38.24000000
   C    100.92000000    55.59000000    39.37000000
   C     99.86000000    56.11000000    40.33000000
   O    100.25000000    56.71000000    41.33000000
   C    101.89000000    54.64000000    40.07000000
   C    103.00000000    54.15000000    39.16000000
   N    104.02000000    54.97000000    38.89000000
   O    103.05000000    52.97000000    38.81000000
   H    100.29000000    53.91000000    38.32000000
   H    101.41000000    56.52000000    39.08000000
   H    101.33000000    53.79000000    40.48000000
   H    102.38000000    55.12000000    40.91000000
   H    103.95000000    55.95000000    39.12000000
   H    104.67000000    54.69000000    38.17000000
   N     98.54000000    55.96000000    40.17000000
   C     97.41000000    56.35000000    40.99000000
   C     97.28000000    57.87000000    41.12000000
   O     97.31000000    58.40000000    42.23000000
   H     98.23000000    55.43000000    39.37000000
   H     97.61000000    55.88000000    41.95000000
   H     96.49000000    55.86000000    40.68000000
   N     97.01000000    58.48000000    39.97000000
   C     97.01000000    59.90000000    39.66000000
   C     95.63000000    60.39000000    39.26000000
   O     95.53000000    61.09000000    38.26000000
   C     98.12000000    60.23000000    38.67000000
   C     98.45000000    61.72000000    38.61000000
   O     99.35000000    59.58000000    38.89000000
   H     96.95000000    57.88000000    39.16000000
   H     97.27000000    60.37000000    40.61000000
   H     97.80000000    59.93000000    37.67000000
   H     99.99000000    59.84000000    38.22000000
   H     99.12000000    61.72000000    37.75000000
   H     97.57000000    62.31000000    38.37000000
   H     98.92000000    62.01000000    39.55000000
   N     94.66000000    59.92000000    40.05000000
   C     93.25000000    60.16000000    39.76000000
   C     92.73000000    61.38000000    40.52000000
   O     93.29000000    61.79000000    41.53000000
   C     92.36000000    58.97000000    40.10000000
   C     92.36000000    57.89000000    39.03000000
   C     92.76000000    58.34000000    41.42000000
   C     93.66000000    57.21000000    38.62000000
   H     94.91000000    59.34000000    40.83000000
   H     93.20000000    60.50000000    38.72000000
   H     91.34000000    59.36000000    40.19000000
   H     91.79000000    58.30000000    38.19000000
   H     91.71000000    57.09000000    39.39000000
   H     93.00000000    58.99000000    42.27000000
   H     91.97000000    57.68000000    41.79000000
   H     93.66000000    57.73000000    41.36000000
   H     94.21000000    56.77000000    39.45000000
   H     93.38000000    56.41000000    37.94000000
   H     94.37000000    57.86000000    38.10000000
   N     91.64000000    61.93000000    39.99000000
   C     90.99000000    63.12000000    40.52000000
   C     89.50000000    63.03000000    40.81000000
   O     88.89000000    62.46000000    39.91000000
   C     91.46000000    64.28000000    39.65000000
   C     91.49000000    64.00000000    38.16000000
   O     92.57000000    63.54000000    37.74000000
   O     90.62000000    64.47000000    37.39000000
   H     91.25000000    61.58000000    39.13000000
   H     91.43000000    63.34000000    41.50000000
   H     92.51000000    64.49000000    39.85000000
   H     90.97000000    65.23000000    39.90000000
   N     88.92000000    63.70000000    41.81000000
   C     87.49000000    63.89000000    41.93000000
   C     86.83000000    62.52000000    41.90000000
   O     87.19000000    61.67000000    42.72000000
   C     87.25000000    64.59000000    43.26000000
   C     85.79000000    64.85000000    43.56000000
   C     85.07000000    63.98000000    44.38000000
   C     85.10000000    65.94000000    43.02000000
   C     83.69000000    64.13000000    44.61000000
   C     83.76000000    66.21000000    43.35000000
   C     83.05000000    65.25000000    44.09000000
   H     89.50000000    64.30000000    42.39000000
   H     87.15000000    64.53000000    41.12000000
   H     87.78000000    65.54000000    43.33000000
   H     87.68000000    63.95000000    44.03000000
   H     85.59000000    63.09000000    44.70000000
   H     85.62000000    66.46000000    42.24000000
   H     83.14000000    63.35000000    45.12000000
   H     83.20000000    67.03000000    42.95000000
   H     82.00000000    65.45000000    44.23000000
   N     85.88000000    62.28000000    40.99000000
   C     85.10000000    61.07000000    40.88000000
   C     85.94000000    59.88000000    40.44000000
   O     85.54000000    58.73000000    40.60000000
   C     83.89000000    61.35000000    39.99000000
   C     84.55000000    62.27000000    38.97000000
   C     85.41000000    63.11000000    39.90000000
   H     84.69000000    60.83000000    41.86000000
   H     83.34000000    60.57000000    39.47000000
   H     83.24000000    61.91000000    40.66000000
   H     85.17000000    61.63000000    38.34000000
   H     83.76000000    62.81000000    38.45000000
   H     86.25000000    63.48000000    39.31000000
   H     84.78000000    63.93000000    40.25000000
   N     87.07000000    60.10000000    39.76000000
   C     87.96000000    59.05000000    39.31000000
   C     88.44000000    58.25000000    40.50000000
   O     88.48000000    57.02000000    40.45000000
   C     89.12000000    59.61000000    38.48000000
   C     88.69000000    60.44000000    37.27000000
   C     89.73000000    61.12000000    36.40000000
   O     89.34000000    61.87000000    35.48000000
   O     90.97000000    61.01000000    36.56000000
   H     87.39000000    61.03000000    39.53000000
   H     87.51000000    58.40000000    38.55000000
   H     89.71000000    58.77000000    38.11000000
   H     89.80000000    60.27000000    39.01000000
   H     88.12000000    61.29000000    37.63000000
   H     88.01000000    59.76000000    36.76000000
   N     88.71000000    58.90000000    41.64000000
   C     89.12000000    58.16000000    42.81000000
   H     89.99400000    58.63700000    43.25300000
   H     88.30700000    58.14700000    43.53600000
   H     89.37000000    57.13800000    42.52500000
   H     88.34000000    59.83000000    41.78000000
  Ca     91.77000000    63.13000000    35.19000000
   O     92.95000000    63.52000000    32.69000000
   H     93.59000000    64.23000000    32.57000000
   H     92.21000000    63.79000000    32.15000000
   O     91.61000000    60.87000000    33.76000000
   H     90.82000000    60.33000000    33.76000000
   H     92.19000000    60.45000000    33.13000000
   O     90.29000000    64.31000000    33.05000000
   H     90.43000000    65.25000000    33.13000000
   H     89.34000000    64.21000000    33.07000000
   O     93.82000000    61.33000000    35.80000000
   H     93.88000000    60.81000000    36.60000000
   H     93.95000000    60.70000000    35.09000000
   O     94.53000000    63.99000000    35.31000000
   H     94.93000000    63.99000000    36.18000000
   H     95.26000000    64.05000000    34.71000000

Ca 1.00



