%chk=loop2.apoCaM-CA-Ng.Init295.run40.water4.chk
%nprocshared=20
%mem=10GB
%nosave
#b3lyp/svp scf=(tight,noincore,xqc) Test 
#IOP(5/87=12) Density=Current Pop=(MK,readradii) iop(6/33=2) iop(6/42=6)

loop2.apoCaM-CA-Ng.Init295.run40.water4 

   -2  1 
   C     88.78000000    53.39000000    45.26000000
   C     90.04000000    53.95000000    44.62000000
   O     89.92000000    54.78000000    43.72000000
   H     87.96100000    53.42800000    44.54200000
   H     88.95200000    52.35600000    45.55900000
   H     88.52200000    53.98400000    46.13700000
   N     91.24000000    53.59000000    45.08000000
   C     92.53000000    54.16000000    44.73000000
   C     92.82000000    55.46000000    45.47000000
   O     94.00000000    55.79000000    45.51000000
   C     93.60000000    53.07000000    44.79000000
   C     93.83000000    52.18000000    43.59000000
   O     93.28000000    52.40000000    42.49000000
   O     94.58000000    51.18000000    43.66000000
   H     91.29000000    52.95000000    45.86000000
   H     92.47000000    54.46000000    43.69000000
   H     93.36000000    52.39000000    45.61000000
   H     94.56000000    53.56000000    44.98000000
   N     91.82000000    56.14000000    46.04000000
   C     91.94000000    57.55000000    46.32000000
   C     90.83000000    58.11000000    47.20000000
   O     89.69000000    57.67000000    47.09000000
   C     91.93000000    58.41000000    45.05000000
   H     90.92000000    55.70000000    45.88000000
   H     92.89000000    57.72000000    46.82000000
   H     91.08000000    58.28000000    44.38000000
   H     92.00000000    59.47000000    45.29000000
   H     92.82000000    58.26000000    44.44000000
   N     91.00000000    59.10000000    48.08000000
   C     92.19000000    59.89000000    48.29000000
   C     92.84000000    59.40000000    49.57000000
   O     92.31000000    58.60000000    50.33000000
   C     91.98000000    61.41000000    48.30000000
   C     91.05000000    61.89000000    47.20000000
   O     91.57000000    62.17000000    46.09000000
   O     89.86000000    62.07000000    47.52000000
   H     90.21000000    59.32000000    48.68000000
   H     92.97000000    59.74000000    47.55000000
   H     92.96000000    61.88000000    48.30000000
   H     91.62000000    61.76000000    49.26000000
   N     94.07000000    59.80000000    49.93000000
   C     94.96000000    58.90000000    50.63000000
   C     95.20000000    57.53000000    50.02000000
   O     95.26000000    57.43000000    48.80000000
   H     94.61000000    60.53000000    49.48000000
   H     94.57000000    58.81000000    51.65000000
   H     95.95000000    59.33000000    50.77000000
   N     95.31000000    56.47000000    50.83000000
   C     95.51000000    56.39000000    52.26000000
   C     94.23000000    56.65000000    53.05000000
   O     94.26000000    56.79000000    54.27000000
   C     96.17000000    55.07000000    52.62000000
   C     97.60000000    54.91000000    52.14000000
   N     98.50000000    55.84000000    52.47000000
   O     97.94000000    53.97000000    51.42000000
   H     95.39000000    55.60000000    50.33000000
   H     96.16000000    57.23000000    52.51000000
   H     95.56000000    54.20000000    52.34000000
   H     96.22000000    55.14000000    53.71000000
   H     98.30000000    56.70000000    52.95000000
   H     99.47000000    55.71000000    52.20000000
   N     93.04000000    56.63000000    52.44000000
   C     91.77000000    56.72000000    53.12000000
   C     91.57000000    58.04000000    53.85000000
   O     91.50000000    58.06000000    55.08000000
   H     92.98000000    56.51000000    51.43000000
   H     91.64000000    55.90000000    53.82000000
   H     90.93000000    56.58000000    52.43000000
   N     91.49000000    59.09000000    53.02000000
   C     91.09000000    60.46000000    53.23000000
   C     89.77000000    60.66000000    52.50000000
   O     89.63000000    61.42000000    51.55000000
   C     92.19000000    61.39000000    52.73000000
   C     91.99000000    62.87000000    53.06000000
   O     93.47000000    61.06000000    53.22000000
   H     91.49000000    58.77000000    52.06000000
   H     90.97000000    60.61000000    54.31000000
   H     92.32000000    61.25000000    51.66000000
   H     94.08000000    61.73000000    52.93000000
   H     92.89000000    63.47000000    52.92000000
   H     91.23000000    63.32000000    52.42000000
   H     91.63000000    63.00000000    54.07000000
   N     88.78000000    59.85000000    52.89000000
   C     87.37000000    59.97000000    52.56000000
   C     86.64000000    61.01000000    53.40000000
   O     86.96000000    61.25000000    54.56000000
   C     86.69000000    58.61000000    52.60000000
   C     86.84000000    57.79000000    51.32000000
   C     87.09000000    57.80000000    53.83000000
   C     88.19000000    57.27000000    50.85000000
   H     88.91000000    59.27000000    53.71000000
   H     87.34000000    60.36000000    51.54000000
   H     85.65000000    58.91000000    52.65000000
   H     86.49000000    58.39000000    50.48000000
   H     86.20000000    56.90000000    51.40000000
   H     86.61000000    58.33000000    54.66000000
   H     86.61000000    56.83000000    53.74000000
   H     88.17000000    57.68000000    53.87000000
   H     88.02000000    56.56000000    50.04000000
   H     88.86000000    57.98000000    50.37000000
   H     88.72000000    56.72000000    51.63000000
   N     85.68000000    61.64000000    52.72000000
   C     84.71000000    62.54000000    53.30000000
   C     83.32000000    62.39000000    52.71000000
   O     83.05000000    62.41000000    51.51000000
   C     85.25000000    63.97000000    53.37000000
   C     85.92000000    64.39000000    52.07000000
   O     87.11000000    64.13000000    51.82000000
   O     85.25000000    64.95000000    51.17000000
   H     85.62000000    61.44000000    51.73000000
   H     84.59000000    62.27000000    54.35000000
   H     86.01000000    64.10000000    54.14000000
   H     84.42000000    64.65000000    53.53000000
   N     82.36000000    62.35000000    53.64000000
   C     80.95000000    62.16000000    53.32000000
   C     80.76000000    60.84000000    52.59000000
   O     81.28000000    59.81000000    52.99000000
   C     80.13000000    62.26000000    54.60000000
   C     78.67000000    62.15000000    54.23000000
   C     78.04000000    60.89000000    54.23000000
   C     78.00000000    63.31000000    53.84000000
   C     76.73000000    60.75000000    53.76000000
   C     76.73000000    63.15000000    53.27000000
   C     76.15000000    61.88000000    53.18000000
   H     82.58000000    62.52000000    54.61000000
   H     80.60000000    63.03000000    52.77000000
   H     80.31000000    63.15000000    55.20000000
   H     80.31000000    61.43000000    55.28000000
   H     78.59000000    60.01000000    54.53000000
   H     78.51000000    64.26000000    53.86000000
   H     76.24000000    59.80000000    53.63000000
   H     76.13000000    63.97000000    52.90000000
   H     75.22000000    61.77000000    52.63000000
   N     80.01000000    60.78000000    51.48000000
   C     79.59000000    59.52000000    50.89000000
   C     80.63000000    58.88000000    49.99000000
   O     80.48000000    57.79000000    49.44000000
   C     78.30000000    59.79000000    50.13000000
   C     78.39000000    61.28000000    49.83000000
   C     79.32000000    61.90000000    50.87000000
   H     79.40000000    58.86000000    51.74000000
   H     78.10000000    59.20000000    49.23000000
   H     77.52000000    59.71000000    50.88000000
   H     78.82000000    61.53000000    48.86000000
   H     77.40000000    61.73000000    49.89000000
   H     80.07000000    62.50000000    50.36000000
   H     78.74000000    62.42000000    51.63000000
   N     81.83000000    59.45000000    49.88000000
   C     83.03000000    58.83000000    49.37000000
   C     83.42000000    57.60000000    50.19000000
   O     83.98000000    56.74000000    49.51000000
   C     84.18000000    59.82000000    49.52000000
   C     83.91000000    61.17000000    48.87000000
   C     84.94000000    62.28000000    48.95000000
   O     84.89000000    63.35000000    48.30000000
   O     85.95000000    62.16000000    49.69000000
   H     81.99000000    60.38000000    50.25000000
   H     82.90000000    58.46000000    48.35000000
   H     85.10000000    59.44000000    49.07000000
   H     84.47000000    59.95000000    50.56000000
   H     83.05000000    61.69000000    49.30000000
   H     83.73000000    61.04000000    47.81000000
   N     83.00000000    57.37000000    51.43000000
   C     83.14000000    56.08000000    52.08000000
   H     83.92800000    56.13600000    52.83100000
   H     82.19900000    55.81100000    52.56100000
   H     83.39900000    55.32500000    51.33800000
   H     82.57000000    58.09000000    51.99000000
  Ca     86.88000000    64.65000000    49.23000000
   O     89.33000000    65.82000000    48.65000000
   H     89.50000000    66.76000000    48.65000000
   H     89.83000000    65.48000000    47.91000000
   O     86.32000000    66.49000000    47.41000000
   H     86.35000000    66.36000000    46.46000000
   H     86.59000000    67.40000000    47.53000000
   O     87.68000000    63.66000000    46.77000000
   H     87.52000000    63.46000000    45.84000000
   H     88.45000000    63.14000000    46.99000000
   O     89.15000000    63.38000000    49.71000000
   H     89.20000000    62.82000000    50.48000000
   H     89.50000000    62.85000000    49.00000000

Ca 1.00



