%chk=loop2.apoCaM-CA-Ng.Init31.run30.water4.chk
%nprocshared=20
%mem=10GB
%nosave
#b3lyp/svp scf=(tight,noincore,xqc) Test 
#IOP(5/87=12) Density=Current Pop=(MK,readradii) iop(6/33=2) iop(6/42=6)

loop2.apoCaM-CA-Ng.Init31.run30.water4 

   -2  1 
   C    105.09000000    70.19000000    70.13000000
   C    103.68000000    70.74000000    69.95000000
   O    102.83000000    69.98000000    69.50000000
   H    105.75600000    70.99400000    70.44300000
   H    105.08200000    69.40900000    70.89000000
   H    105.44200000    69.77500000    69.18600000
   N    103.38000000    72.02000000    70.17000000
   C    104.02000000    72.96000000    71.07000000
   C    104.34000000    74.27000000    70.37000000
   O    103.62000000    74.75000000    69.50000000
   C    103.21000000    73.21000000    72.34000000
   C    101.71000000    73.41000000    72.15000000
   O    100.98000000    73.11000000    73.12000000
   O    101.29000000    73.82000000    71.04000000
   H    102.50000000    72.35000000    69.79000000
   H    104.94000000    72.53000000    71.47000000
   H    103.53000000    74.15000000    72.78000000
   H    103.34000000    72.36000000    73.01000000
   N    105.46000000    74.88000000    70.75000000
   C    105.62000000    76.31000000    70.60000000
   C    104.52000000    77.19000000    71.19000000
   O    104.51000000    77.33000000    72.41000000
   C    106.10000000    76.69000000    69.20000000
   H    106.03000000    74.49000000    71.50000000
   H    106.49000000    76.48000000    71.24000000
   H    105.28000000    76.38000000    68.55000000
   H    106.09000000    77.78000000    69.19000000
   H    106.97000000    76.11000000    68.89000000
   N    103.70000000    77.94000000    70.45000000
   C    102.58000000    78.64000000    71.07000000
   C    101.64000000    77.64000000    71.72000000
   O    101.22000000    76.62000000    71.18000000
   C    101.81000000    79.44000000    70.02000000
   C    101.16000000    78.76000000    68.82000000
   O    101.65000000    77.66000000    68.48000000
   O    100.34000000    79.36000000    68.10000000
   H    103.83000000    78.06000000    69.46000000
   H    102.96000000    79.33000000    71.82000000
   H    102.37000000    80.24000000    69.54000000
   H    101.10000000    80.02000000    70.61000000
   N    101.39000000    77.94000000    73.00000000
   C    100.63000000    77.13000000    73.93000000
   C     99.15000000    77.46000000    73.85000000
   O     98.62000000    78.33000000    74.53000000
   H    101.88000000    78.77000000    73.30000000
   H    101.01000000    77.18000000    74.95000000
   H    100.69000000    76.05000000    73.75000000
   N     98.41000000    76.79000000    72.96000000
   C     97.07000000    77.16000000    72.56000000
   C     96.04000000    76.53000000    73.49000000
   O     95.08000000    77.21000000    73.85000000
   C     96.89000000    76.73000000    71.11000000
   C     97.83000000    77.44000000    70.14000000
   N     97.52000000    78.68000000    69.74000000
   O     98.85000000    76.90000000    69.73000000
   H     98.91000000    76.22000000    72.29000000
   H     96.92000000    78.25000000    72.59000000
   H     95.87000000    76.95000000    70.80000000
   H     97.03000000    75.65000000    71.08000000
   H     96.66000000    79.15000000    69.97000000
   H     98.20000000    79.00000000    69.06000000
   N     96.17000000    75.23000000    73.74000000
   C     95.14000000    74.47000000    74.43000000
   C     94.79000000    73.13000000    73.79000000
   O     95.26000000    72.90000000    72.68000000
   H     97.01000000    74.72000000    73.52000000
   H     94.23000000    75.07000000    74.37000000
   H     95.50000000    74.34000000    75.45000000
   N     93.93000000    72.29000000    74.37000000
   C     93.02000000    72.67000000    75.43000000
   C     93.06000000    71.86000000    76.72000000
   O     93.23000000    72.49000000    77.76000000
   C     91.62000000    72.60000000    74.85000000
   C     90.48000000    72.99000000    75.79000000
   O     91.63000000    73.45000000    73.72000000
   H     93.64000000    71.48000000    73.84000000
   H     93.16000000    73.73000000    75.66000000
   H     91.48000000    71.55000000    74.58000000
   H     91.11000000    73.00000000    73.05000000
   H     90.62000000    72.45000000    76.72000000
   H     90.40000000    74.05000000    76.05000000
   H     89.52000000    72.72000000    75.34000000
   N     93.04000000    70.52000000    76.62000000
   C     92.71000000    69.62000000    77.70000000
   C     91.34000000    69.92000000    78.29000000
   O     91.25000000    70.56000000    79.33000000
   C     93.88000000    69.43000000    78.66000000
   C     95.22000000    69.33000000    77.94000000
   C     93.62000000    68.20000000    79.52000000
   C     95.48000000    68.19000000    76.95000000
   H     93.36000000    70.17000000    75.73000000
   H     92.63000000    68.68000000    77.16000000
   H     93.98000000    70.27000000    79.35000000
   H     96.02000000    69.38000000    78.68000000
   H     95.41000000    70.20000000    77.30000000
   H     93.45000000    67.32000000    78.89000000
   H     94.43000000    67.90000000    80.20000000
   H     92.78000000    68.48000000    80.14000000
   H     94.82000000    68.31000000    76.09000000
   H     96.52000000    68.13000000    76.66000000
   H     95.22000000    67.33000000    77.56000000
   N     90.26000000    69.45000000    77.65000000
   C     90.25000000    68.61000000    76.47000000
   C     90.63000000    67.17000000    76.79000000
   O     91.52000000    66.68000000    76.11000000
   C     88.83000000    68.72000000    75.93000000
   C     87.66000000    68.34000000    76.84000000
   O     87.96000000    68.18000000    78.04000000
   O     86.48000000    68.46000000    76.45000000
   H     89.34000000    69.69000000    78.00000000
   H     90.97000000    69.02000000    75.76000000
   H     88.78000000    68.19000000    74.98000000
   H     88.68000000    69.75000000    75.59000000
   N     90.22000000    66.60000000    77.92000000
   C     90.46000000    65.22000000    78.32000000
   C     89.28000000    64.33000000    78.00000000
   O     88.23000000    64.92000000    77.74000000
   C     90.85000000    65.29000000    79.79000000
   C     89.77000000    65.37000000    80.84000000
   C     89.18000000    66.61000000    81.14000000
   C     89.44000000    64.21000000    81.56000000
   C     88.21000000    66.67000000    82.15000000
   C     88.44000000    64.25000000    82.54000000
   C     87.81000000    65.48000000    82.78000000
   H     89.57000000    67.11000000    78.50000000
   H     91.32000000    64.90000000    77.73000000
   H     91.52000000    66.09000000    80.13000000
   H     91.30000000    64.33000000    80.02000000
   H     89.54000000    67.44000000    80.56000000
   H     89.93000000    63.29000000    81.28000000
   H     87.74000000    67.61000000    82.41000000
   H     88.29000000    63.36000000    83.13000000
   H     87.05000000    65.55000000    83.54000000
   N     89.40000000    63.00000000    77.94000000
   C     90.54000000    62.15000000    78.22000000
   C     91.45000000    61.95000000    77.02000000
   O     91.05000000    62.36000000    75.93000000
   C     89.96000000    60.82000000    78.70000000
   C     88.75000000    60.64000000    77.79000000
   C     88.30000000    62.10000000    77.66000000
   H     91.26000000    62.56000000    78.93000000
   H     90.65000000    59.98000000    78.69000000
   H     89.52000000    60.86000000    79.69000000
   H     89.07000000    60.34000000    76.79000000
   H     88.05000000    59.90000000    78.16000000
   H     87.87000000    62.21000000    76.66000000
   H     87.54000000    62.22000000    78.43000000
   N     92.66000000    61.43000000    77.24000000
   C     93.69000000    61.36000000    76.23000000
   C     95.14000000    61.46000000    76.67000000
   O     96.03000000    61.01000000    75.94000000
   C     93.48000000    60.11000000    75.38000000
   C     93.21000000    58.88000000    76.25000000
   C     94.39000000    58.33000000    77.03000000
   O     95.10000000    57.43000000    76.54000000
   O     94.49000000    58.68000000    78.23000000
   H     92.81000000    61.02000000    78.15000000
   H     93.48000000    62.22000000    75.60000000
   H     94.36000000    59.88000000    74.79000000
   H     92.64000000    60.34000000    74.72000000
   H     93.00000000    58.02000000    75.60000000
   H     92.35000000    59.05000000    76.89000000
   N     95.58000000    62.17000000    77.71000000
   C     94.92000000    62.87000000    78.79000000
   H     93.91800000    62.46300000    78.92700000
   H     95.49200000    62.74300000    79.70900000
   H     94.85100000    63.93000000    78.54800000
   H     96.56000000    61.94000000    77.81000000
  Ca    100.92100000    75.17000000    69.00000000
   O    101.32100000    72.75000000    68.10000000
   H    101.93100000    72.44000000    67.42000000
   H    100.58100000    72.14000000    68.05000000
   O     98.63000000    73.82000000    69.49000000
   H     98.57000000    72.95000000    69.11000000
   H     98.37000000    73.71000000    70.41000000
   O    102.04100000    75.32000000    66.47000000
   H    102.53100000    74.65000000    65.98000000
   H    101.96100000    76.05000000    65.86000000
   O     99.02000000    75.34000000    67.01000000
   H     98.58000000    75.07000000    66.20000000
   H     98.89000000    76.29000000    67.05000000

Ca 1.00



