%chk=loop2.apoCaM-CA-Ng.Init31.run17.water3.chk
%nprocshared=20
%mem=10GB
%nosave
#b3lyp/svp scf=(tight,noincore,xqc) Test 
#IOP(5/87=12) Density=Current Pop=(MK,readradii) iop(6/33=2) iop(6/42=6)

loop2.apoCaM-CA-Ng.Init31.run17.water3 

   -2  1 
   C     88.31000000    45.46000000    -9.67000000
   C     86.93000000    45.79000000   -10.23000000
   O     86.47000000    46.93000000   -10.21000000
   H     88.99300000    46.28400000    -9.87900000
   H     88.23900000    45.31100000    -8.59300000
   H     88.68500000    44.55000000   -10.13900000
   N     86.16000000    44.84000000   -10.76000000
   C     86.58000000    43.54000000   -11.24000000
   C     85.47000000    42.56000000   -10.87000000
   O     84.31000000    42.88000000   -11.09000000
   C     86.70000000    43.51000000   -12.76000000
   C     85.94000000    44.56000000   -13.57000000
   O     86.51000000    45.19000000   -14.48000000
   O     84.74000000    44.78000000   -13.33000000
   H     85.25000000    45.12000000   -11.09000000
   H     87.52000000    43.28000000   -10.75000000
   H     86.43000000    42.56000000   -13.22000000
   H     87.75000000    43.74000000   -12.94000000
   N     85.90000000    41.42000000   -10.32000000
   C     85.24000000    40.15000000   -10.09000000
   C     84.65000000    39.56000000   -11.36000000
   O     85.06000000    38.51000000   -11.85000000
   C     84.20000000    40.35000000    -9.00000000
   H     86.91000000    41.37000000   -10.22000000
   H     86.01000000    39.43000000    -9.84000000
   H     83.77000000    39.37000000    -8.78000000
   H     84.59000000    40.87000000    -8.13000000
   H     83.42000000    40.96000000    -9.45000000
   N     83.72000000    40.33000000   -11.94000000
   C     83.20000000    40.08000000   -13.27000000
   C     83.60000000    41.19000000   -14.24000000
   O     83.44000000    42.37000000   -13.96000000
   C     81.68000000    39.96000000   -13.31000000
   C     81.02000000    40.77000000   -12.19000000
   O     81.26000000    42.00000000   -12.14000000
   O     80.26000000    40.22000000   -11.37000000
   H     83.60000000    41.22000000   -11.48000000
   H     83.60000000    39.14000000   -13.64000000
   H     81.46000000    38.92000000   -13.09000000
   H     81.25000000    40.29000000   -14.25000000
   N     84.11000000    40.75000000   -15.39000000
   C     84.47000000    41.70000000   -16.43000000
   C     83.30000000    42.30000000   -17.21000000
   O     83.13000000    42.08000000   -18.40000000
   H     84.53000000    39.84000000   -15.41000000
   H     85.13000000    41.27000000   -17.18000000
   H     85.01000000    42.57000000   -16.04000000
   N     82.52000000    43.15000000   -16.54000000
   C     81.29000000    43.75000000   -17.01000000
   C     81.12000000    45.25000000   -16.82000000
   O     80.01000000    45.78000000   -16.74000000
   C     80.15000000    42.88000000   -16.47000000
   C     79.90000000    43.16000000   -14.99000000
   N     78.90000000    42.52000000   -14.37000000
   O     80.65000000    43.91000000   -14.38000000
   H     82.73000000    43.17000000   -15.55000000
   H     81.24000000    43.62000000   -18.09000000
   H     80.43000000    41.83000000   -16.56000000
   H     79.21000000    43.05000000   -16.99000000
   H     78.31000000    41.88000000   -14.90000000
   H     78.71000000    42.69000000   -13.40000000
   N     82.26000000    45.91000000   -16.62000000
   C     82.32000000    47.29000000   -16.18000000
   C     82.01000000    47.61000000   -14.73000000
   O     82.00000000    46.71000000   -13.89000000
   H     83.11000000    45.39000000   -16.74000000
   H     81.68000000    47.94000000   -16.78000000
   H     83.37000000    47.60000000   -16.27000000
   N     81.87000000    48.85000000   -14.25000000
   C     82.01000000    50.16000000   -14.85000000
   C     82.69000000    51.20000000   -13.96000000
   O     83.19000000    52.17000000   -14.52000000
   C     80.65000000    50.71000000   -15.27000000
   C     79.95000000    49.99000000   -16.42000000
   O     79.70000000    50.70000000   -14.24000000
   H     82.01000000    48.92000000   -13.25000000
   H     82.66000000    50.17000000   -15.73000000
   H     80.79000000    51.76000000   -15.54000000
   H     78.95000000    51.15000000   -14.64000000
   H     80.59000000    49.69000000   -17.25000000
   H     79.37000000    49.14000000   -16.06000000
   H     79.32000000    50.77000000   -16.85000000
   N     82.70000000    51.04000000   -12.64000000
   C     83.34000000    51.84000000   -11.61000000
   C     82.87000000    53.28000000   -11.70000000
   O     83.25000000    54.13000000   -12.50000000
   C     84.86000000    51.71000000   -11.53000000
   C     85.35000000    50.28000000   -11.34000000
   C     85.33000000    52.55000000   -10.34000000
   C     86.83000000    50.08000000   -11.66000000
   H     82.18000000    50.24000000   -12.31000000
   H     83.06000000    51.46000000   -10.63000000
   H     85.26000000    52.12000000   -12.45000000
   H     84.76000000    49.56000000   -11.91000000
   H     85.23000000    49.99000000   -10.30000000
   H     84.86000000    52.24000000    -9.41000000
   H     86.40000000    52.37000000   -10.22000000
   H     85.17000000    53.62000000   -10.48000000
   H     87.08000000    49.02000000   -11.68000000
   H     87.03000000    50.41000000   -12.68000000
   H     87.39000000    50.57000000   -10.86000000
   N     81.97000000    53.82000000   -10.87000000
   C     81.23000000    53.21000000    -9.79000000
   C     81.76000000    53.33000000    -8.36000000
   O     81.57000000    52.34000000    -7.66000000
   C     79.83000000    53.83000000    -9.74000000
   C     79.70000000    55.34000000    -9.60000000
   O     80.71000000    56.06000000    -9.75000000
   O     78.61000000    55.81000000    -9.20000000
   H     81.93000000    54.83000000   -10.96000000
   H     81.08000000    52.17000000   -10.04000000
   H     79.18000000    53.36000000    -9.00000000
   H     79.37000000    53.57000000   -10.69000000
   N     82.31000000    54.45000000    -7.90000000
   C     82.64000000    54.74000000    -6.52000000
   C     81.42000000    55.22000000    -5.73000000
   O     80.50000000    55.75000000    -6.34000000
   C     83.73000000    55.81000000    -6.52000000
   C     83.32000000    57.24000000    -6.74000000
   C     83.39000000    57.75000000    -8.04000000
   C     82.83000000    58.09000000    -5.74000000
   C     83.12000000    59.10000000    -8.34000000
   C     82.65000000    59.46000000    -5.99000000
   C     82.68000000    59.93000000    -7.30000000
   H     82.42000000    55.18000000    -8.59000000
   H     83.05000000    53.84000000    -6.07000000
   H     84.56000000    55.62000000    -7.20000000
   H     84.25000000    55.75000000    -5.56000000
   H     83.70000000    57.04000000    -8.78000000
   H     82.60000000    57.70000000    -4.76000000
   H     83.18000000    59.40000000    -9.37000000
   H     82.28000000    60.08000000    -5.18000000
   H     82.34000000    60.94000000    -7.47000000
   N     81.38000000    55.03000000    -4.41000000
   C     82.38000000    54.48000000    -3.52000000
   C     82.68000000    53.00000000    -3.65000000
   O     82.01000000    52.21000000    -4.32000000
   C     81.87000000    54.73000000    -2.10000000
   C     81.00000000    55.97000000    -2.26000000
   C     80.36000000    55.68000000    -3.62000000
   H     83.28000000    55.05000000    -3.75000000
   H     81.21000000    53.88000000    -1.87000000
   H     82.74000000    54.91000000    -1.47000000
   H     80.24000000    56.07000000    -1.48000000
   H     81.55000000    56.91000000    -2.29000000
   H     79.49000000    55.06000000    -3.41000000
   H     79.97000000    56.57000000    -4.11000000
   N     83.86000000    52.65000000    -3.14000000
   C     84.29000000    51.27000000    -3.03000000
   C     85.67000000    51.01000000    -3.62000000
   O     86.03000000    49.87000000    -3.33000000
   C     84.02000000    50.77000000    -1.61000000
   C     84.48000000    51.80000000    -0.57000000
   C     85.98000000    51.99000000    -0.44000000
   O     86.65000000    50.99000000    -0.11000000
   O     86.54000000    53.02000000    -0.88000000
   H     84.49000000    53.38000000    -2.83000000
   H     83.68000000    50.59000000    -3.62000000
   H     84.54000000    49.84000000    -1.39000000
   H     82.96000000    50.61000000    -1.45000000
   H     84.06000000    51.55000000     0.41000000
   H     83.92000000    52.73000000    -0.66000000
   N     86.44000000    51.84000000    -4.33000000
   C     86.15000000    52.97000000    -5.19000000
   H     85.29600000    53.51800000    -4.79300000
   H     87.01700000    53.62900000    -5.23000000
   H     85.91700000    52.61300000    -6.19300000
   H     87.40000000    51.55000000    -4.36000000
  Ca     82.30000000    44.33000000   -12.38700000
   O     82.82000000    46.46000000   -10.86700000
   H     82.31000000    47.26000000   -10.95700000
   H     83.33000000    46.59000000   -10.06700000
   O     81.59000000    43.83000000    -9.78700000
   H     82.38000000    43.81000000    -9.24700000
   H     80.87000000    43.77000000    -9.16700000
   O     80.06000000    45.49000000   -11.54700000
   H     79.30000000    44.94000000   -11.75700000
   H     79.77000000    46.01000000   -10.79700000

Ca 1.00



