%chk=loop2.holoCaM.run91.water0.chk
%nprocshared=20
%mem=10GB
%nosave
#b3lyp/svp scf=(tight,noincore,xqc) Test 
#IOP(5/87=12) Density=Current Pop=(MK,readradii) iop(6/33=2) iop(6/42=6)

loop2.holoCaM.run91.water0 

   -2  1 
   C     42.29000000    76.90000000    23.55000000
   C     41.12000000    76.48000000    24.43000000
   O     41.03000000    75.33000000    24.87000000
   H     43.16700000    76.30500000    23.80500000
   H     42.03400000    76.73900000    22.50300000
   H     42.50700000    77.95600000    23.71300000
   N     40.11000000    77.34000000    24.53000000
   C     38.85000000    76.96000000    25.14000000
   C     38.19000000    75.77000000    24.46000000
   O     38.04000000    75.87000000    23.24000000
   C     37.94000000    78.17000000    25.36000000
   C     36.79000000    77.94000000    26.32000000
   O     36.15000000    76.86000000    26.39000000
   O     36.60000000    78.72000000    27.28000000
   H     40.14000000    78.23000000    24.05000000
   H     39.22000000    76.58000000    26.09000000
   H     37.48000000    78.42000000    24.40000000
   H     38.51000000    78.97000000    25.84000000
   N     37.93000000    74.68000000    25.19000000
   C     37.48000000    73.42000000    24.64000000
   C     36.07000000    73.06000000    25.10000000
   O     35.62000000    71.99000000    24.69000000
   C     38.38000000    72.27000000    25.07000000
   H     38.13000000    74.78000000    26.17000000
   H     37.39000000    73.47000000    23.55000000
   H     38.13000000    71.36000000    24.52000000
   H     39.46000000    72.42000000    24.97000000
   H     38.31000000    71.95000000    26.11000000
   N     35.44000000    73.94000000    25.88000000
   C     34.08000000    73.67000000    26.29000000
   C     33.20000000    74.71000000    25.60000000
   O     32.03000000    74.45000000    25.35000000
   C     33.91000000    73.63000000    27.81000000
   C     34.46000000    74.79000000    28.62000000
   O     35.26000000    74.58000000    29.56000000
   O     34.21000000    75.94000000    28.23000000
   H     35.87000000    74.81000000    26.16000000
   H     33.71000000    72.67000000    26.05000000
   H     34.63000000    72.89000000    28.15000000
   H     32.95000000    73.36000000    28.25000000
   N     33.75000000    75.86000000    25.21000000
   C     33.01000000    76.96000000    24.61000000
   C     32.63000000    78.12000000    25.52000000
   O     32.05000000    79.08000000    25.04000000
   H     34.65000000    75.99000000    25.65000000
   H     32.11000000    76.68000000    24.05000000
   H     33.68000000    77.43000000    23.90000000
   N     32.84000000    78.09000000    26.84000000
   C     32.30000000    79.05000000    27.78000000
   C     33.00000000    80.40000000    27.76000000
   O     32.49000000    81.40000000    28.26000000
   C     32.12000000    78.51000000    29.19000000
   C     33.41000000    78.46000000    30.01000000
   N     33.26000000    78.45000000    31.33000000
   O     34.54000000    78.51000000    29.53000000
   H     33.32000000    77.28000000    27.20000000
   H     31.29000000    79.37000000    27.49000000
   H     31.70000000    77.53000000    28.98000000
   H     31.38000000    79.16000000    29.65000000
   H     32.38000000    78.25000000    31.79000000
   H     34.06000000    78.20000000    31.89000000
   N     34.17000000    80.56000000    27.13000000
   C     34.91000000    81.79000000    26.93000000
   C     35.64000000    82.31000000    28.16000000
   O     35.85000000    83.48000000    28.46000000
   H     34.61000000    79.69000000    26.90000000
   H     34.27000000    82.58000000    26.52000000
   H     35.65000000    81.69000000    26.14000000
   N     36.00000000    81.32000000    28.98000000
   C     36.53000000    81.44000000    30.32000000
   C     37.56000000    80.32000000    30.45000000
   O     37.17000000    79.17000000    30.30000000
   C     35.50000000    81.28000000    31.43000000
   C     36.15000000    81.33000000    32.81000000
   O     34.68000000    82.43000000    31.46000000
   H     35.91000000    80.37000000    28.67000000
   H     36.97000000    82.43000000    30.47000000
   H     34.90000000    80.38000000    31.27000000
   H     33.83000000    82.09000000    31.75000000
   H     35.32000000    81.50000000    33.50000000
   H     36.55000000    80.37000000    33.16000000
   H     36.92000000    82.11000000    32.81000000
   N     38.85000000    80.57000000    30.68000000
   C     39.99000000    79.67000000    30.65000000
   C     39.91000000    78.77000000    31.88000000
   O     40.00000000    79.23000000    33.01000000
   C     41.26000000    80.51000000    30.63000000
   C     41.40000000    81.27000000    29.31000000
   C     42.55000000    79.74000000    30.89000000
   C     41.72000000    80.37000000    28.11000000
   H     38.98000000    81.56000000    30.82000000
   H     39.92000000    79.03000000    29.77000000
   H     41.17000000    81.21000000    31.46000000
   H     42.16000000    82.00000000    29.56000000
   H     40.50000000    81.88000000    29.25000000
   H     43.46000000    80.25000000    30.56000000
   H     42.63000000    79.70000000    31.98000000
   H     42.51000000    78.75000000    30.43000000
   H     41.01000000    79.55000000    28.07000000
   H     41.73000000    80.97000000    27.20000000
   H     42.75000000    80.06000000    28.23000000
   N     39.84000000    77.45000000    31.68000000
   C     40.12000000    76.34000000    32.57000000
   C     41.60000000    76.01000000    32.53000000
   O     42.19000000    76.19000000    31.46000000
   C     39.27000000    75.12000000    32.22000000
   C     37.78000000    75.36000000    32.35000000
   O     37.17000000    76.10000000    31.54000000
   O     37.19000000    74.84000000    33.32000000
   H     39.81000000    77.18000000    30.71000000
   H     39.75000000    76.63000000    33.56000000
   H     39.51000000    74.25000000    32.83000000
   H     39.45000000    74.80000000    31.19000000
   N     42.13000000    75.36000000    33.57000000
   C     43.53000000    74.96000000    33.64000000
   C     43.97000000    74.00000000    32.55000000
   O     45.07000000    74.24000000    32.04000000
   C     43.78000000    74.36000000    35.02000000
   C     45.19000000    73.96000000    35.40000000
   C     46.24000000    74.84000000    35.12000000
   C     45.53000000    72.75000000    36.02000000
   C     47.59000000    74.60000000    35.38000000
   C     46.82000000    72.60000000    36.53000000
   C     47.82000000    73.54000000    36.27000000
   H     41.50000000    75.20000000    34.34000000
   H     44.10000000    75.89000000    33.56000000
   H     43.08000000    73.54000000    35.17000000
   H     43.49000000    75.01000000    35.84000000
   H     45.98000000    75.81000000    34.70000000
   H     44.83000000    71.98000000    36.30000000
   H     48.35000000    75.29000000    35.05000000
   H     47.10000000    71.64000000    36.97000000
   H     48.83000000    73.27000000    36.53000000
   N     43.19000000    73.05000000    32.04000000
   C     43.55000000    72.34000000    30.83000000
   C     43.69000000    73.13000000    29.54000000
   O     44.29000000    72.62000000    28.59000000
   C     42.49000000    71.25000000    30.63000000
   C     41.90000000    71.08000000    32.02000000
   C     41.99000000    72.48000000    32.62000000
   H     44.50000000    71.90000000    31.15000000
   H     41.65000000    71.56000000    30.01000000
   H     42.88000000    70.29000000    30.29000000
   H     40.89000000    70.67000000    32.05000000
   H     42.57000000    70.34000000    32.47000000
   H     41.19000000    73.09000000    32.20000000
   H     42.01000000    72.48000000    33.71000000
   N     43.08000000    74.31000000    29.52000000
   C     43.15000000    75.23000000    28.40000000
   C     44.28000000    76.23000000    28.57000000
   O     45.11000000    76.38000000    27.68000000
   C     41.76000000    75.84000000    28.19000000
   C     40.58000000    74.89000000    28.28000000
   C     39.25000000    75.63000000    28.41000000
   O     39.08000000    76.80000000    28.81000000
   O     38.21000000    75.01000000    28.10000000
   H     42.65000000    74.57000000    30.40000000
   H     43.29000000    74.64000000    27.50000000
   H     41.74000000    76.35000000    27.23000000
   H     41.54000000    76.64000000    28.89000000
   H     40.61000000    74.29000000    29.19000000
   H     40.56000000    74.21000000    27.43000000
   N     44.52000000    76.70000000    29.80000000
   C     45.68000000    77.45000000    30.23000000
   H     46.48500000    77.31900000    29.50700000
   H     45.42400000    78.50700000    30.30100000
   H     46.00600000    77.08800000    31.20500000
   H     43.81000000    76.48000000    30.49000000
  Ca     36.46000000    76.86000000    29.14000000

Ca 1.00



