%chk=loop2.holoCaM.run78.water1.chk
%nprocshared=20
%mem=10GB
%nosave
#b3lyp/svp scf=(tight,noincore,xqc) Test 
#IOP(5/87=12) Density=Current Pop=(MK,readradii) iop(6/33=2) iop(6/42=6)

loop2.holoCaM.run78.water1 

   -2  1 
   C     46.58000000    49.14000000    35.08000000
   C     45.92000000    48.28000000    36.15000000
   O     45.85000000    48.68000000    37.31000000
   H     47.58300000    48.76300000    34.88000000
   H     45.98800000    49.10100000    34.16500000
   H     46.64200000    50.17100000    35.42900000
   N     45.41000000    47.10000000    35.78000000
   C     44.76000000    46.14000000    36.65000000
   C     45.77000000    45.37000000    37.49000000
   O     46.73000000    44.75000000    37.02000000
   C     43.95000000    45.14000000    35.83000000
   C     43.12000000    44.16000000    36.65000000
   O     43.29000000    42.95000000    36.42000000
   O     42.32000000    44.59000000    37.51000000
   H     45.48000000    46.86000000    34.80000000
   H     44.06000000    46.70000000    37.27000000
   H     44.66000000    44.62000000    35.18000000
   H     43.19000000    45.66000000    35.26000000
   N     45.72000000    45.48000000    38.82000000
   C     46.79000000    45.26000000    39.77000000
   C     46.69000000    43.96000000    40.57000000
   O     47.72000000    43.31000000    40.71000000
   C     46.84000000    46.44000000    40.73000000
   H     44.87000000    45.93000000    39.13000000
   H     47.75000000    45.17000000    39.26000000
   H     46.09000000    46.43000000    41.52000000
   H     47.83000000    46.34000000    41.17000000
   H     46.78000000    47.34000000    40.12000000
   N     45.43000000    43.61000000    40.87000000
   C     45.20000000    42.33000000    41.51000000
   C     45.21000000    41.15000000    40.55000000
   O     45.28000000    40.05000000    41.08000000
   C     43.87000000    42.50000000    42.25000000
   C     42.73000000    43.06000000    41.41000000
   O     42.76000000    42.93000000    40.17000000
   O     41.81000000    43.69000000    41.98000000
   H     44.68000000    44.21000000    40.58000000
   H     45.97000000    42.18000000    42.27000000
   H     43.86000000    43.16000000    43.12000000
   H     43.48000000    41.59000000    42.69000000
   N     45.21000000    41.43000000    39.25000000
   C     45.12000000    40.58000000    38.08000000
   C     43.71000000    40.09000000    37.76000000
   O     43.69000000    39.16000000    36.96000000
   H     45.21000000    42.41000000    38.99000000
   H     45.67000000    39.68000000    38.37000000
   H     45.46000000    41.06000000    37.16000000
   N     42.64000000    40.56000000    38.40000000
   C     41.32000000    40.03000000    38.12000000
   C     40.51000000    40.51000000    36.93000000
   O     39.38000000    40.09000000    36.67000000
   C     40.43000000    40.07000000    39.35000000
   C     39.80000000    41.43000000    39.63000000
   N     38.96000000    41.53000000    40.66000000
   O     39.85000000    42.37000000    38.84000000
   H     42.80000000    41.29000000    39.08000000
   H     41.44000000    38.96000000    37.93000000
   H     40.91000000    39.71000000    40.26000000
   H     39.60000000    39.36000000    39.28000000
   H     38.76000000    40.70000000    41.20000000
   H     38.32000000    42.30000000    40.74000000
   N     41.02000000    41.38000000    36.05000000
   C     40.38000000    41.73000000    34.80000000
   C     39.28000000    42.79000000    34.88000000
   O     38.68000000    43.15000000    33.87000000
   H     41.89000000    41.86000000    36.20000000
   H     40.15000000    40.83000000    34.24000000
   H     41.13000000    42.24000000    34.19000000
   N     38.96000000    43.18000000    36.11000000
   C     37.92000000    44.11000000    36.48000000
   C     38.54000000    45.42000000    36.97000000
   O     39.41000000    45.38000000    37.84000000
   C     36.94000000    43.53000000    37.50000000
   C     35.87000000    44.57000000    37.85000000
   O     36.32000000    42.36000000    37.03000000
   H     39.56000000    42.80000000    36.83000000
   H     37.23000000    44.27000000    35.65000000
   H     37.47000000    43.28000000    38.41000000
   H     37.01000000    41.85000000    36.58000000
   H     36.45000000    45.27000000    38.44000000
   H     35.27000000    44.91000000    37.01000000
   H     35.26000000    43.92000000    38.48000000
   N     38.00000000    46.57000000    36.57000000
   C     38.57000000    47.83000000    36.98000000
   C     38.00000000    48.16000000    38.35000000
   O     36.82000000    48.39000000    38.60000000
   C     38.27000000    48.89000000    35.93000000
   C     39.00000000    48.48000000    34.65000000
   C     38.75000000    50.28000000    36.33000000
   C     40.53000000    48.57000000    34.70000000
   H     37.37000000    46.60000000    35.78000000
   H     39.65000000    47.72000000    37.04000000
   H     37.19000000    48.94000000    35.84000000
   H     38.58000000    49.01000000    33.79000000
   H     38.78000000    47.45000000    34.37000000
   H     38.82000000    50.89000000    35.43000000
   H     38.00000000    50.79000000    36.94000000
   H     39.66000000    50.11000000    36.91000000
   H     40.97000000    47.65000000    35.10000000
   H     40.91000000    48.70000000    33.69000000
   H     40.90000000    49.45000000    35.23000000
   N     38.92000000    48.37000000    39.30000000
   C     38.67000000    49.11000000    40.51000000
   C     39.21000000    50.53000000    40.34000000
   O     39.89000000    50.85000000    39.37000000
   C     39.09000000    48.54000000    41.86000000
   C     40.43000000    47.83000000    41.95000000
   O     40.49000000    46.74000000    41.34000000
   O     41.32000000    48.19000000    42.74000000
   H     39.88000000    48.30000000    39.01000000
   H     37.58000000    49.22000000    40.53000000
   H     38.24000000    47.90000000    42.12000000
   H     39.07000000    49.27000000    42.67000000
   N     38.88000000    51.45000000    41.24000000
   C     39.26000000    52.84000000    41.11000000
   C     40.75000000    53.14000000    41.10000000
   O     41.11000000    53.83000000    40.15000000
   C     38.50000000    53.59000000    42.21000000
   C     38.96000000    55.02000000    42.37000000
   C     38.73000000    55.84000000    41.26000000
   C     39.72000000    55.53000000    43.43000000
   C     39.28000000    57.13000000    41.20000000
   C     40.20000000    56.84000000    43.41000000
   C     40.00000000    57.65000000    42.29000000
   H     38.36000000    51.13000000    42.05000000
   H     38.83000000    53.11000000    40.15000000
   H     38.56000000    53.18000000    43.22000000
   H     37.51000000    53.68000000    41.77000000
   H     38.31000000    55.42000000    40.36000000
   H     39.97000000    54.93000000    44.29000000
   H     39.09000000    57.76000000    40.35000000
   H     40.86000000    57.15000000    44.22000000
   H     40.49000000    58.60000000    42.13000000
   N     41.61000000    52.53000000    41.92000000
   C     43.05000000    52.63000000    41.85000000
   C     43.64000000    52.11000000    40.55000000
   O     44.87000000    52.10000000    40.41000000
   C     43.61000000    51.93000000    43.09000000
   C     42.42000000    51.86000000    44.04000000
   C     41.23000000    51.76000000    43.09000000
   H     43.42000000    53.66000000    41.90000000
   H     44.01000000    50.92000000    43.00000000
   H     44.43000000    52.49000000    43.54000000
   H     42.50000000    51.07000000    44.79000000
   H     42.48000000    52.84000000    44.50000000
   H     41.28000000    50.71000000    42.80000000
   H     40.40000000    52.11000000    43.70000000
   N     42.86000000    51.60000000    39.60000000
   C     43.31000000    51.09000000    38.32000000
   C     42.72000000    51.95000000    37.21000000
   O     43.42000000    52.48000000    36.35000000
   C     42.88000000    49.64000000    38.14000000
   C     43.28000000    48.82000000    39.37000000
   C     42.64000000    47.45000000    39.26000000
   O     41.48000000    47.36000000    38.79000000
   O     43.22000000    46.45000000    39.74000000
   H     41.86000000    51.55000000    39.67000000
   H     44.39000000    51.14000000    38.26000000
   H     43.23000000    49.19000000    37.21000000
   H     41.79000000    49.60000000    38.09000000
   H     43.04000000    49.35000000    40.29000000
   H     44.36000000    48.67000000    39.25000000
   N     41.46000000    52.35000000    37.38000000
   C     40.89000000    53.48000000    36.68000000
   H     39.96700000    53.78400000    37.17300000
   H     41.59700000    54.30900000    36.69100000
   H     40.67500000    53.19900000    35.64900000
   H     40.89000000    51.86000000    38.06000000
  Ca     41.14000000    44.86000000    39.70000000
   O     38.80000000    44.48000000    40.91000000
   H     37.99000000    44.10000000    41.25000000
   H     38.77000000    45.40000000    41.18000000

Ca 1.00



