%chk=loop2.holoCaM-CaMKII.run88.water2.chk
%nprocshared=20
%mem=10GB
%nosave
#b3lyp/svp scf=(tight,noincore,xqc) Test 
#IOP(5/87=12) Density=Current Pop=(MK,readradii) iop(6/33=2) iop(6/42=6)

loop2.holoCaM-CaMKII.run88.water2 

   -2  1 
   C     52.38000000    39.99000000   -13.29000000
   C     53.60000000    40.03000000   -14.20000000
   O     54.72000000    40.10000000   -13.69000000
   H     51.52800000    39.59500000   -13.84300000
   H     52.58600000    39.34800000   -12.43400000
   H     52.15200000    40.99800000   -12.94300000
   N     53.36000000    40.04000000   -15.51000000
   C     54.39000000    39.75000000   -16.49000000
   C     55.42000000    40.85000000   -16.66000000
   O     55.02000000    42.01000000   -16.79000000
   C     53.76000000    39.60000000   -17.87000000
   C     54.74000000    39.41000000   -19.02000000
   O     55.70000000    38.63000000   -18.89000000
   O     54.59000000    40.10000000   -20.05000000
   H     52.40000000    39.87000000   -15.76000000
   H     54.79000000    38.78000000   -16.21000000
   H     53.04000000    40.39000000   -18.09000000
   H     53.24000000    38.64000000   -17.95000000
   N     56.72000000    40.59000000   -16.78000000
   C     57.73000000    41.62000000   -16.97000000
   C     58.74000000    41.24000000   -18.04000000
   O     59.81000000    41.84000000   -18.15000000
   C     58.37000000    41.97000000   -15.63000000
   H     56.92000000    39.61000000   -16.68000000
   H     57.23000000    42.49000000   -17.39000000
   H     58.62000000    41.07000000   -15.07000000
   H     59.33000000    42.44000000   -15.84000000
   H     57.77000000    42.57000000   -14.96000000
   N     58.39000000    40.26000000   -18.87000000
   C     59.11000000    39.78000000   -20.03000000
   C     58.44000000    39.51000000   -21.36000000
   O     59.15000000    39.49000000   -22.37000000
   C     59.96000000    38.55000000   -19.68000000
   C     59.09000000    37.40000000   -19.20000000
   O     58.20000000    36.97000000   -19.96000000
   O     59.22000000    36.98000000   -18.03000000
   H     57.42000000    40.00000000   -18.79000000
   H     59.81000000    40.60000000   -20.20000000
   H     60.59000000    38.74000000   -18.81000000
   H     60.59000000    38.17000000   -20.47000000
   N     57.11000000    39.35000000   -21.40000000
   C     56.34000000    38.99000000   -22.57000000
   C     56.18000000    37.53000000   -22.98000000
   O     55.60000000    37.13000000   -23.99000000
   H     56.65000000    39.27000000   -20.50000000
   H     56.75000000    39.48000000   -23.45000000
   H     55.34000000    39.32000000   -22.27000000
   N     56.82000000    36.60000000   -22.27000000
   C     57.07000000    35.25000000   -22.73000000
   C     55.85000000    34.34000000   -22.72000000
   O     56.02000000    33.18000000   -23.09000000
   C     58.29000000    34.63000000   -22.06000000
   C     58.09000000    34.18000000   -20.62000000
   N     59.17000000    33.66000000   -20.03000000
   O     57.00000000    34.29000000   -20.05000000
   H     57.19000000    36.91000000   -21.38000000
   H     57.39000000    35.32000000   -23.77000000
   H     59.06000000    35.40000000   -22.08000000
   H     58.70000000    33.80000000   -22.64000000
   H     60.06000000    33.56000000   -20.49000000
   H     59.16000000    33.53000000   -19.03000000
   N     54.61000000    34.74000000   -22.44000000
   C     53.40000000    33.95000000   -22.56000000
   C     53.38000000    32.84000000   -21.51000000
   O     52.53000000    31.96000000   -21.59000000
   H     54.42000000    35.73000000   -22.43000000
   H     53.29000000    33.50000000   -23.55000000
   H     52.51000000    34.53000000   -22.33000000
   N     54.20000000    32.94000000   -20.46000000
   C     54.32000000    32.11000000   -19.27000000
   C     54.60000000    32.85000000   -17.97000000
   O     55.40000000    33.78000000   -18.01000000
   C     55.44000000    31.11000000   -19.52000000
   C     55.03000000    29.94000000   -20.42000000
   O     56.60000000    31.63000000   -20.13000000
   H     54.78000000    33.76000000   -20.44000000
   H     53.38000000    31.58000000   -19.13000000
   H     55.78000000    30.80000000   -18.53000000
   H     56.69000000    32.39000000   -19.56000000
   H     55.81000000    29.19000000   -20.29000000
   H     54.08000000    29.52000000   -20.09000000
   H     54.91000000    30.21000000   -21.47000000
   N     54.10000000    32.39000000   -16.82000000
   C     54.61000000    32.86000000   -15.55000000
   C     55.93000000    32.21000000   -15.19000000
   O     56.23000000    31.01000000   -15.22000000
   C     53.51000000    32.68000000   -14.50000000
   C     52.11000000    33.13000000   -14.88000000
   C     53.96000000    33.27000000   -13.17000000
   C     51.00000000    32.89000000   -13.86000000
   H     53.53000000    31.56000000   -16.83000000
   H     54.78000000    33.94000000   -15.53000000
   H     53.45000000    31.60000000   -14.36000000
   H     51.75000000    32.66000000   -15.80000000
   H     52.13000000    34.20000000   -15.08000000
   H     53.21000000    33.12000000   -12.39000000
   H     54.83000000    32.78000000   -12.72000000
   H     54.21000000    34.33000000   -13.19000000
   H     51.04000000    31.96000000   -13.30000000
   H     51.01000000    33.60000000   -13.04000000
   H     50.03000000    32.97000000   -14.36000000
   N     56.86000000    33.13000000   -14.93000000
   C     58.18000000    32.88000000   -14.38000000
   C     58.22000000    33.14000000   -12.88000000
   O     57.45000000    33.88000000   -12.28000000
   C     59.20000000    33.74000000   -15.11000000
   C     59.15000000    33.74000000   -16.63000000
   O     58.24000000    34.41000000   -17.14000000
   O     60.11000000    33.25000000   -17.27000000
   H     56.63000000    34.11000000   -15.02000000
   H     58.62000000    31.89000000   -14.49000000
   H     60.19000000    33.38000000   -14.82000000
   H     59.07000000    34.75000000   -14.71000000
   N     59.18000000    32.46000000   -12.26000000
   C     59.28000000    32.38000000   -10.81000000
   C     59.20000000    33.76000000   -10.17000000
   O     58.34000000    33.88000000    -9.30000000
   C     60.44000000    31.51000000   -10.36000000
   C     60.40000000    31.39000000    -8.85000000
   C     61.27000000    32.11000000    -8.03000000
   C     59.40000000    30.60000000    -8.29000000
   C     61.02000000    32.14000000    -6.65000000
   C     59.06000000    30.75000000    -6.94000000
   C     59.88000000    31.53000000    -6.11000000
   H     59.66000000    31.79000000   -12.84000000
   H     58.43000000    31.79000000   -10.48000000
   H     61.37000000    31.98000000   -10.67000000
   H     60.38000000    30.52000000   -10.81000000
   H     62.13000000    32.67000000    -8.38000000
   H     58.78000000    29.98000000    -8.92000000
   H     61.57000000    32.82000000    -6.02000000
   H     58.12000000    30.32000000    -6.63000000
   H     59.66000000    31.66000000    -5.06000000
   N     59.97000000    34.78000000   -10.53000000
   C     59.99000000    36.01000000    -9.76000000
   C     58.82000000    36.95000000    -9.98000000
   O     58.71000000    37.95000000    -9.26000000
   C     61.34000000    36.63000000   -10.10000000
   C     61.44000000    36.28000000   -11.59000000
   C     60.92000000    34.85000000   -11.63000000
   H     59.95000000    35.72000000    -8.71000000
   H     61.35000000    37.69000000    -9.84000000
   H     62.15000000    36.19000000    -9.53000000
   H     60.71000000    36.86000000   -12.14000000
   H     62.46000000    36.44000000   -11.93000000
   H     60.36000000    34.69000000   -12.55000000
   H     61.72000000    34.12000000   -11.51000000
   N     57.99000000    36.57000000   -10.95000000
   C     56.67000000    37.17000000   -11.05000000
   C     55.68000000    36.41000000   -10.19000000
   O     54.69000000    37.01000000    -9.77000000
   C     56.14000000    37.14000000   -12.48000000
   C     57.12000000    37.37000000   -13.63000000
   C     56.60000000    37.16000000   -15.05000000
   O     57.14000000    37.72000000   -16.02000000
   O     55.81000000    36.23000000   -15.29000000
   H     58.14000000    35.77000000   -11.55000000
   H     56.72000000    38.24000000   -10.82000000
   H     55.45000000    37.98000000   -12.46000000
   H     55.61000000    36.19000000   -12.56000000
   H     57.93000000    36.65000000   -13.52000000
   H     57.56000000    38.35000000   -13.47000000
   N     55.81000000    35.11000000    -9.90000000
   C     54.98000000    34.44000000    -8.92000000
   H     54.00900000    34.21300000    -9.36100000
   H     55.46200000    33.51400000    -8.60700000
   H     54.84300000    35.08900000    -8.05500000
   H     56.65000000    34.71000000   -10.28000000
  Ca     56.67000000    36.08000000   -18.06900000
   O     54.06000000    36.24000000   -17.20900000
   H     53.18000000    36.57000000   -17.02900000
   H     54.48000000    36.19000000   -16.34900000
   O     54.50000000    35.92000000   -19.85900000
   H     53.93000000    35.77000000   -19.10900000
   H     54.03000000    36.56000000   -20.38900000

Ca 1.00



