%chk=loop2.apoCaM-CA-Ng.Init295.run54.water4.chk
%nprocshared=20
%mem=10GB
%nosave
#b3lyp/svp scf=(tight,noincore,xqc) Test 
#IOP(5/87=12) Density=Current Pop=(MK,readradii) iop(6/33=2) iop(6/42=6)

loop2.apoCaM-CA-Ng.Init295.run54.water4 

   -2  1 
   C     89.61000000    78.97000000    29.70000000
   C     91.03000000    79.39000000    30.06000000
   O     91.31000000    80.58000000    30.19000000
   H     88.96600000    79.84900000    29.67800000
   H     89.60900000    78.49500000    28.71900000
   H     89.23900000    78.26700000    30.44500000
   N     91.92000000    78.40000000    30.22000000
   C     93.33000000    78.61000000    30.48000000
   C     93.61000000    78.97000000    31.93000000
   O     94.37000000    78.34000000    32.67000000
   C     93.98000000    77.29000000    30.07000000
   C     95.49000000    77.34000000    30.23000000
   O     96.17000000    78.37000000    30.06000000
   O     96.02000000    76.26000000    30.56000000
   H     91.50000000    77.51000000    30.43000000
   H     93.66000000    79.43000000    29.84000000
   H     93.87000000    77.10000000    29.00000000
   H     93.49000000    76.50000000    30.63000000
   N     92.96000000    80.00000000    32.47000000
   C     93.11000000    80.47000000    33.83000000
   C     91.80000000    81.15000000    34.20000000
   O     90.94000000    81.24000000    33.32000000
   C     94.33000000    81.37000000    33.74000000
   H     92.35000000    80.44000000    31.79000000
   H     93.18000000    79.68000000    34.59000000
   H     94.26000000    82.01000000    32.86000000
   H     94.50000000    81.98000000    34.63000000
   H     95.22000000    80.79000000    33.52000000
   N     91.50000000    81.67000000    35.39000000
   C     92.30000000    81.53000000    36.59000000
   C     92.12000000    80.25000000    37.39000000
   O     91.26000000    79.43000000    37.06000000
   C     92.09000000    82.74000000    37.51000000
   C     91.93000000    84.06000000    36.77000000
   O     92.90000000    84.52000000    36.14000000
   O     90.79000000    84.56000000    36.76000000
   H     90.58000000    82.10000000    35.46000000
   H     93.35000000    81.61000000    36.32000000
   H     92.84000000    82.74000000    38.29000000
   H     91.14000000    82.66000000    38.04000000
   N     92.94000000    80.12000000    38.43000000
   C     93.14000000    78.86000000    39.11000000
   C     93.61000000    77.80000000    38.13000000
   O     94.33000000    78.09000000    37.18000000
   H     93.62000000    80.84000000    38.62000000
   H     92.24000000    78.66000000    39.70000000
   H     93.77000000    79.00000000    39.99000000
   N     93.30000000    76.54000000    38.43000000
   C     92.54000000    76.02000000    39.56000000
   C     91.11000000    76.50000000    39.77000000
   O     90.58000000    76.46000000    40.88000000
   C     92.64000000    74.50000000    39.51000000
   C     94.02000000    73.92000000    39.82000000
   N     94.34000000    73.54000000    41.06000000
   O     94.91000000    73.88000000    38.97000000
   H     93.74000000    75.90000000    37.79000000
   H     93.09000000    76.26000000    40.47000000
   H     92.44000000    74.09000000    38.52000000
   H     92.02000000    74.13000000    40.33000000
   H     93.61000000    73.68000000    41.75000000
   H     95.29000000    73.42000000    41.36000000
   N     90.43000000    76.94000000    38.71000000
   C     89.02000000    77.26000000    38.63000000
   C     88.53000000    78.52000000    39.35000000
   O     87.42000000    78.49000000    39.88000000
   H     90.86000000    76.83000000    37.80000000
   H     88.53000000    76.41000000    39.11000000
   H     88.71000000    77.29000000    37.59000000
   N     89.31000000    79.59000000    39.47000000
   C     89.04000000    80.86000000    40.12000000
   C     88.30000000    81.83000000    39.21000000
   O     88.83000000    82.95000000    39.19000000
   C     90.31000000    81.48000000    40.72000000
   C     90.05000000    82.59000000    41.72000000
   O     91.09000000    80.55000000    41.42000000
   H     90.21000000    79.51000000    39.01000000
   H     88.31000000    80.58000000    40.87000000
   H     90.86000000    81.85000000    39.85000000
   H     92.03000000    80.76000000    41.41000000
   H     89.23000000    82.27000000    42.37000000
   H     90.95000000    82.82000000    42.29000000
   H     89.76000000    83.55000000    41.29000000
   N     87.31000000    81.44000000    38.41000000
   C     86.66000000    82.32000000    37.46000000
   C     85.60000000    83.19000000    38.12000000
   O     85.09000000    82.90000000    39.19000000
   C     86.05000000    81.51000000    36.32000000
   C     86.98000000    81.42000000    35.11000000
   C     85.40000000    80.23000000    36.81000000
   C     88.06000000    80.34000000    35.15000000
   H     86.88000000    80.55000000    38.62000000
   H     87.41000000    82.95000000    36.97000000
   H     85.21000000    82.02000000    35.86000000
   H     87.48000000    82.35000000    34.87000000
   H     86.38000000    81.09000000    34.26000000
   H     86.20000000    79.59000000    37.19000000
   H     84.63000000    80.29000000    37.59000000
   H     84.79000000    79.78000000    36.03000000
   H     88.69000000    80.38000000    36.05000000
   H     87.61000000    79.35000000    35.04000000
   H     88.74000000    80.32000000    34.30000000
   N     85.17000000    84.33000000    37.56000000
   C     84.05000000    85.22000000    37.75000000
   C     83.07000000    85.15000000    36.58000000
   O     83.25000000    84.36000000    35.66000000
   C     84.74000000    86.58000000    37.76000000
   C     85.40000000    86.95000000    36.44000000
   O     86.51000000    86.43000000    36.21000000
   O     84.81000000    87.73000000    35.66000000
   H     85.83000000    84.61000000    36.84000000
   H     83.53000000    85.00000000    38.69000000
   H     85.50000000    86.59000000    38.54000000
   H     84.04000000    87.38000000    38.01000000
   N     82.02000000    85.97000000    36.65000000
   C     80.87000000    86.05000000    35.78000000
   C     81.11000000    85.80000000    34.30000000
   O     81.00000000    84.65000000    33.86000000
   C     79.71000000    85.23000000    36.35000000
   C     78.80000000    85.96000000    37.31000000
   C     77.59000000    86.48000000    36.84000000
   C     79.17000000    86.11000000    38.65000000
   C     76.69000000    87.04000000    37.76000000
   C     78.27000000    86.68000000    39.55000000
   C     77.02000000    87.14000000    39.12000000
   H     82.05000000    86.60000000    37.44000000
   H     80.44000000    87.05000000    35.83000000
   H     80.10000000    84.33000000    36.82000000
   H     79.07000000    84.93000000    35.52000000
   H     77.29000000    86.51000000    35.81000000
   H     80.13000000    85.76000000    39.02000000
   H     75.70000000    87.32000000    37.45000000
   H     78.58000000    86.80000000    40.58000000
   H     76.35000000    87.55000000    39.87000000
   N     81.59000000    86.77000000    33.51000000
   C     81.76000000    86.54000000    32.09000000
   C     82.64000000    85.36000000    31.71000000
   O     82.44000000    84.73000000    30.67000000
   C     82.41000000    87.82000000    31.58000000
   C     81.79000000    88.86000000    32.51000000
   C     81.79000000    88.16000000    33.86000000
   H     80.80000000    86.49000000    31.58000000
   H     83.50000000    87.86000000    31.63000000
   H     82.20000000    87.91000000    30.51000000
   H     82.29000000    89.83000000    32.50000000
   H     80.75000000    88.89000000    32.18000000
   H     82.80000000    88.17000000    34.27000000
   H     81.03000000    88.52000000    34.55000000
   N     83.54000000    84.90000000    32.59000000
   C     84.43000000    83.80000000    32.27000000
   C     83.74000000    82.48000000    32.59000000
   O     83.76000000    81.63000000    31.71000000
   C     85.84000000    83.83000000    32.86000000
   C     86.56000000    85.13000000    32.51000000
   C     87.73000000    85.50000000    33.41000000
   O     88.24000000    84.65000000    34.16000000
   O     88.04000000    86.71000000    33.49000000
   H     83.40000000    85.06000000    33.57000000
   H     84.61000000    83.91000000    31.20000000
   H     86.46000000    83.02000000    32.46000000
   H     85.80000000    83.69000000    33.95000000
   H     85.90000000    85.98000000    32.38000000
   H     86.94000000    84.93000000    31.51000000
   N     83.18000000    82.29000000    33.78000000
   C     82.38000000    81.15000000    34.19000000
   H     81.42300000    81.17300000    33.67000000
   H     82.90600000    80.22800000    33.94200000
   H     82.20900000    81.19300000    35.26600000
   H     83.34000000    83.05000000    34.43000000
  Ca     89.21000000    86.51000000    35.82000000
   O     89.91000000    88.82000000    34.54000000
   H     90.83000000    88.97000000    34.77000000
   H     89.59000000    89.68000000    34.28000000
   O     88.59000000    85.62000000    38.45000000
   H     88.19000000    85.88000000    39.28000000
   H     88.84000000    84.71000000    38.58000000
   O     91.39000000    85.95000000    34.02000000
   H     91.92000000    85.74000000    34.79000000
   H     91.54000000    85.23000000    33.41000000
   O     91.24000000    87.19000000    37.43000000
   H     91.46000000    86.31000000    37.74000000
   H     91.93000000    87.74000000    37.77000000

Ca 1.00



