%chk=loop2.holoCaM.run44.water1.chk
%nprocshared=20
%mem=10GB
%nosave
#b3lyp/svp scf=(tight,noincore,xqc) Test 
#IOP(5/87=12) Density=Current Pop=(MK,readradii) iop(6/33=2) iop(6/42=6)

loop2.holoCaM.run44.water1 

   -2  1 
   C     67.91000000    68.42000000    25.92000000
   C     67.93000000    69.33000000    27.14000000
   O     68.99000000    69.75000000    27.62000000
   H     68.10700000    69.00900000    25.02500000
   H     68.67700000    67.65300000    26.02500000
   H     66.93200000    67.94700000    25.83500000
   N     66.81000000    69.75000000    27.72000000
   C     66.74000000    70.59000000    28.90000000
   C     67.42000000    69.86000000    30.05000000
   O     67.00000000    68.85000000    30.60000000
   C     65.28000000    70.86000000    29.26000000
   C     65.04000000    71.69000000    30.51000000
   O     65.98000000    72.29000000    31.07000000
   O     63.91000000    71.74000000    31.05000000
   H     65.94000000    69.37000000    27.38000000
   H     67.20000000    71.55000000    28.64000000
   H     64.81000000    69.89000000    29.41000000
   H     64.83000000    71.28000000    28.36000000
   N     68.50000000    70.52000000    30.48000000
   C     69.52000000    70.08000000    31.42000000
   C     68.96000000    70.24000000    32.83000000
   O     69.01000000    69.32000000    33.64000000
   C     70.86000000    70.78000000    31.24000000
   H     68.68000000    71.45000000    30.14000000
   H     69.59000000    69.01000000    31.26000000
   H     71.64000000    70.18000000    31.72000000
   H     71.26000000    70.88000000    30.23000000
   H     70.75000000    71.78000000    31.67000000
   N     68.34000000    71.37000000    33.17000000
   C     67.88000000    71.69000000    34.50000000
   C     66.52000000    71.12000000    34.87000000
   O     66.14000000    71.07000000    36.04000000
   C     67.93000000    73.21000000    34.63000000
   C     67.54000000    74.05000000    33.41000000
   O     66.44000000    74.64000000    33.37000000
   O     68.39000000    74.30000000    32.53000000
   H     68.36000000    72.15000000    32.53000000
   H     68.41000000    71.32000000    35.38000000
   H     68.94000000    73.52000000    34.88000000
   H     67.41000000    73.54000000    35.53000000
   N     65.76000000    70.71000000    33.85000000
   C     64.50000000    70.01000000    34.02000000
   C     63.41000000    70.96000000    34.46000000
   O     62.47000000    70.50000000    35.11000000
   H     66.07000000    71.00000000    32.93000000
   H     64.63000000    69.16000000    34.70000000
   H     64.16000000    69.58000000    33.07000000
   N     63.54000000    72.26000000    34.16000000
   C     62.53000000    73.26000000    34.44000000
   C     61.29000000    73.21000000    33.55000000
   O     60.25000000    73.72000000    33.96000000
   C     63.22000000    74.61000000    34.32000000
   C     63.17000000    75.26000000    32.94000000
   N     62.39000000    76.33000000    32.75000000
   O     63.86000000    74.96000000    31.97000000
   H     64.41000000    72.58000000    33.77000000
   H     62.20000000    73.25000000    35.48000000
   H     64.27000000    74.61000000    34.63000000
   H     62.62000000    75.16000000    35.04000000
   H     61.99000000    76.77000000    33.57000000
   H     62.43000000    76.70000000    31.82000000
   N     61.52000000    72.62000000    32.37000000
   C     60.54000000    72.59000000    31.31000000
   C     60.60000000    73.48000000    30.08000000
   O     59.72000000    73.52000000    29.23000000
   H     62.49000000    72.39000000    32.20000000
   H     59.55000000    72.78000000    31.74000000
   H     60.63000000    71.56000000    30.96000000
   N     61.71000000    74.20000000    29.85000000
   C     61.94000000    74.88000000    28.59000000
   C     63.35000000    74.77000000    28.06000000
   O     64.27000000    74.52000000    28.83000000
   C     61.60000000    76.37000000    28.64000000
   C     60.10000000    76.51000000    28.87000000
   O     62.18000000    77.09000000    29.70000000
   H     62.39000000    74.18000000    30.60000000
   H     61.28000000    74.41000000    27.86000000
   H     61.84000000    76.85000000    27.70000000
   H     63.10000000    77.19000000    29.43000000
   H     59.86000000    77.53000000    28.58000000
   H     59.52000000    75.81000000    28.27000000
   H     59.94000000    76.24000000    29.92000000
   N     63.58000000    75.03000000    26.76000000
   C     64.86000000    75.09000000    26.08000000
   C     65.52000000    76.45000000    26.27000000
   O     64.90000000    77.43000000    25.86000000
   C     64.68000000    74.59000000    24.65000000
   C     64.46000000    73.08000000    24.64000000
   C     65.81000000    75.01000000    23.71000000
   C     63.80000000    72.53000000    23.38000000
   H     62.83000000    75.33000000    26.16000000
   H     65.46000000    74.32000000    26.56000000
   H     63.78000000    75.09000000    24.29000000
   H     63.80000000    72.79000000    25.46000000
   H     65.36000000    72.50000000    24.82000000
   H     66.05000000    76.06000000    23.80000000
   H     66.72000000    74.44000000    23.88000000
   H     65.57000000    75.01000000    22.65000000
   H     63.66000000    71.45000000    23.31000000
   H     62.86000000    73.07000000    23.47000000
   H     64.30000000    72.88000000    22.47000000
   N     66.75000000    76.52000000    26.77000000
   C     67.64000000    77.67000000    26.78000000
   C     68.56000000    77.67000000    25.57000000
   O     68.80000000    76.59000000    25.03000000
   C     68.49000000    77.74000000    28.04000000
   C     67.68000000    77.66000000    29.33000000
   O     67.90000000    76.76000000    30.18000000
   O     66.78000000    78.52000000    29.43000000
   H     67.05000000    75.64000000    27.17000000
   H     67.14000000    78.64000000    26.81000000
   H     69.12000000    78.63000000    28.04000000
   H     69.11000000    76.85000000    27.97000000
   N     69.15000000    78.81000000    25.20000000
   C     70.17000000    78.82000000    24.18000000
   C     71.25000000    77.75000000    24.23000000
   O     71.34000000    77.09000000    23.19000000
   C     70.80000000    80.19000000    23.91000000
   C     71.60000000    80.27000000    22.63000000
   C     71.00000000    80.12000000    21.37000000
   C     72.97000000    80.51000000    22.69000000
   C     71.85000000    80.06000000    20.26000000
   C     73.80000000    80.40000000    21.56000000
   C     73.24000000    80.14000000    20.31000000
   H     68.76000000    79.66000000    25.59000000
   H     69.58000000    78.58000000    23.29000000
   H     71.50000000    80.40000000    24.71000000
   H     70.07000000    80.99000000    24.03000000
   H     69.93000000    80.05000000    21.23000000
   H     73.38000000    80.85000000    23.63000000
   H     71.34000000    79.96000000    19.32000000
   H     74.88000000    80.46000000    21.64000000
   H     73.74000000    80.10000000    19.35000000
   N     71.85000000    77.48000000    25.40000000
   C     72.78000000    76.38000000    25.52000000
   C     72.24000000    75.00000000    25.17000000
   O     72.98000000    74.07000000    24.87000000
   C     73.39000000    76.43000000    26.92000000
   C     73.21000000    77.90000000    27.30000000
   C     71.87000000    78.21000000    26.65000000
   H     73.59000000    76.44000000    24.78000000
   H     72.84000000    75.80000000    27.61000000
   H     74.42000000    76.18000000    26.69000000
   H     73.27000000    78.15000000    28.36000000
   H     73.92000000    78.49000000    26.72000000
   H     71.04000000    77.74000000    27.18000000
   H     71.70000000    79.29000000    26.60000000
   N     70.92000000    74.83000000    25.15000000
   C     70.19000000    73.59000000    24.95000000
   C     69.64000000    73.47000000    23.54000000
   O     69.53000000    72.40000000    22.95000000
   C     69.05000000    73.46000000    25.95000000
   C     69.52000000    73.52000000    27.40000000
   C     68.44000000    73.69000000    28.46000000
   O     67.36000000    74.30000000    28.32000000
   O     68.62000000    73.34000000    29.65000000
   H     70.41000000    75.63000000    25.52000000
   H     70.84000000    72.73000000    25.08000000
   H     68.53000000    72.50000000    25.87000000
   H     68.42000000    74.35000000    25.87000000
   H     70.19000000    74.36000000    27.55000000
   H     70.04000000    72.61000000    27.71000000
   N     69.33000000    74.57000000    22.85000000
   C     69.09000000    74.80000000    21.44000000
   H     68.33700000    75.58000000    21.32300000
   H     70.01600000    75.11500000    20.96000000
   H     68.73500000    73.88000000    20.97600000
   H     69.25000000    75.35000000    23.49000000
  Ca     66.34000000    74.77000000    30.72000000
   O     65.17000000    77.25000000    31.07000000
   H     64.65000000    77.80000000    31.66000000
   H     65.66000000    77.88000000    30.53000000

Ca 1.00



