%chk=loop2.holoCaM-CaMKII.run60.water2.chk
%nprocshared=20
%mem=10GB
%nosave
#b3lyp/svp scf=(tight,noincore,xqc) Test 
#IOP(5/87=12) Density=Current Pop=(MK,readradii) iop(6/33=2) iop(6/42=6)

loop2.holoCaM-CaMKII.run60.water2 

   -2  1 
   C     -0.63000000    46.12000000    32.19000000
   C     -1.87000000    47.00000000    32.26000000
   O     -1.79000000    48.15000000    32.68000000
   H      0.18400000    46.59600000    32.73600000
   H     -0.84700000    45.14900000    32.63600000
   H     -0.33800000    45.98500000    31.14900000
   N     -3.08000000    46.47000000    32.06000000
   C     -4.30000000    47.22000000    31.82000000
   C     -4.99000000    47.85000000    33.01000000
   O     -5.01000000    47.23000000    34.08000000
   C     -5.22000000    46.32000000    31.00000000
   C     -6.51000000    46.94000000    30.49000000
   O     -6.62000000    48.18000000    30.32000000
   O     -7.41000000    46.10000000    30.28000000
   H     -3.10000000    45.50000000    31.79000000
   H     -3.98000000    48.05000000    31.18000000
   H     -5.48000000    45.52000000    31.70000000
   H     -4.73000000    45.85000000    30.15000000
   N     -5.60000000    49.02000000    32.81000000
   C     -6.55000000    49.57000000    33.75000000
   C     -8.01000000    49.80000000    33.37000000
   O     -8.85000000    50.26000000    34.14000000
   C     -6.03000000    50.84000000    34.41000000
   H     -5.65000000    49.48000000    31.91000000
   H     -6.56000000    48.84000000    34.57000000
   H     -6.23000000    50.84000000    35.48000000
   H     -4.98000000    51.03000000    34.19000000
   H     -6.61000000    51.70000000    34.07000000
   N     -8.37000000    49.59000000    32.10000000
   C     -9.67000000    49.94000000    31.57000000
   C    -10.35000000    49.01000000    30.57000000
   O    -11.57000000    49.04000000    30.45000000
   C     -9.74000000    51.31000000    30.89000000
   C     -8.56000000    51.67000000    29.99000000
   O     -7.95000000    50.72000000    29.45000000
   O     -8.25000000    52.87000000    29.84000000
   H     -7.65000000    49.28000000    31.47000000
   H    -10.38000000    49.88000000    32.39000000
   H     -9.67000000    52.06000000    31.67000000
   H    -10.70000000    51.46000000    30.39000000
   N     -9.61000000    48.07000000    29.97000000
   C    -10.18000000    47.31000000    28.88000000
   C    -10.35000000    47.98000000    27.52000000
   O    -11.16000000    47.51000000    26.72000000
   H     -8.64000000    48.01000000    30.26000000
   H    -11.12000000    46.84000000    29.17000000
   H     -9.62000000    46.39000000    28.70000000
   N     -9.69000000    49.12000000    27.34000000
   C     -9.89000000    49.78000000    26.07000000
   C     -9.33000000    49.12000000    24.82000000
   O     -9.73000000    49.40000000    23.69000000
   C     -9.44000000    51.24000000    26.14000000
   C     -7.98000000    51.44000000    26.49000000
   N     -7.58000000    52.72000000    26.57000000
   O     -7.18000000    50.51000000    26.57000000
   H     -9.20000000    49.51000000    28.14000000
   H    -10.96000000    49.86000000    25.85000000
   H    -10.04000000    51.82000000    26.84000000
   H     -9.63000000    51.57000000    25.12000000
   H     -8.25000000    53.46000000    26.43000000
   H     -6.66000000    52.97000000    26.91000000
   N     -8.39000000    48.19000000    24.99000000
   C     -7.79000000    47.40000000    23.92000000
   C     -6.33000000    47.76000000    23.64000000
   O     -5.78000000    47.23000000    22.69000000
   H     -8.01000000    47.99000000    25.90000000
   H     -8.28000000    47.52000000    22.96000000
   H     -8.00000000    46.34000000    24.06000000
   N     -5.72000000    48.79000000    24.23000000
   C     -4.51000000    49.52000000    23.91000000
   C     -3.68000000    49.94000000    25.12000000
   O     -4.23000000    50.13000000    26.20000000
   C     -4.77000000    50.75000000    23.05000000
   C     -5.32000000    50.30000000    21.70000000
   O     -5.63000000    51.69000000    23.64000000
   H     -6.30000000    49.18000000    24.96000000
   H     -3.87000000    48.87000000    23.31000000
   H     -3.83000000    51.30000000    22.97000000
   H     -5.15000000    52.41000000    24.07000000
   H     -4.85000000    49.44000000    21.21000000
   H     -6.36000000    49.96000000    21.81000000
   H     -5.25000000    51.18000000    21.07000000
   N     -2.38000000    50.14000000    24.87000000
   C     -1.51000000    50.70000000    25.88000000
   C     -1.67000000    52.21000000    25.89000000
   O     -1.53000000    52.92000000    24.90000000
   C     -0.02000000    50.42000000    25.69000000
   C      0.16000000    48.92000000    25.46000000
   C      0.85000000    50.92000000    26.83000000
   C      1.56000000    48.42000000    25.10000000
   H     -2.05000000    50.09000000    23.92000000
   H     -1.76000000    50.25000000    26.84000000
   H      0.33000000    50.95000000    24.80000000
   H     -0.46000000    48.68000000    24.60000000
   H     -0.17000000    48.40000000    26.36000000
   H      0.46000000    50.64000000    27.81000000
   H      1.90000000    50.64000000    26.77000000
   H      0.89000000    52.01000000    26.78000000
   H      1.93000000    47.84000000    25.95000000
   H      1.50000000    47.66000000    24.32000000
   H      2.21000000    49.26000000    24.88000000
   N     -1.93000000    52.76000000    27.08000000
   C     -2.03000000    54.17000000    27.38000000
   C     -0.81000000    54.65000000    28.16000000
   O      0.00000000    53.90000000    28.70000000
   C     -3.28000000    54.32000000    28.24000000
   C     -4.54000000    53.64000000    27.72000000
   O     -5.02000000    52.63000000    28.28000000
   O     -5.16000000    54.23000000    26.81000000
   H     -1.91000000    52.04000000    27.79000000
   H     -2.15000000    54.74000000    26.46000000
   H     -3.41000000    55.40000000    28.33000000
   H     -3.16000000    53.90000000    29.24000000
   N     -0.56000000    55.95000000    28.34000000
   C      0.67000000    56.46000000    28.90000000
   C      0.89000000    56.09000000    30.36000000
   O      1.98000000    55.62000000    30.67000000
   C      0.64000000    57.98000000    28.75000000
   C      1.97000000    58.68000000    28.91000000
   C      2.41000000    59.08000000    30.18000000
   C      2.81000000    58.62000000    27.79000000
   C      3.77000000    59.33000000    30.37000000
   C      4.18000000    58.76000000    28.06000000
   C      4.66000000    59.18000000    29.30000000
   H     -1.21000000    56.63000000    27.99000000
   H      1.53000000    56.04000000    28.37000000
   H     -0.07000000    58.45000000    29.43000000
   H      0.32000000    58.29000000    27.76000000
   H      1.78000000    58.85000000    31.03000000
   H      2.49000000    58.21000000    26.85000000
   H      4.08000000    59.64000000    31.36000000
   H      4.82000000    58.77000000    27.19000000
   H      5.70000000    59.43000000    29.46000000
   N     -0.06000000    55.98000000    31.29000000
   C      0.18000000    55.42000000    32.60000000
   C      0.46000000    53.93000000    32.68000000
   O      1.04000000    53.42000000    33.64000000
   C     -1.08000000    55.71000000    33.42000000
   C     -2.17000000    56.09000000    32.42000000
   C     -1.37000000    56.59000000    31.23000000
   H      1.03000000    55.93000000    33.05000000
   H     -1.45000000    54.89000000    34.04000000
   H     -0.88000000    56.59000000    34.03000000
   H     -2.89000000    55.32000000    32.12000000
   H     -2.71000000    56.92000000    32.88000000
   H     -1.96000000    56.37000000    30.34000000
   H     -1.32000000    57.68000000    31.31000000
   N      0.15000000    53.21000000    31.60000000
   C      0.35000000    51.79000000    31.41000000
   C      1.72000000    51.45000000    30.85000000
   O      2.37000000    50.54000000    31.36000000
   C     -0.75000000    51.21000000    30.52000000
   C     -2.11000000    51.27000000    31.21000000
   C     -3.27000000    50.84000000    30.31000000
   O     -4.46000000    50.80000000    30.70000000
   O     -3.12000000    50.47000000    29.13000000
   H      0.04000000    53.79000000    30.78000000
   H      0.38000000    51.28000000    32.38000000
   H     -0.51000000    50.18000000    30.26000000
   H     -0.75000000    51.63000000    29.52000000
   H     -2.20000000    52.31000000    31.53000000
   H     -2.12000000    50.70000000    32.13000000
   N      2.25000000    52.33000000    30.00000000
   C      3.61000000    52.26000000    29.50000000
   H      4.28300000    51.99400000    30.31500000
   H      3.67100000    51.50400000    28.71700000
   H      3.89900000    53.22900000    29.09300000
   H      1.63000000    53.06000000    29.67000000
  Ca     -5.64100000    50.03000000    28.54000000
   O     -3.79100000    48.01000000    28.60000000
   H     -3.15100000    48.68000000    28.84000000
   H     -3.30100000    47.19000000    28.64000000
   O     -6.73100000    47.78000000    27.70000000
   H     -7.09100000    47.34000000    28.47000000
   H     -6.34100000    47.09000000    27.18000000

Ca 1.00



