%chk=loop2.apoCaM-CA-Ng.Init31.run58.water4.chk
%nprocshared=20
%mem=10GB
%nosave
#b3lyp/svp scf=(tight,noincore,xqc) Test 
#IOP(5/87=12) Density=Current Pop=(MK,readradii) iop(6/33=2) iop(6/42=6)

loop2.apoCaM-CA-Ng.Init31.run58.water4 

   -2  1 
   C     94.99000000    75.64000000    -0.03000000
   C     93.55000000    75.13000000     0.00000000
   O     93.26000000    74.21000000     0.76000000
   H     95.63100000    74.88800000    -0.49000000
   H     95.03800000    76.56200000    -0.61000000
   H     95.32900000    75.83200000     0.98800000
   N     92.53000000    75.63000000    -0.71000000
   C     92.56000000    76.92000000    -1.37000000
   C     91.73000000    76.86000000    -2.64000000
   O     90.62000000    76.33000000    -2.68000000
   C     92.04000000    77.95000000    -0.37000000
   C     90.70000000    77.73000000     0.33000000
   O     90.03000000    76.70000000     0.12000000
   O     90.37000000    78.63000000     1.13000000
   H     91.64000000    75.16000000    -0.60000000
   H     93.59000000    77.17000000    -1.63000000
   H     92.04000000    78.91000000    -0.89000000
   H     92.72000000    78.19000000     0.44000000
   N     92.29000000    77.51000000    -3.66000000
   C     91.80000000    77.85000000    -4.98000000
   C     90.49000000    78.60000000    -5.07000000
   O     90.28000000    79.35000000    -6.02000000
   C     91.86000000    76.60000000    -5.85000000
   H     93.04000000    78.08000000    -3.30000000
   H     92.59000000    78.54000000    -5.28000000
   H     91.50000000    76.75000000    -6.87000000
   H     92.85000000    76.16000000    -5.92000000
   H     91.12000000    75.92000000    -5.43000000
   N     89.57000000    78.32000000    -4.14000000
   C     88.26000000    78.95000000    -4.08000000
   C     87.67000000    78.95000000    -2.68000000
   O     87.86000000    78.01000000    -1.90000000
   C     87.29000000    78.17000000    -4.96000000
   C     87.15000000    76.68000000    -4.70000000
   O     86.45000000    76.02000000    -5.49000000
   O     87.71000000    76.00000000    -3.81000000
   H     89.74000000    77.61000000    -3.45000000
   H     88.28000000    79.96000000    -4.47000000
   H     87.71000000    78.41000000    -5.94000000
   H     86.32000000    78.65000000    -4.78000000
   N     87.01000000    80.06000000    -2.34000000
   C     86.04000000    80.01000000    -1.27000000
   C     84.84000000    79.16000000    -1.66000000
   O     84.28000000    79.24000000    -2.75000000
   H     86.84000000    80.71000000    -3.09000000
   H     85.80000000    81.06000000    -1.06000000
   H     86.45000000    79.69000000    -0.31000000
   N     84.39000000    78.24000000    -0.80000000
   C     83.18000000    77.48000000    -1.03000000
   C     82.05000000    77.90000000    -0.10000000
   O     82.23000000    78.44000000     0.99000000
   C     83.49000000    75.98000000    -0.97000000
   C     84.51000000    75.51000000    -2.00000000
   N     84.17000000    75.11000000    -3.23000000
   O     85.68000000    75.43000000    -1.65000000
   H     84.83000000    78.03000000     0.08000000
   H     82.77000000    77.72000000    -2.01000000
   H     82.59000000    75.42000000    -1.23000000
   H     83.85000000    75.63000000     0.00000000
   H     83.23000000    75.30000000    -3.54000000
   H     84.90000000    74.72000000    -3.81000000
   N     80.82000000    77.57000000    -0.49000000
   C     79.64000000    77.56000000     0.34000000
   C     78.76000000    76.32000000     0.21000000
   O     79.05000000    75.44000000    -0.59000000
   H     80.71000000    77.12000000    -1.39000000
   H     79.09000000    78.46000000     0.05000000
   H     79.98000000    77.66000000     1.37000000
   N     77.71000000    76.20000000     1.03000000
   C     77.38000000    76.95000000     2.23000000
   C     78.50000000    76.72000000     3.23000000
   O     78.92000000    77.71000000     3.82000000
   C     76.04000000    76.42000000     2.74000000
   C     74.86000000    77.04000000     1.99000000
   O     75.92000000    75.02000000     2.65000000
   H     77.01000000    75.57000000     0.66000000
   H     77.32000000    78.01000000     2.02000000
   H     75.88000000    76.75000000     3.77000000
   H     75.01000000    74.93000000     2.95000000
   H     75.03000000    78.09000000     1.75000000
   H     74.67000000    76.55000000     1.04000000
   H     73.99000000    76.91000000     2.63000000
   N     79.12000000    75.53000000     3.25000000
   C     80.09000000    75.07000000     4.22000000
   C     79.71000000    75.48000000     5.63000000
   O     80.48000000    76.08000000     6.38000000
   C     81.56000000    75.25000000     3.83000000
   C     81.89000000    74.98000000     2.36000000
   C     82.42000000    74.35000000     4.71000000
   C     81.19000000    73.86000000     1.60000000
   H     78.79000000    74.76000000     2.69000000
   H     80.06000000    73.98000000     4.13000000
   H     81.78000000    76.30000000     4.02000000
   H     82.96000000    75.01000000     2.14000000
   H     81.55000000    75.85000000     1.81000000
   H     83.47000000    74.64000000     4.67000000
   H     82.17000000    74.50000000     5.76000000
   H     82.33000000    73.31000000     4.38000000
   H     81.22000000    72.92000000     2.15000000
   H     80.13000000    74.03000000     1.44000000
   H     81.65000000    73.63000000     0.64000000
   N     78.60000000    74.97000000     6.18000000
   C     77.70000000    74.05000000     5.53000000
   C     78.15000000    72.60000000     5.67000000
   O     77.82000000    71.76000000     4.84000000
   C     76.31000000    74.26000000     6.13000000
   C     76.13000000    74.17000000     7.64000000
   O     75.02000000    74.42000000     8.15000000
   O     77.13000000    73.99000000     8.37000000
   H     78.29000000    75.27000000     7.09000000
   H     77.67000000    74.19000000     4.45000000
   H     75.66000000    73.49000000     5.71000000
   H     75.83000000    75.19000000     5.86000000
   N     79.04000000    72.34000000     6.63000000
   C     79.54000000    71.01000000     6.88000000
   C     78.53000000    70.13000000     7.60000000
   O     77.80000000    70.63000000     8.45000000
   C     80.86000000    71.19000000     7.62000000
   C     80.82000000    71.85000000     8.98000000
   C     80.84000000    73.23000000     9.22000000
   C     81.03000000    71.00000000    10.07000000
   C     80.98000000    73.77000000    10.50000000
   C     81.11000000    71.52000000    11.37000000
   C     81.07000000    72.90000000    11.59000000
   H     79.34000000    73.00000000     7.34000000
   H     79.89000000    70.63000000     5.92000000
   H     81.53000000    71.65000000     6.89000000
   H     81.28000000    70.20000000     7.78000000
   H     80.85000000    73.94000000     8.40000000
   H     81.18000000    69.93000000    10.05000000
   H     81.15000000    74.83000000    10.63000000
   H     81.13000000    70.84000000    12.21000000
   H     81.19000000    73.34000000    12.57000000
   N     78.55000000    68.81000000     7.44000000
   C     79.56000000    67.98000000     6.81000000
   C     79.76000000    68.01000000     5.30000000
   O     78.91000000    68.56000000     4.61000000
   C     79.18000000    66.59000000     7.33000000
   C     78.32000000    66.71000000     8.58000000
   C     77.59000000    67.98000000     8.13000000
   H     80.48000000    68.35000000     7.27000000
   H     78.60000000    66.10000000     6.55000000
   H     79.99000000    65.91000000     7.61000000
   H     77.71000000    65.85000000     8.86000000
   H     78.97000000    67.08000000     9.37000000
   H     76.83000000    67.69000000     7.40000000
   H     77.26000000    68.44000000     9.06000000
   N     80.91000000    67.59000000     4.75000000
   C     81.40000000    67.65000000     3.39000000
   C     82.91000000    67.46000000     3.25000000
   O     83.30000000    66.47000000     2.64000000
   C     80.60000000    66.64000000     2.58000000
   C     80.60000000    66.78000000     1.06000000
   C     79.48000000    66.07000000     0.32000000
   O     79.56000000    66.02000000    -0.93000000
   O     78.52000000    65.51000000     0.90000000
   H     81.52000000    67.21000000     5.45000000
   H     81.30000000    68.67000000     3.02000000
   H     79.59000000    66.60000000     3.00000000
   H     81.07000000    65.68000000     2.76000000
   H     81.59000000    66.49000000     0.71000000
   H     80.46000000    67.86000000     0.93000000
   N     83.86000000    68.18000000     3.85000000
   C     83.81000000    69.17000000     4.91000000
   H     82.81900000    69.62300000     4.93700000
   H     84.01500000    68.69000000     5.86700000
   H     84.55700000    69.94200000     4.72300000
   H     84.73000000    67.92000000     3.40000000
  Ca     88.35000000    75.33000000    -1.35700000
   O     90.21000000    73.56000000    -2.57700000
   H     91.09000000    73.19000000    -2.52700000
   H     89.70000000    72.91000000    -3.05700000
   O     87.36000000    76.16000000     1.11000000
   H     86.63000000    76.79000000     1.14000000
   H     87.74000000    76.20000000     1.99000000
   O     87.37000000    72.89000000    -1.48700000
   H     86.55000000    72.62000000    -1.89700000
   H     88.05000000    72.39000000    -1.94700000
   O     89.54000000    73.72000000     0.42000000
   H     90.15000000    73.06000000     0.08000000
   H     89.82000000    73.85000000     1.33000000

Ca 1.00



