%chk=loop2.holoCaM.run92.water1.chk
%nprocshared=20
%mem=10GB
%nosave
#b3lyp/svp scf=(tight,noincore,xqc) Test 
#IOP(5/87=12) Density=Current Pop=(MK,readradii) iop(6/33=2) iop(6/42=6)

loop2.holoCaM.run92.water1 

   -2  1 
   C     30.59000000    69.36000000    28.73000000
   C     29.50000000    68.75000000    29.59000000
   O     29.81000000    67.68000000    30.12000000
   H     31.49800000    68.76300000    28.81800000
   H     30.26600000    69.37700000    27.68900000
   H     30.79100000    70.37800000    29.06500000
   N     28.33000000    69.37000000    29.79000000
   C     27.30000000    68.95000000    30.72000000
   C     26.56000000    67.69000000    30.30000000
   O     25.59000000    67.80000000    29.55000000
   C     26.36000000    70.12000000    30.99000000
   C     25.17000000    69.76000000    31.88000000
   O     25.13000000    68.66000000    32.47000000
   O     24.39000000    70.71000000    32.11000000
   H     28.31000000    70.29000000    29.38000000
   H     27.86000000    68.65000000    31.60000000
   H     26.02000000    70.43000000    30.00000000
   H     26.95000000    70.90000000    31.46000000
   N     26.72000000    66.54000000    30.96000000
   C     26.18000000    65.27000000    30.51000000
   C     24.66000000    65.14000000    30.55000000
   O     24.11000000    64.24000000    29.91000000
   C     26.87000000    64.14000000    31.27000000
   H     27.29000000    66.54000000    31.80000000
   H     26.42000000    65.19000000    29.45000000
   H     27.94000000    64.28000000    31.13000000
   H     26.62000000    64.26000000    32.32000000
   H     26.48000000    63.20000000    30.88000000
   N     23.92000000    65.89000000    31.36000000
   C     22.47000000    65.91000000    31.44000000
   C     21.90000000    67.01000000    30.56000000
   O     20.68000000    67.09000000    30.38000000
   C     22.02000000    66.17000000    32.87000000
   C     22.90000000    65.51000000    33.92000000
   O     22.49000000    64.43000000    34.41000000
   O     23.80000000    66.22000000    34.43000000
   H     24.43000000    66.40000000    32.06000000
   H     22.06000000    64.93000000    31.17000000
   H     20.96000000    65.96000000    32.99000000
   H     22.12000000    67.23000000    33.10000000
   N     22.74000000    67.98000000    30.20000000
   C     22.42000000    69.34000000    29.83000000
   C     21.52000000    70.13000000    30.77000000
   O     20.63000000    70.85000000    30.33000000
   H     23.71000000    67.78000000    30.43000000
   H     21.94000000    69.30000000    28.85000000
   H     23.30000000    69.97000000    29.72000000
   N     21.58000000    69.83000000    32.07000000
   C     20.74000000    70.42000000    33.10000000
   C     21.19000000    71.79000000    33.59000000
   O     20.50000000    72.31000000    34.46000000
   C     20.65000000    69.43000000    34.26000000
   C     21.89000000    69.15000000    35.09000000
   N     21.65000000    68.50000000    36.24000000
   O     23.03000000    69.44000000    34.73000000
   H     22.37000000    69.28000000    32.37000000
   H     19.72000000    70.57000000    32.77000000
   H     20.27000000    68.48000000    33.90000000
   H     19.86000000    69.80000000    34.91000000
   H     20.66000000    68.37000000    36.39000000
   H     22.38000000    68.16000000    36.85000000
   N     22.26000000    72.38000000    33.05000000
   C     22.77000000    73.71000000    33.30000000
   C     23.67000000    73.76000000    34.53000000
   O     23.90000000    74.88000000    34.98000000
   H     22.81000000    71.72000000    32.52000000
   H     21.90000000    74.34000000    33.49000000
   H     23.36000000    74.10000000    32.48000000
   N     24.19000000    72.65000000    35.05000000
   C     24.92000000    72.62000000    36.30000000
   C     26.10000000    71.67000000    36.12000000
   O     25.93000000    70.67000000    35.43000000
   C     24.07000000    72.07000000    37.44000000
   C     24.68000000    71.78000000    38.81000000
   O     22.94000000    72.88000000    37.68000000
   H     23.81000000    71.81000000    34.63000000
   H     25.27000000    73.64000000    36.46000000
   H     23.67000000    71.13000000    37.07000000
   H     22.26000000    72.37000000    38.11000000
   H     25.59000000    71.19000000    38.87000000
   H     24.93000000    72.68000000    39.38000000
   H     23.84000000    71.48000000    39.45000000
   N     27.25000000    71.96000000    36.73000000
   C     28.48000000    71.20000000    36.54000000
   C     28.65000000    70.30000000    37.75000000
   O     28.74000000    70.75000000    38.89000000
   C     29.64000000    72.17000000    36.35000000
   C     29.73000000    72.93000000    35.03000000
   C     30.99000000    71.49000000    36.57000000
   C     30.07000000    72.13000000    33.78000000
   H     27.25000000    72.75000000    37.36000000
   H     28.44000000    70.58000000    35.64000000
   H     29.45000000    72.94000000    37.10000000
   H     30.50000000    73.68000000    35.20000000
   H     28.80000000    73.50000000    34.95000000
   H     31.79000000    72.22000000    36.42000000
   H     31.13000000    71.14000000    37.59000000
   H     31.16000000    70.60000000    35.95000000
   H     30.96000000    71.51000000    33.86000000
   H     29.24000000    71.45000000    33.57000000
   H     30.07000000    72.68000000    32.84000000
   N     28.66000000    69.00000000    37.44000000
   C     29.00000000    67.90000000    38.32000000
   C     30.50000000    67.61000000    38.26000000
   O     31.13000000    67.95000000    37.26000000
   C     28.26000000    66.61000000    37.99000000
   C     26.75000000    66.77000000    37.99000000
   O     26.15000000    66.80000000    36.89000000
   O     26.22000000    67.01000000    39.09000000
   H     28.62000000    68.80000000    36.45000000
   H     28.74000000    68.15000000    39.35000000
   H     28.52000000    65.84000000    38.73000000
   H     28.76000000    66.27000000    37.08000000
   N     31.14000000    66.98000000    39.24000000
   C     32.57000000    66.71000000    39.18000000
   C     33.12000000    66.04000000    37.92000000
   O     34.03000000    66.62000000    37.34000000
   C     33.12000000    65.99000000    40.41000000
   C     34.61000000    65.78000000    40.33000000
   C     35.50000000    66.85000000    40.32000000
   C     35.10000000    64.49000000    40.09000000
   C     36.85000000    66.64000000    39.99000000
   C     36.47000000    64.26000000    39.90000000
   C     37.34000000    65.35000000    39.79000000
   H     30.60000000    66.54000000    39.97000000
   H     33.02000000    67.70000000    39.20000000
   H     32.61000000    65.03000000    40.55000000
   H     32.83000000    66.48000000    41.34000000
   H     35.06000000    67.81000000    40.53000000
   H     34.38000000    63.68000000    40.06000000
   H     37.58000000    67.43000000    39.97000000
   H     36.81000000    63.24000000    39.75000000
   H     38.41000000    65.21000000    39.74000000
   N     32.52000000    64.96000000    37.42000000
   C     32.98000000    64.30000000    36.21000000
   C     32.89000000    65.12000000    34.93000000
   O     33.43000000    64.79000000    33.88000000
   C     32.12000000    63.06000000    36.01000000
   C     31.51000000    62.75000000    37.38000000
   C     31.54000000    64.11000000    38.07000000
   H     33.99000000    63.99000000    36.46000000
   H     31.32000000    63.31000000    35.31000000
   H     32.71000000    62.22000000    35.64000000
   H     30.49000000    62.37000000    37.34000000
   H     32.15000000    62.07000000    37.93000000
   H     30.56000000    64.58000000    37.99000000
   H     31.84000000    63.94000000    39.10000000
   N     32.11000000    66.21000000    34.95000000
   C     32.09000000    67.25000000    33.95000000
   C     33.17000000    68.30000000    34.17000000
   O     33.97000000    68.52000000    33.26000000
   C     30.73000000    67.93000000    33.94000000
   C     29.60000000    66.93000000    33.70000000
   C     28.20000000    67.40000000    34.05000000
   O     27.92000000    68.30000000    34.87000000
   O     27.19000000    66.79000000    33.62000000
   H     31.78000000    66.45000000    35.88000000
   H     32.35000000    66.86000000    32.96000000
   H     30.67000000    68.70000000    33.17000000
   H     30.60000000    68.48000000    34.88000000
   H     29.79000000    66.04000000    34.32000000
   H     29.61000000    66.60000000    32.66000000
   N     33.38000000    68.84000000    35.37000000
   C     34.50000000    69.68000000    35.76000000
   H     35.33100000    69.51800000    35.07400000
   H     34.19900000    70.72700000    35.72400000
   H     34.81100000    69.42500000    36.77300000
   H     32.75000000    68.60000000    36.12000000
  Ca     25.31000000    68.22000000    35.00000000
   O     24.47000000    68.81000000    37.62000000
   H     23.84000000    68.95000000    38.33000000
   H     25.09000000    68.18000000    37.97000000

Ca 1.00



