%chk=loop2.holoCaM-CaMKII.run6.water2.chk
%nprocshared=20
%mem=10GB
%nosave
#b3lyp/svp scf=(tight,noincore,xqc) Test 
#IOP(5/87=12) Density=Current Pop=(MK,readradii) iop(6/33=2) iop(6/42=6)

loop2.holoCaM-CaMKII.run6.water2 

   -2  1 
   C     64.47000000    74.61000000    13.52000000
   C     65.45000000    75.46000000    12.71000000
   O     66.39000000    75.97000000    13.32000000
   H     63.52900000    74.52400000    12.97600000
   H     64.89100000    73.61700000    13.67500000
   H     64.29000000    75.08300000    14.48500000
   N     65.14000000    75.81000000    11.46000000
   C     66.02000000    76.57000000    10.61000000
   C     66.06000000    78.06000000    10.96000000
   O     65.10000000    78.59000000    11.53000000
   C     65.46000000    76.43000000     9.20000000
   C     66.51000000    76.52000000     8.10000000
   O     67.66000000    76.93000000     8.38000000
   O     66.22000000    76.20000000     6.93000000
   H     64.24000000    75.43000000    11.20000000
   H     67.03000000    76.18000000    10.71000000
   H     64.70000000    77.20000000     9.05000000
   H     64.96000000    75.47000000     9.11000000
   N     67.18000000    78.72000000    10.68000000
   C     67.50000000    80.11000000    10.90000000
   C     68.04000000    80.81000000     9.66000000
   O     68.20000000    82.03000000     9.74000000
   C     68.64000000    80.34000000    11.89000000
   H     68.00000000    78.21000000    10.37000000
   H     66.60000000    80.64000000    11.22000000
   H     68.37000000    79.90000000    12.86000000
   H     69.58000000    79.83000000    11.65000000
   H     68.85000000    81.39000000    12.06000000
   N     68.38000000    80.06000000     8.61000000
   C     69.37000000    80.33000000     7.59000000
   C     69.22000000    79.66000000     6.23000000
   O     69.83000000    80.08000000     5.25000000
   C     70.77000000    79.99000000     8.10000000
   C     71.07000000    78.53000000     8.40000000
   O     70.44000000    77.58000000     7.89000000
   O     72.02000000    78.23000000     9.16000000
   H     67.98000000    79.13000000     8.60000000
   H     69.27000000    81.40000000     7.40000000
   H     70.90000000    80.52000000     9.04000000
   H     71.55000000    80.32000000     7.41000000
   N     68.46000000    78.58000000     6.06000000
   C     68.19000000    77.99000000     4.76000000
   C     69.19000000    76.97000000     4.25000000
   O     69.05000000    76.57000000     3.10000000
   H     68.11000000    78.06000000     6.85000000
   H     68.07000000    78.71000000     3.95000000
   H     67.26000000    77.41000000     4.82000000
   N     70.22000000    76.56000000     5.00000000
   C     71.38000000    75.86000000     4.49000000
   C     71.13000000    74.38000000     4.24000000
   O     72.03000000    73.62000000     3.89000000
   C     72.64000000    76.00000000     5.34000000
   C     72.67000000    75.38000000     6.73000000
   N     73.81000000    75.41000000     7.42000000
   O     71.70000000    74.78000000     7.19000000
   H     70.18000000    76.81000000     5.98000000
   H     71.59000000    76.28000000     3.51000000
   H     72.75000000    77.08000000     5.46000000
   H     73.41000000    75.56000000     4.71000000
   H     74.68000000    75.85000000     7.16000000
   H     73.66000000    75.07000000     8.36000000
   N     69.87000000    73.95000000     4.38000000
   C     69.58000000    72.55000000     4.14000000
   C     69.95000000    71.54000000     5.22000000
   O     69.79000000    70.35000000     4.98000000
   H     69.14000000    74.60000000     4.62000000
   H     70.10000000    72.15000000     3.27000000
   H     68.51000000    72.58000000     3.92000000
   N     70.44000000    72.01000000     6.37000000
   C     70.80000000    71.07000000     7.41000000
   C     70.53000000    71.56000000     8.83000000
   O     70.46000000    72.78000000     9.03000000
   C     72.29000000    70.74000000     7.45000000
   C     72.60000000    69.96000000     6.17000000
   O     73.12000000    71.88000000     7.48000000
   H     70.59000000    73.01000000     6.35000000
   H     70.24000000    70.13000000     7.38000000
   H     72.52000000    70.12000000     8.32000000
   H     72.78000000    72.63000000     7.96000000
   H     72.45000000    70.52000000     5.25000000
   H     73.60000000    69.52000000     6.20000000
   H     72.03000000    69.03000000     6.24000000
   N     70.39000000    70.69000000     9.83000000
   C     70.38000000    71.06000000    11.23000000
   C     71.75000000    71.56000000    11.65000000
   O     72.66000000    70.74000000    11.72000000
   C     69.90000000    70.02000000    12.24000000
   C     68.55000000    69.42000000    11.85000000
   C     69.69000000    70.71000000    13.58000000
   C     68.05000000    68.29000000    12.75000000
   H     70.53000000    69.70000000     9.70000000
   H     69.64000000    71.86000000    11.27000000
   H     70.68000000    69.25000000    12.27000000
   H     68.68000000    68.91000000    10.90000000
   H     67.84000000    70.24000000    11.86000000
   H     69.19000000    71.66000000    13.40000000
   H     69.36000000    69.99000000    14.32000000
   H     70.68000000    71.04000000    13.91000000
   H     68.88000000    67.68000000    13.11000000
   H     67.48000000    68.71000000    13.57000000
   H     67.32000000    67.75000000    12.14000000
   N     71.91000000    72.83000000    12.05000000
   C     73.07000000    73.37000000    12.72000000
   C     73.13000000    73.14000000    14.23000000
   O     72.09000000    73.39000000    14.84000000
   C     73.28000000    74.87000000    12.50000000
   C     73.28000000    75.07000000    10.99000000
   O     72.22000000    75.37000000    10.40000000
   O     74.35000000    75.01000000    10.35000000
   H     71.06000000    73.36000000    11.92000000
   H     73.93000000    72.83000000    12.35000000
   H     74.23000000    75.13000000    12.96000000
   H     72.61000000    75.59000000    12.97000000
   N     74.24000000    72.75000000    14.85000000
   C     74.29000000    72.62000000    16.29000000
   C     73.50000000    73.58000000    17.16000000
   O     72.81000000    73.05000000    18.03000000
   C     75.73000000    72.53000000    16.79000000
   C     75.86000000    72.42000000    18.29000000
   C     76.77000000    73.23000000    18.99000000
   C     75.17000000    71.44000000    19.02000000
   C     76.92000000    73.13000000    20.38000000
   C     75.27000000    71.32000000    20.41000000
   C     76.14000000    72.20000000    21.07000000
   H     75.07000000    72.54000000    14.31000000
   H     74.06000000    71.57000000    16.48000000
   H     76.32000000    73.32000000    16.33000000
   H     76.12000000    71.59000000    16.39000000
   H     77.26000000    73.99000000    18.41000000
   H     74.46000000    70.87000000    18.44000000
   H     77.59000000    73.77000000    20.93000000
   H     74.69000000    70.55000000    20.90000000
   H     76.13000000    72.22000000    22.15000000
   N     73.57000000    74.90000000    16.98000000
   C     72.89000000    75.89000000    17.79000000
   C     71.37000000    75.75000000    17.69000000
   O     70.64000000    76.04000000    18.63000000
   C     73.35000000    77.22000000    17.20000000
   C     74.03000000    76.99000000    15.85000000
   C     74.48000000    75.54000000    16.06000000
   H     73.23000000    75.85000000    18.82000000
   H     72.56000000    77.96000000    17.06000000
   H     74.06000000    77.86000000    17.73000000
   H     73.36000000    76.97000000    14.99000000
   H     74.82000000    77.72000000    15.70000000
   H     74.47000000    75.05000000    15.08000000
   H     75.42000000    75.54000000    16.60000000
   N     70.83000000    75.32000000    16.55000000
   C     69.42000000    75.10000000    16.26000000
   C     68.89000000    73.87000000    16.98000000
   O     67.87000000    73.96000000    17.66000000
   C     69.27000000    74.87000000    14.76000000
   C     69.75000000    76.00000000    13.85000000
   C     69.58000000    75.66000000    12.38000000
   O     69.68000000    76.60000000    11.56000000
   O     69.52000000    74.49000000    11.95000000
   H     71.52000000    75.07000000    15.85000000
   H     68.85000000    75.98000000    16.56000000
   H     68.20000000    74.84000000    14.58000000
   H     69.74000000    73.91000000    14.52000000
   H     70.82000000    76.09000000    14.05000000
   H     69.43000000    77.01000000    14.11000000
   N     69.69000000    72.80000000    17.04000000
   C     69.53000000    71.62000000    17.86000000
   H     68.50800000    71.25200000    17.77100000
   H     70.22300000    70.84800000    17.52600000
   H     69.73700000    71.86900000    18.90100000
   H     70.57000000    72.78000000    16.56000000
  Ca     70.00000000    75.50000000     9.21000000
   O     67.74000000    73.86000000     9.87000000
   H     66.85000000    73.53000000     9.93000000
   H     68.08000000    73.79000000    10.77000000
   O     68.79000000    74.68000000     7.08000000
   H     68.43000000    73.79000000     7.05000000
   H     68.03000000    75.25000000     6.97000000

Ca 1.00



