%chk=loop2.holoCaM.run12.water1.chk
%nprocshared=20
%mem=10GB
%nosave
#b3lyp/svp scf=(tight,noincore,xqc) Test 
#IOP(5/87=12) Density=Current Pop=(MK,readradii) iop(6/33=2) iop(6/42=6)

loop2.holoCaM.run12.water1 

   -2  1 
   C     35.05000000    35.78000000     5.43000000
   C     34.39000000    36.62000000     4.35000000
   O     34.58000000    37.83000000     4.39000000
   H     35.96100000    36.27400000     5.76800000
   H     34.36600000    35.66600000     6.27100000
   H     35.29800000    34.79800000     5.02700000
   N     33.53000000    36.08000000     3.48000000
   C     32.68000000    36.77000000     2.54000000
   C     31.67000000    37.70000000     3.20000000
   O     30.73000000    37.24000000     3.85000000
   C     31.92000000    35.76000000     1.69000000
   C     31.00000000    36.48000000     0.72000000
   O     31.22000000    37.64000000     0.30000000
   O     29.96000000    35.86000000     0.40000000
   H     33.53000000    35.07000000     3.45000000
   H     33.32000000    37.33000000     1.85000000
   H     31.33000000    35.07000000     2.30000000
   H     32.68000000    35.16000000     1.18000000
   N     31.96000000    39.00000000     3.19000000
   C     31.44000000    40.01000000     4.10000000
   C     30.00000000    40.42000000     3.82000000
   O     29.09000000    40.54000000     4.64000000
   C     32.35000000    41.23000000     3.98000000
   H     32.63000000    39.26000000     2.49000000
   H     31.40000000    39.52000000     5.07000000
   H     33.36000000    40.83000000     4.06000000
   H     32.30000000    41.83000000     3.07000000
   H     32.27000000    41.87000000     4.85000000
   N     29.85000000    40.74000000     2.54000000
   C     28.58000000    41.17000000     1.98000000
   C     27.73000000    39.98000000     1.55000000
   O     26.58000000    40.10000000     1.15000000
   C     28.84000000    42.14000000     0.83000000
   C     29.89000000    41.82000000    -0.22000000
   O     29.93000000    42.49000000    -1.27000000
   O     30.63000000    40.83000000    -0.02000000
   H     30.62000000    40.73000000     1.89000000
   H     27.95000000    41.76000000     2.66000000
   H     29.16000000    43.01000000     1.40000000
   H     27.90000000    42.48000000     0.38000000
   N     28.22000000    38.74000000     1.65000000
   C     27.57000000    37.45000000     1.51000000
   C     27.38000000    36.99000000     0.08000000
   O     26.82000000    35.90000000    -0.05000000
   H     29.23000000    38.70000000     1.74000000
   H     26.62000000    37.46000000     2.05000000
   H     28.18000000    36.70000000     2.00000000
   N     27.81000000    37.71000000    -0.96000000
   C     27.53000000    37.47000000    -2.36000000
   C     28.21000000    36.22000000    -2.89000000
   O     28.10000000    35.91000000    -4.08000000
   C     27.84000000    38.74000000    -3.15000000
   C     29.32000000    39.07000000    -3.26000000
   N     29.67000000    40.17000000    -3.93000000
   O     30.16000000    38.50000000    -2.58000000
   H     28.32000000    38.50000000    -0.58000000
   H     26.47000000    37.26000000    -2.29000000
   H     27.20000000    39.49000000    -2.69000000
   H     27.55000000    38.58000000    -4.20000000
   H     29.02000000    40.77000000    -4.42000000
   H     30.64000000    40.39000000    -3.80000000
   N     28.98000000    35.49000000    -2.08000000
   C     29.56000000    34.19000000    -2.36000000
   C     30.81000000    34.33000000    -3.23000000
   O     31.20000000    33.33000000    -3.82000000
   H     29.13000000    35.93000000    -1.18000000
   H     28.84000000    33.59000000    -2.92000000
   H     29.73000000    33.74000000    -1.39000000
   N     31.47000000    35.48000000    -3.34000000
   C     32.74000000    35.65000000    -4.01000000
   C     33.63000000    36.51000000    -3.12000000
   O     33.16000000    37.26000000    -2.26000000
   C     32.60000000    36.29000000    -5.39000000
   C     32.07000000    35.29000000    -6.41000000
   O     32.00000000    37.56000000    -5.43000000
   H     31.11000000    36.27000000    -2.82000000
   H     33.28000000    34.71000000    -4.17000000
   H     33.61000000    36.46000000    -5.77000000
   H     31.46000000    37.51000000    -6.23000000
   H     32.80000000    34.49000000    -6.54000000
   H     31.16000000    34.82000000    -6.03000000
   H     31.96000000    35.86000000    -7.33000000
   N     34.94000000    36.40000000    -3.31000000
   C     36.06000000    36.99000000    -2.60000000
   C     36.56000000    38.24000000    -3.31000000
   O     37.03000000    38.26000000    -4.44000000
   C     37.16000000    35.95000000    -2.42000000
   C     36.67000000    34.71000000    -1.68000000
   C     38.51000000    36.50000000    -1.96000000
   C     36.17000000    34.95000000    -0.26000000
   H     35.20000000    35.76000000    -4.04000000
   H     35.78000000    37.17000000    -1.56000000
   H     37.36000000    35.64000000    -3.45000000
   H     37.46000000    33.96000000    -1.77000000
   H     35.90000000    34.22000000    -2.28000000
   H     38.38000000    37.08000000    -1.05000000
   H     39.09000000    35.60000000    -1.77000000
   H     39.11000000    37.02000000    -2.70000000
   H     36.95000000    35.46000000     0.30000000
   H     35.19000000    35.43000000    -0.33000000
   H     36.06000000    34.00000000     0.26000000
   N     36.55000000    39.31000000    -2.50000000
   C     37.14000000    40.61000000    -2.70000000
   C     38.47000000    40.68000000    -1.96000000
   O     38.74000000    39.91000000    -1.04000000
   C     36.19000000    41.67000000    -2.14000000
   C     34.78000000    41.57000000    -2.69000000
   O     33.75000000    41.38000000    -2.00000000
   O     34.60000000    41.83000000    -3.90000000
   H     36.23000000    39.05000000    -1.57000000
   H     37.25000000    40.87000000    -3.75000000
   H     36.45000000    42.71000000    -2.31000000
   H     36.16000000    41.53000000    -1.06000000
   N     39.33000000    41.66000000    -2.25000000
   C     40.67000000    41.78000000    -1.72000000
   C     40.81000000    41.98000000    -0.22000000
   O     41.72000000    41.34000000     0.31000000
   C     41.36000000    42.94000000    -2.44000000
   C     42.79000000    43.21000000    -2.06000000
   C     43.74000000    42.24000000    -2.40000000
   C     43.19000000    44.34000000    -1.33000000
   C     45.05000000    42.33000000    -1.92000000
   C     44.46000000    44.38000000    -0.74000000
   C     45.37000000    43.36000000    -1.04000000
   H     39.15000000    42.35000000    -2.97000000
   H     41.23000000    40.89000000    -2.00000000
   H     40.75000000    43.83000000    -2.26000000
   H     41.41000000    42.69000000    -3.50000000
   H     43.53000000    41.33000000    -2.95000000
   H     42.52000000    45.17000000    -1.16000000
   H     45.78000000    41.57000000    -2.16000000
   H     44.74000000    45.12000000     0.00000000
   H     46.37000000    43.30000000    -0.64000000
   N     39.88000000    42.61000000     0.51000000
   C     40.00000000    42.57000000     1.95000000
   C     39.54000000    41.22000000     2.49000000
   O     39.88000000    40.84000000     3.61000000
   C     39.14000000    43.71000000     2.48000000
   C     38.11000000    43.97000000     1.38000000
   C     38.83000000    43.53000000     0.11000000
   H     41.03000000    42.73000000     2.27000000
   H     38.61000000    43.41000000     3.38000000
   H     39.75000000    44.62000000     2.55000000
   H     37.17000000    43.45000000     1.57000000
   H     38.04000000    45.06000000     1.30000000
   H     38.12000000    43.09000000    -0.59000000
   H     39.42000000    44.30000000    -0.37000000
   N     38.71000000    40.53000000     1.71000000
   C     38.19000000    39.25000000     2.17000000
   C     39.19000000    38.17000000     1.80000000
   O     39.39000000    37.24000000     2.58000000
   C     36.85000000    38.93000000     1.52000000
   C     35.68000000    39.85000000     1.85000000
   C     34.53000000    39.55000000     0.89000000
   O     34.59000000    38.80000000    -0.11000000
   O     33.44000000    40.12000000     1.12000000
   H     38.60000000    40.82000000     0.75000000
   H     38.10000000    39.29000000     3.26000000
   H     36.60000000    37.92000000     1.83000000
   H     36.99000000    38.95000000     0.44000000
   H     36.07000000    40.84000000     1.60000000
   H     35.31000000    39.87000000     2.87000000
   N     39.98000000    38.32000000     0.73000000
   C     41.24000000    37.68000000     0.43000000
   H     42.00300000    38.04000000     1.12000000
   H     41.13400000    36.60000000     0.53700000
   H     41.53500000    37.91800000    -0.59200000
   H     39.71000000    39.09000000     0.13000000
  Ca     32.31000000    39.34000000    -1.16500000
   O     32.66000000    39.67000000    -3.94500000
   H     32.45000000    38.88000000    -4.44500000
   H     33.36000000    40.08000000    -4.43500000

Ca 1.00



