%chk=loop2.holoCaM.run23.water1.chk
%nprocshared=20
%mem=10GB
%nosave
#b3lyp/svp scf=(tight,noincore,xqc) Test 
#IOP(5/87=12) Density=Current Pop=(MK,readradii) iop(6/33=2) iop(6/42=6)

loop2.holoCaM.run23.water1 

   -2  1 
   C     60.15000000    54.87000000     3.76000000
   C     58.64000000    54.97000000     3.61000000
   O     57.96000000    54.38000000     4.45000000
   H     60.59500000    55.85400000     3.61500000
   H     60.39300000    54.50500000     4.75800000
   H     60.54500000    54.18000000     3.01400000
   N     58.15000000    55.51000000     2.50000000
   C     56.73000000    55.65000000     2.26000000
   C     56.03000000    54.33000000     1.98000000
   O     56.36000000    53.72000000     0.96000000
   C     56.49000000    56.66000000     1.14000000
   C     55.00000000    56.91000000     0.92000000
   O     54.15000000    56.58000000     1.77000000
   O     54.67000000    57.52000000    -0.12000000
   H     58.81000000    55.97000000     1.88000000
   H     56.42000000    56.02000000     3.24000000
   H     56.94000000    56.33000000     0.20000000
   H     56.94000000    57.59000000     1.46000000
   N     55.11000000    53.89000000     2.84000000
   C     54.34000000    52.70000000     2.58000000
   C     53.14000000    52.92000000     1.66000000
   O     52.76000000    51.96000000     0.99000000
   C     53.83000000    52.21000000     3.94000000
   H     55.04000000    54.41000000     3.71000000
   H     55.00000000    52.02000000     2.04000000
   H     53.17000000    52.96000000     4.38000000
   H     53.26000000    51.29000000     3.83000000
   H     54.57000000    52.23000000     4.73000000
   N     52.54000000    54.10000000     1.55000000
   C     51.42000000    54.34000000     0.67000000
   C     51.74000000    54.51000000    -0.81000000
   O     50.85000000    54.40000000    -1.65000000
   C     50.56000000    55.54000000     1.06000000
   C     50.29000000    55.61000000     2.55000000
   O     49.46000000    54.83000000     3.07000000
   O     50.93000000    56.40000000     3.28000000
   H     52.97000000    54.91000000     1.99000000
   H     50.77000000    53.47000000     0.80000000
   H     49.60000000    55.55000000     0.53000000
   H     51.07000000    56.41000000     0.65000000
   N     52.94000000    54.90000000    -1.25000000
   C     53.03000000    55.51000000    -2.56000000
   C     52.21000000    56.79000000    -2.70000000
   O     51.51000000    56.87000000    -3.71000000
   H     53.63000000    55.18000000    -0.57000000
   H     52.56000000    54.88000000    -3.32000000
   H     54.09000000    55.52000000    -2.81000000
   N     52.28000000    57.66000000    -1.69000000
   C     51.61000000    58.94000000    -1.69000000
   C     52.55000000    60.14000000    -1.65000000
   O     52.15000000    61.20000000    -1.19000000
   C     50.49000000    59.08000000    -0.66000000
   C     50.82000000    59.34000000     0.80000000
   N     50.27000000    60.42000000     1.37000000
   O     51.74000000    58.73000000     1.33000000
   H     52.90000000    57.56000000    -0.91000000
   H     51.06000000    59.04000000    -2.63000000
   H     49.80000000    58.25000000    -0.79000000
   H     49.88000000    59.92000000    -0.99000000
   H     49.87000000    61.07000000     0.71000000
   H     50.47000000    60.62000000     2.34000000
   N     53.86000000    59.88000000    -1.74000000
   C     54.98000000    60.79000000    -1.86000000
   C     55.28000000    61.63000000    -0.63000000
   O     56.06000000    62.57000000    -0.71000000
   H     54.01000000    58.90000000    -1.94000000
   H     54.96000000    61.32000000    -2.82000000
   H     55.86000000    60.14000000    -1.93000000
   N     54.84000000    61.23000000     0.57000000
   C     55.00000000    61.89000000     1.84000000
   C     55.14000000    60.92000000     3.01000000
   O     54.85000000    59.72000000     2.97000000
   C     53.91000000    62.93000000     2.08000000
   C     53.66000000    64.09000000     1.13000000
   O     52.66000000    62.30000000     2.24000000
   H     54.31000000    60.37000000     0.66000000
   H     55.91000000    62.49000000     1.84000000
   H     54.23000000    63.48000000     2.97000000
   H     52.03000000    63.02000000     2.11000000
   H     54.55000000    64.69000000     1.31000000
   H     53.55000000    63.78000000     0.09000000
   H     52.71000000    64.58000000     1.35000000
   N     55.79000000    61.47000000     4.04000000
   C     56.15000000    60.69000000     5.20000000
   C     55.30000000    60.97000000     6.43000000
   O     55.27000000    62.08000000     6.95000000
   C     57.64000000    60.84000000     5.47000000
   C     58.67000000    60.75000000     4.34000000
   C     58.08000000    59.87000000     6.56000000
   C     59.99000000    61.45000000     4.65000000
   H     55.95000000    62.47000000     4.08000000
   H     56.02000000    59.64000000     4.96000000
   H     57.79000000    61.86000000     5.83000000
   H     58.22000000    61.26000000     3.49000000
   H     58.75000000    59.69000000     4.10000000
   H     59.09000000    60.00000000     6.93000000
   H     57.36000000    60.02000000     7.36000000
   H     57.81000000    58.86000000     6.23000000
   H     59.90000000    62.53000000     4.73000000
   H     60.46000000    61.08000000     5.56000000
   H     60.64000000    61.32000000     3.78000000
   N     54.61000000    59.90000000     6.83000000
   C     53.81000000    59.85000000     8.04000000
   C     54.67000000    59.59000000     9.27000000
   O     55.77000000    59.05000000     9.13000000
   C     52.70000000    58.81000000     7.98000000
   C     51.85000000    59.00000000     6.72000000
   O     51.93000000    58.11000000     5.85000000
   O     51.22000000    60.07000000     6.57000000
   H     54.81000000    59.04000000     6.33000000
   H     53.44000000    60.86000000     8.16000000
   H     52.01000000    58.71000000     8.82000000
   H     53.11000000    57.80000000     7.95000000
   N     54.14000000    59.66000000    10.49000000
   C     55.01000000    59.53000000    11.64000000
   C     55.46000000    58.09000000    11.87000000
   O     56.59000000    57.88000000    12.29000000
   C     54.46000000    60.17000000    12.91000000
   C     55.33000000    59.99000000    14.14000000
   C     56.57000000    60.65000000    14.23000000
   C     54.85000000    59.31000000    15.26000000
   C     57.43000000    60.48000000    15.32000000
   C     55.66000000    59.19000000    16.39000000
   C     56.94000000    59.75000000    16.41000000
   H     53.24000000    60.10000000    10.61000000
   H     55.92000000    60.06000000    11.36000000
   H     53.50000000    59.70000000    13.10000000
   H     54.25000000    61.24000000    12.93000000
   H     56.93000000    61.28000000    13.43000000
   H     53.85000000    58.90000000    15.31000000
   H     58.39000000    60.97000000    15.32000000
   H     55.27000000    58.65000000    17.24000000
   H     57.53000000    59.57000000    17.30000000
   N     54.69000000    57.02000000    11.65000000
   C     55.19000000    55.67000000    11.84000000
   C     56.09000000    55.18000000    10.71000000
   O     56.90000000    54.27000000    10.88000000
   C     54.00000000    54.72000000    11.85000000
   C     52.77000000    55.60000000    12.01000000
   C     53.25000000    56.97000000    11.54000000
   H     55.77000000    55.59000000    12.76000000
   H     53.87000000    54.22000000    10.89000000
   H     54.15000000    54.02000000    12.67000000
   H     51.97000000    55.14000000    11.44000000
   H     52.42000000    55.76000000    13.04000000
   H     52.88000000    57.14000000    10.53000000
   H     52.80000000    57.76000000    12.15000000
   N     56.06000000    55.80000000     9.53000000
   C     57.08000000    55.78000000     8.50000000
   C     58.35000000    56.52000000     8.91000000
   O     59.44000000    56.09000000     8.56000000
   C     56.47000000    56.28000000     7.20000000
   C     55.22000000    55.52000000     6.77000000
   C     54.52000000    56.25000000     5.63000000
   O     54.85000000    57.43000000     5.36000000
   O     53.71000000    55.63000000     4.91000000
   H     55.50000000    56.64000000     9.58000000
   H     57.36000000    54.73000000     8.38000000
   H     57.19000000    56.29000000     6.38000000
   H     56.18000000    57.33000000     7.29000000
   H     54.48000000    55.31000000     7.54000000
   H     55.47000000    54.55000000     6.35000000
   N     58.20000000    57.61000000     9.68000000
   C     59.34000000    58.40000000    10.10000000
   H     60.15800000    58.26100000     9.39300000
   H     59.06200000    59.45300000    10.13000000
   H     59.65900000    58.08000000    11.09200000
   H     57.30000000    58.04000000     9.82000000
  Ca     52.96000000    57.89000000     3.57000000
   O     52.26000000    60.33000000     4.17000000
   H     52.32000000    61.14000000     3.67000000
   H     51.79000000    60.58000000     4.97000000

Ca 1.00



