%chk=loop2.apoCaM-CA-Ng.Init295.run10.water2.chk
%nprocshared=20
%mem=10GB
%nosave
#b3lyp/svp scf=(tight,noincore,xqc) Test 
#IOP(5/87=12) Density=Current Pop=(MK,readradii) iop(6/33=2) iop(6/42=6)

loop2.apoCaM-CA-Ng.Init295.run10.water2 

   -2  1 
   C     63.43000000    40.65000000    45.59000000
   C     62.46000000    39.98000000    44.63000000
   O     61.34000000    39.70000000    45.05000000
   H     64.31000000    40.98500000    45.04100000
   H     62.94600000    41.50800000    46.05700000
   H     63.73100000    39.93900000    46.35900000
   N     62.94000000    39.65000000    43.43000000
   C     62.35000000    38.97000000    42.29000000
   C     61.22000000    39.78000000    41.67000000
   O     61.40000000    40.88000000    41.15000000
   C     63.36000000    38.53000000    41.24000000
   C     64.56000000    37.83000000    41.86000000
   O     65.58000000    38.51000000    42.08000000
   O     64.44000000    36.61000000    42.11000000
   H     63.89000000    39.96000000    43.30000000
   H     61.97000000    38.04000000    42.71000000
   H     63.75000000    39.35000000    40.63000000
   H     62.86000000    37.92000000    40.47000000
   N     60.01000000    39.20000000    41.68000000
   C     58.77000000    39.69000000    41.12000000
   C     57.52000000    39.26000000    41.87000000
   O     57.57000000    38.33000000    42.66000000
   C     58.77000000    39.17000000    39.68000000
   H     59.95000000    38.28000000    42.10000000
   H     58.88000000    40.77000000    41.04000000
   H     59.02000000    38.11000000    39.67000000
   H     57.75000000    39.27000000    39.30000000
   H     59.55000000    39.66000000    39.11000000
   N     56.36000000    39.90000000    41.70000000
   C     56.10000000    40.90000000    40.69000000
   C     56.66000000    42.27000000    41.04000000
   O     56.65000000    42.69000000    42.19000000
   C     54.59000000    41.01000000    40.51000000
   C     53.83000000    41.12000000    41.82000000
   O     53.29000000    42.17000000    42.23000000
   O     53.64000000    40.07000000    42.47000000
   H     55.53000000    39.58000000    42.18000000
   H     56.45000000    40.67000000    39.68000000
   H     54.33000000    40.03000000    40.10000000
   H     54.34000000    41.78000000    39.77000000
   N     56.95000000    43.09000000    40.03000000
   C     57.22000000    44.51000000    40.13000000
   C     58.40000000    45.00000000    39.30000000
   O     58.88000000    44.35000000    38.37000000
   H     56.88000000    42.77000000    39.07000000
   H     57.57000000    44.61000000    41.15000000
   H     56.29000000    45.03000000    39.89000000
   N     59.03000000    46.10000000    39.72000000
   C     58.65000000    46.99000000    40.80000000
   C     59.71000000    47.07000000    41.89000000
   O     60.87000000    47.31000000    41.58000000
   C     58.28000000    48.38000000    40.29000000
   C     57.46000000    48.47000000    39.02000000
   N     56.28000000    47.85000000    38.91000000
   O     57.92000000    49.14000000    38.10000000
   H     59.87000000    46.31000000    39.20000000
   H     57.72000000    46.68000000    41.27000000
   H     59.23000000    48.91000000    40.18000000
   H     57.71000000    48.88000000    41.07000000
   H     55.82000000    47.54000000    39.76000000
   H     55.74000000    47.95000000    38.06000000
   N     59.44000000    46.60000000    43.11000000
   C     60.42000000    46.40000000    44.16000000
   C     59.97000000    46.03000000    45.57000000
   O     60.75000000    45.91000000    46.50000000
   H     58.47000000    46.51000000    43.37000000
   H     60.91000000    47.37000000    44.24000000
   H     61.20000000    45.72000000    43.84000000
   N     58.66000000    45.83000000    45.78000000
   C     57.94000000    45.68000000    47.02000000
   C     57.15000000    44.39000000    47.17000000
   O     56.53000000    43.87000000    46.25000000
   C     57.05000000    46.87000000    47.35000000
   C     57.91000000    48.09000000    47.63000000
   O     56.29000000    47.28000000    46.23000000
   H     58.11000000    45.59000000    44.97000000
   H     58.75000000    45.62000000    47.75000000
   H     56.52000000    46.63000000    48.27000000
   H     55.70000000    46.61000000    45.89000000
   H     57.20000000    48.91000000    47.72000000
   H     58.50000000    48.08000000    48.55000000
   H     58.52000000    48.34000000    46.76000000
   N     57.14000000    43.90000000    48.41000000
   C     56.44000000    42.69000000    48.81000000
   C     55.13000000    42.96000000    49.53000000
   O     54.89000000    44.08000000    49.99000000
   C     57.34000000    41.77000000    49.62000000
   C     58.35000000    40.90000000    48.88000000
   C     58.05000000    42.52000000    50.74000000
   C     59.29000000    41.62000000    47.92000000
   H     57.51000000    44.41000000    49.20000000
   H     56.15000000    42.19000000    47.88000000
   H     56.71000000    41.14000000    50.25000000
   H     57.75000000    40.24000000    48.25000000
   H     58.87000000    40.28000000    49.62000000
   H     57.25000000    42.73000000    51.45000000
   H     58.84000000    41.91000000    51.18000000
   H     58.58000000    43.41000000    50.38000000
   H     60.04000000    40.99000000    47.46000000
   H     58.66000000    42.08000000    47.15000000
   H     59.82000000    42.42000000    48.43000000
   N     54.31000000    41.91000000    49.63000000
   C     52.97000000    42.04000000    50.18000000
   C     52.47000000    40.68000000    50.65000000
   O     52.83000000    39.66000000    50.06000000
   C     52.08000000    42.68000000    49.11000000
   C     52.35000000    42.10000000    47.73000000
   O     53.29000000    42.51000000    47.03000000
   O     51.51000000    41.33000000    47.21000000
   H     54.57000000    41.07000000    49.15000000
   H     52.96000000    42.70000000    51.04000000
   H     52.32000000    43.75000000    49.07000000
   H     51.05000000    42.43000000    49.34000000
   N     51.57000000    40.66000000    51.63000000
   C     51.05000000    39.40000000    52.13000000
   C     52.21000000    38.50000000    52.54000000
   O     53.07000000    38.95000000    53.30000000
   C     50.09000000    39.79000000    53.25000000
   C     49.24000000    38.64000000    53.75000000
   C     49.83000000    37.86000000    54.75000000
   C     48.16000000    38.13000000    53.02000000
   C     49.20000000    36.67000000    55.12000000
   C     47.54000000    36.93000000    53.38000000
   C     48.04000000    36.21000000    54.47000000
   H     51.32000000    41.57000000    51.98000000
   H     50.45000000    39.01000000    51.31000000
   H     49.44000000    40.62000000    52.97000000
   H     50.75000000    40.12000000    54.05000000
   H     50.78000000    38.05000000    55.21000000
   H     47.86000000    38.69000000    52.14000000
   H     49.63000000    36.14000000    55.96000000
   H     46.58000000    36.65000000    52.97000000
   H     47.50000000    35.38000000    54.90000000
   N     52.14000000    37.24000000    52.11000000
   C     53.20000000    36.30000000    52.42000000
   C     54.44000000    36.36000000    51.54000000
   O     55.29000000    35.48000000    51.70000000
   C     52.51000000    34.95000000    52.30000000
   C     51.60000000    35.16000000    51.09000000
   C     51.13000000    36.60000000    51.29000000
   H     53.55000000    36.44000000    53.44000000
   H     53.21000000    34.15000000    52.06000000
   H     51.94000000    34.75000000    53.20000000
   H     52.21000000    35.10000000    50.19000000
   H     50.77000000    34.46000000    51.03000000
   H     51.05000000    37.03000000    50.30000000
   H     50.24000000    36.49000000    51.91000000
   N     54.64000000    37.38000000    50.70000000
   C     55.80000000    37.46000000    49.83000000
   C     57.13000000    37.74000000    50.50000000
   O     58.14000000    37.63000000    49.80000000
   C     55.50000000    38.38000000    48.64000000
   C     54.32000000    37.96000000    47.77000000
   C     54.18000000    38.83000000    46.53000000
   O     53.15000000    38.73000000    45.84000000
   O     54.95000000    39.79000000    46.29000000
   H     54.05000000    38.20000000    50.66000000
   H     55.93000000    36.51000000    49.32000000
   H     56.40000000    38.42000000    48.03000000
   H     55.26000000    39.35000000    49.07000000
   H     53.40000000    38.08000000    48.34000000
   H     54.46000000    36.94000000    47.42000000
   N     57.27000000    38.07000000    51.78000000
   C     58.51000000    38.48000000    52.42000000
   H     59.25600000    38.70300000    51.65700000
   H     58.33100000    39.37000000    53.02300000
   H     58.87300000    37.67500000    53.05900000
   H     56.48000000    37.98000000    52.41000000
  Ca     53.01000000    41.17000000    44.88000000
   O     50.87000000    40.07000000    43.91000000
   H     50.51000000    39.44000000    43.29000000
   H     50.12000000    40.36000000    44.43000000
   O     55.32000000    42.22000000    44.54000000
   H     55.81000000    42.55000000    43.79000000
   H     55.80000000    42.55000000    45.30000000

Ca 1.00



