%chk=loop2.holoCaM.run39.water1.chk
%nprocshared=20
%mem=10GB
%nosave
#b3lyp/svp scf=(tight,noincore,xqc) Test 
#IOP(5/87=12) Density=Current Pop=(MK,readradii) iop(6/33=2) iop(6/42=6)

loop2.holoCaM.run39.water1 

   -2  1 
   C     75.98000000    77.50000000   109.00000000
   C     76.73000000    77.66000000   110.31000000
   O     77.85000000    78.18000000   110.27000000
   H     75.08200000    78.11800000   109.01800000
   H     76.61900000    77.81200000   108.17400000
   H     75.69800000    76.45500000   108.86700000
   N     76.11000000    77.27000000   111.43000000
   C     76.77000000    77.42000000   112.71000000
   C     78.05000000    76.61000000   112.80000000
   O     77.95000000    75.40000000   112.98000000
   C     75.69000000    77.17000000   113.77000000
   C     76.04000000    77.39000000   115.23000000
   O     77.08000000    78.03000000   115.47000000
   O     75.24000000    76.96000000   116.09000000
   H     75.14000000    77.01000000   111.48000000
   H     77.02000000    78.46000000   112.92000000
   H     75.34000000    76.15000000   113.61000000
   H     74.84000000    77.81000000   113.56000000
   N     79.19000000    77.30000000   112.87000000
   C     80.46000000    76.61000000   112.81000000
   C     81.12000000    76.43000000   114.17000000
   O     82.23000000    75.91000000   114.23000000
   C     81.34000000    77.38000000   111.83000000
   H     79.08000000    78.31000000   112.86000000
   H     80.28000000    75.64000000   112.37000000
   H     82.34000000    76.96000000   111.67000000
   H     80.85000000    77.32000000   110.86000000
   H     81.34000000    78.40000000   112.21000000
   N     80.46000000    76.79000000   115.28000000
   C     80.99000000    76.54000000   116.60000000
   C     79.90000000    75.80000000   117.37000000
   O     80.17000000    75.18000000   118.40000000
   C     81.38000000    77.85000000   117.28000000
   C     80.27000000    78.88000000   117.15000000
   O     79.13000000    78.77000000   117.65000000
   O     80.35000000    79.80000000   116.30000000
   H     79.51000000    77.13000000   115.21000000
   H     81.89000000    75.92000000   116.63000000
   H     82.25000000    78.21000000   116.73000000
   H     81.58000000    77.72000000   118.34000000
   N     78.62000000    75.82000000   116.97000000
   C     77.51000000    75.09000000   117.54000000
   C     76.79000000    75.75000000   118.71000000
   O     76.10000000    75.05000000   119.45000000
   H     78.37000000    76.57000000   116.33000000
   H     77.90000000    74.15000000   117.92000000
   H     76.79000000    74.93000000   116.74000000
   N     76.95000000    77.06000000   118.91000000
   C     76.38000000    77.79000000   120.02000000
   C     74.88000000    77.98000000   119.94000000
   O     74.22000000    78.44000000   120.87000000
   C     77.18000000    79.04000000   120.38000000
   C     77.18000000    80.12000000   119.30000000
   N     78.12000000    81.06000000   119.35000000
   O     76.33000000    80.11000000   118.41000000
   H     77.49000000    77.51000000   118.18000000
   H     76.46000000    77.16000000   120.91000000
   H     78.22000000    78.74000000   120.51000000
   H     76.84000000    79.47000000   121.32000000
   H     78.74000000    81.03000000   120.15000000
   H     78.01000000    81.80000000   118.68000000
   N     74.32000000    77.75000000   118.75000000
   C     72.90000000    77.88000000   118.46000000
   C     72.45000000    79.15000000   117.75000000
   O     71.27000000    79.20000000   117.39000000
   H     74.84000000    77.21000000   118.08000000
   H     72.28000000    77.79000000   119.35000000
   H     72.65000000    77.06000000   117.79000000
   N     73.32000000    80.14000000   117.57000000
   C     73.10000000    81.39000000   116.86000000
   C     74.17000000    81.63000000   115.81000000
   O     75.06000000    80.81000000   115.60000000
   C     73.13000000    82.53000000   117.88000000
   C     72.07000000    82.41000000   118.96000000
   O     74.27000000    82.65000000   118.70000000
   H     74.25000000    80.06000000   117.95000000
   H     72.16000000    81.32000000   116.31000000
   H     72.97000000    83.48000000   117.37000000
   H     73.97000000    83.05000000   119.52000000
   H     72.07000000    83.31000000   119.58000000
   H     71.09000000    82.26000000   118.52000000
   H     72.26000000    81.62000000   119.69000000
   N     73.93000000    82.71000000   115.06000000
   C     74.75000000    83.11000000   113.94000000
   C     75.59000000    84.33000000   114.30000000
   O     75.05000000    85.35000000   114.71000000
   C     73.83000000    83.41000000   112.76000000
   C     73.37000000    82.11000000   112.10000000
   C     74.50000000    84.29000000   111.71000000
   C     72.74000000    82.17000000   110.71000000
   H     73.09000000    83.26000000   115.21000000
   H     75.46000000    82.33000000   113.67000000
   H     72.97000000    84.01000000   113.06000000
   H     72.65000000    81.68000000   112.80000000
   H     74.24000000    81.45000000   112.09000000
   H     74.71000000    85.24000000   112.20000000
   H     75.44000000    83.85000000   111.38000000
   H     73.88000000    84.53000000   110.84000000
   H     73.48000000    82.33000000   109.93000000
   H     72.38000000    81.18000000   110.43000000
   H     71.97000000    82.95000000   110.68000000
   N     76.92000000    84.17000000   114.23000000
   C     77.99000000    85.14000000   114.20000000
   C     78.19000000    85.76000000   112.82000000
   O     77.77000000    85.22000000   111.80000000
   C     79.29000000    84.48000000   114.66000000
   C     79.14000000    83.78000000   116.00000000
   O     79.18000000    82.53000000   116.00000000
   O     79.07000000    84.46000000   117.05000000
   H     77.25000000    83.25000000   113.98000000
   H     77.72000000    85.95000000   114.88000000
   H     79.99000000    85.31000000   114.83000000
   H     79.67000000    83.94000000   113.80000000
   N     78.76000000    86.96000000   112.67000000
   C     79.13000000    87.55000000   111.40000000
   C     79.99000000    86.66000000   110.50000000
   O     79.57000000    86.52000000   109.36000000
   C     79.84000000    88.87000000   111.67000000
   C     79.90000000    89.75000000   110.44000000
   C     78.73000000    90.27000000   109.87000000
   C     81.15000000    89.96000000   109.84000000
   C     78.88000000    91.10000000   108.76000000
   C     81.29000000    90.73000000   108.68000000
   C     80.12000000    91.29000000   108.13000000
   H     79.18000000    87.33000000   113.51000000
   H     78.23000000    87.78000000   110.84000000
   H     80.82000000    88.77000000   112.12000000
   H     79.24000000    89.45000000   112.38000000
   H     77.77000000    90.09000000   110.34000000
   H     82.04000000    89.57000000   110.31000000
   H     77.99000000    91.53000000   108.33000000
   H     82.26000000    90.97000000   108.28000000
   H     80.24000000    92.03000000   107.36000000
   N     81.07000000    85.98000000   110.88000000
   C     81.63000000    84.94000000   110.04000000
   C     80.75000000    83.82000000   109.49000000
   O     81.02000000    83.27000000   108.43000000
   C     82.80000000    84.38000000   110.84000000
   C     82.43000000    84.59000000   112.31000000
   C     81.72000000    85.94000000   112.18000000
   H     82.07000000    85.43000000   109.17000000
   H     82.97000000    83.32000000   110.66000000
   H     83.72000000    84.95000000   110.75000000
   H     81.78000000    83.90000000   112.85000000
   H     83.34000000    84.77000000   112.88000000
   H     81.00000000    86.09000000   112.99000000
   H     82.31000000    86.84000000   112.28000000
   N     79.56000000    83.56000000   110.05000000
   C     78.58000000    82.57000000   109.67000000
   C     77.48000000    83.18000000   108.81000000
   O     77.04000000    82.51000000   107.88000000
   C     77.95000000    81.87000000   110.88000000
   C     78.99000000    81.12000000   111.71000000
   C     78.43000000    80.81000000   113.09000000
   O     77.50000000    81.42000000   113.66000000
   O     79.01000000    79.88000000   113.70000000
   H     79.34000000    84.10000000   110.88000000
   H     79.12000000    81.84000000   109.07000000
   H     77.16000000    81.18000000   110.60000000
   H     77.59000000    82.72000000   111.47000000
   H     79.85000000    81.77000000   111.86000000
   H     79.31000000    80.25000000   111.13000000
   N     77.12000000    84.44000000   109.07000000
   C     76.16000000    85.25000000   108.34000000
   H     75.28100000    85.41900000   108.96200000
   H     76.61300000    86.20800000   108.08300000
   H     75.86500000    84.73100000   107.42800000
   H     77.56000000    84.94000000   109.83000000
  Ca     77.78000000    80.38000000   116.06800000
   O     76.75000000    82.66000000   117.31800000
   H     75.97000000    83.07000000   117.68800000
   H     77.33000000    83.39000000   117.11800000

Ca 1.00



