%chk=loop2.holoCaM-CaMKII.run100.water1.chk
%nprocshared=20
%mem=10GB
%nosave
#b3lyp/svp scf=(tight,noincore,xqc) Test 
#IOP(5/87=12) Density=Current Pop=(MK,readradii) iop(6/33=2) iop(6/42=6)

loop2.holoCaM-CaMKII.run100.water1 

   -2  1 
   C     53.09000000    13.08000000   -27.21900000
   C     54.33000000    12.20000000   -27.34900000
   O     55.32000000    12.71000000   -27.86900000
   H     52.27100000    12.49400000   -26.80200000
   H     53.30700000    13.92000000   -26.55900000
   H     52.80400000    13.45400000   -28.20200000
   N     54.15000000    10.88000000   -27.26900000
   C     55.19000000     9.88000000   -27.39900000
   C     55.71000000     9.80000000   -28.82900000
   O     54.88000000     9.58000000   -29.71900000
   C     54.60000000     8.55000000   -26.93900000
   C     55.46000000     7.32000000   -27.16900000
   O     56.69000000     7.45000000   -27.37900000
   O     55.01000000     6.17000000   -26.98900000
   H     53.25000000    10.52000000   -26.98900000
   H     56.02000000    10.17000000   -26.75900000
   H     53.66000000     8.39000000   -27.46900000
   H     54.38000000     8.54000000   -25.86900000
   N     57.02000000     9.88000000   -29.05900000
   C     57.73000000    10.01000000   -30.30900000
   C     58.72000000     8.90000000   -30.64900000
   O     59.54000000     8.96000000   -31.55900000
   C     58.37000000    11.39000000   -30.30900000
   H     57.61000000     9.66000000   -28.26900000
   H     57.02000000     9.88000000   -31.12900000
   H     57.58000000    12.14000000   -30.20900000
   H     59.22000000    11.41000000   -29.62900000
   H     58.74000000    11.64000000   -31.30900000
   N     58.57000000     7.75000000   -29.97900000
   C     58.90000000     6.46000000   -30.54900000
   C     57.80000000     5.43000000   -30.35900000
   O     57.89000000     4.32000000   -30.86900000
   C     60.29000000     5.99000000   -30.13900000
   C     60.33000000     5.61000000   -28.66900000
   O     60.70000000     4.45000000   -28.38900000
   O     59.85000000     6.37000000   -27.79900000
   H     57.97000000     7.77000000   -29.16900000
   H     59.01000000     6.62000000   -31.62900000
   H     60.98000000     6.82000000   -30.26900000
   H     60.60000000     5.13000000   -30.73900000
   N     56.71000000     5.74000000   -29.64900000
   C     55.40000000     5.18000000   -29.88900000
   C     55.30000000     3.86000000   -29.14900000
   O     54.60000000     2.96000000   -29.61900000
   H     56.80000000     6.55000000   -29.05900000
   H     55.19000000     5.04000000   -30.94900000
   H     54.64000000     5.86000000   -29.50900000
   N     55.95000000     3.73000000   -27.98900000
   C     56.22000000     2.47000000   -27.32900000
   C     55.33000000     2.38000000   -26.08900000
   O     55.17000000     1.34000000   -25.44900000
   C     57.69000000     2.47000000   -26.91900000
   C     58.09000000     3.48000000   -25.85900000
   N     58.71000000     3.02000000   -24.76900000
   O     58.01000000     4.70000000   -26.03900000
   H     56.44000000     4.54000000   -27.63900000
   H     56.03000000     1.64000000   -28.00900000
   H     58.40000000     2.56000000   -27.73900000
   H     57.85000000     1.50000000   -26.43900000
   H     58.82000000     2.04000000   -24.56900000
   H     59.15000000     3.74000000   -24.20900000
   N     54.68000000     3.45000000   -25.62900000
   C     53.65000000     3.47000000   -24.61900000
   C     54.09000000     4.15000000   -23.33900000
   O     53.34000000     4.08000000   -22.36900000
   H     54.78000000     4.27000000   -26.21900000
   H     53.30000000     2.49000000   -24.29900000
   H     52.78000000     3.99000000   -25.03900000
   N     55.23000000     4.86000000   -23.33900000
   C     55.67000000     5.64000000   -22.19900000
   C     56.24000000     6.96000000   -22.70900000
   O     56.72000000     7.07000000   -23.82900000
   C     56.76000000     4.95000000   -21.38900000
   C     56.14000000     3.80000000   -20.60900000
   O     57.78000000     4.36000000   -22.16900000
   H     55.83000000     4.79000000   -24.13900000
   H     54.79000000     5.82000000   -21.56900000
   H     57.23000000     5.66000000   -20.70900000
   H     58.34000000     3.86000000   -21.56900000
   H     55.16000000     4.05000000   -20.17900000
   H     56.16000000     2.91000000   -21.22900000
   H     56.66000000     3.70000000   -19.65900000
   N     56.40000000     7.93000000   -21.79900000
   C     56.95000000     9.26000000   -21.94900000
   C     58.38000000     9.33000000   -21.42900000
   O     58.63000000     9.15000000   -20.23900000
   C     56.08000000    10.37000000   -21.34900000
   C     54.84000000    10.63000000   -22.19900000
   C     56.73000000    11.73000000   -21.09900000
   C     55.10000000    11.38000000   -23.49900000
   H     56.24000000     7.61000000   -20.85900000
   H     56.98000000     9.40000000   -23.02900000
   H     55.81000000    10.12000000   -20.32900000
   H     54.13000000    11.27000000   -21.67900000
   H     54.33000000     9.70000000   -22.45900000
   H     57.23000000    12.11000000   -21.98900000
   H     55.98000000    12.42000000   -20.69900000
   H     57.42000000    11.53000000   -20.27900000
   H     54.13000000    11.39000000   -24.00900000
   H     55.35000000    12.40000000   -23.21900000
   H     55.86000000    10.81000000   -24.03900000
   N     59.31000000     9.73000000   -22.30900000
   C     60.66000000    10.11000000   -21.96900000
   C     60.84000000    11.60000000   -21.67900000
   O     60.04000000    12.43000000   -22.09900000
   C     61.68000000     9.83000000   -23.07900000
   C     61.50000000     8.38000000   -23.51900000
   O     61.97000000     7.49000000   -22.77900000
   O     60.90000000     8.14000000   -24.58900000
   H     59.03000000     9.80000000   -23.26900000
   H     60.96000000     9.54000000   -21.09900000
   H     62.70000000     9.98000000   -22.74900000
   H     61.57000000    10.46000000   -23.95900000
   N     61.87000000    12.03000000   -20.95900000
   C     62.13000000    13.43000000   -20.67900000
   C     62.21000000    14.36000000   -21.87900000
   O     61.56000000    15.40000000   -21.86900000
   C     63.35000000    13.54000000   -19.76900000
   C     63.67000000    14.93000000   -19.25900000
   C     64.89000000    15.52000000   -19.60900000
   C     62.70000000    15.71000000   -18.62900000
   C     65.16000000    16.86000000   -19.32900000
   C     63.01000000    17.03000000   -18.26900000
   C     64.23000000    17.62000000   -18.61900000
   H     62.51000000    11.39000000   -20.51900000
   H     61.24000000    13.75000000   -20.12900000
   H     64.25000000    13.17000000   -20.25900000
   H     63.09000000    12.84000000   -18.96900000
   H     65.61000000    14.95000000   -20.18900000
   H     61.73000000    15.30000000   -18.37900000
   H     66.07000000    17.28000000   -19.73900000
   H     62.21000000    17.56000000   -17.77900000
   H     64.43000000    18.67000000   -18.42900000
   N     62.87000000    14.03000000   -22.99900000
   C     62.67000000    14.77000000   -24.22900000
   C     61.21000000    14.93000000   -24.61900000
   O     60.75000000    16.05000000   -24.79900000
   C     63.53000000    14.18000000   -25.33900000
   C     64.54000000    13.44000000   -24.46900000
   C     63.87000000    12.99000000   -23.16900000
   H     63.06000000    15.76000000   -23.97900000
   H     62.97000000    13.45000000   -25.92900000
   H     64.06000000    14.99000000   -25.84900000
   H     64.93000000    12.61000000   -25.04900000
   H     65.36000000    14.12000000   -24.24900000
   H     63.38000000    12.02000000   -23.11900000
   H     64.59000000    13.03000000   -22.35900000
   N     60.41000000    13.87000000   -24.75900000
   C     58.98000000    14.02000000   -24.95900000
   C     58.19000000    14.77000000   -23.89900000
   O     57.13000000    15.36000000   -24.11900000
   C     58.34000000    12.64000000   -25.03900000
   C     58.92000000    11.86000000   -26.21900000
   C     58.60000000    10.39000000   -26.01900000
   O     58.84000000     9.61000000   -26.96900000
   O     58.28000000     9.84000000   -24.93900000
   H     60.71000000    12.93000000   -24.54900000
   H     58.73000000    14.60000000   -25.84900000
   H     57.30000000    12.91000000   -25.23900000
   H     58.49000000    12.09000000   -24.11900000
   H     59.99000000    12.04000000   -26.31900000
   H     58.42000000    12.28000000   -27.08900000
   N     58.73000000    14.82000000   -22.67900000
   C     58.09000000    15.53000000   -21.58900000
   H     57.08600000    15.13400000   -21.43900000
   H     58.67200000    15.39800000   -20.67700000
   H     58.02900000    16.59100000   -21.83200000
   H     59.58000000    14.30000000   -22.48900000
  Ca     58.64000000     7.27000000   -25.69900000
   O     59.63000000     5.78000000   -23.53900000
   H     60.52000000     5.96000000   -23.24900000
   H     59.26000000     5.24000000   -22.83900000

Ca 1.00



