%chk=loop2.holoCaM-CaMKII.run91.water0.chk
%nprocshared=20
%mem=10GB
%nosave
#b3lyp/svp scf=(tight,noincore,xqc) Test 
#IOP(5/87=12) Density=Current Pop=(MK,readradii) iop(6/33=2) iop(6/42=6)

loop2.holoCaM-CaMKII.run91.water0 

   -2  1 
   C     55.53000000    30.65000000   -17.82100000
   C     55.35000000    29.16000000   -18.09100000
   O     56.09000000    28.30000000   -17.62100000
   H     56.41400000    31.01000000   -18.34800000
   H     54.65200000    31.19200000   -18.17200000
   H     55.65400000    30.81300000   -16.75100000
   N     54.37000000    28.80000000   -18.91100000
   C     54.15000000    27.43000000   -19.32100000
   C     55.16000000    26.89000000   -20.33100000
   O     55.60000000    27.60000000   -21.22100000
   C     52.81000000    27.32000000   -20.05100000
   C     52.48000000    25.87000000   -20.35100000
   O     52.59000000    25.50000000   -21.54100000
   O     51.94000000    25.24000000   -19.42100000
   H     53.89000000    29.55000000   -19.38100000
   H     54.03000000    26.75000000   -18.47100000
   H     52.92000000    27.97000000   -20.92100000
   H     52.06000000    27.78000000   -19.41100000
   N     55.53000000    25.63000000   -20.10100000
   C     56.54000000    24.96000000   -20.90100000
   C     56.09000000    23.69000000   -21.62100000
   O     57.00000000    23.05000000   -22.15100000
   C     57.74000000    24.92000000   -19.96100000
   H     55.28000000    25.14000000   -19.26100000
   H     56.84000000    25.52000000   -21.78100000
   H     57.47000000    24.35000000   -19.07100000
   H     58.63000000    24.50000000   -20.43100000
   H     58.10000000    25.88000000   -19.58100000
   N     54.81000000    23.35000000   -21.77100000
   C     54.32000000    22.11000000   -22.33100000
   C     53.04000000    22.18000000   -23.15100000
   O     52.80000000    21.37000000   -24.05100000
   C     54.13000000    21.03000000   -21.26100000
   C     53.42000000    21.53000000   -20.01100000
   O     53.99000000    21.48000000   -18.90100000
   O     52.33000000    22.15000000   -20.05100000
   H     54.11000000    24.01000000   -21.45100000
   H     55.07000000    21.80000000   -23.06100000
   H     55.12000000    20.67000000   -20.97100000
   H     53.62000000    20.21000000   -21.75100000
   N     52.20000000    23.19000000   -22.96100000
   C     50.89000000    23.43000000   -23.54100000
   C     49.79000000    22.61000000   -22.88100000
   O     48.84000000    22.27000000   -23.58100000
   H     52.44000000    23.86000000   -22.24100000
   H     51.00000000    23.14000000   -24.58100000
   H     50.63000000    24.49000000   -23.60100000
   N     49.93000000    22.12000000   -21.65100000
   C     49.00000000    21.21000000   -21.02100000
   C     47.77000000    21.80000000   -20.34100000
   O     46.85000000    21.11000000   -19.90100000
   C     49.71000000    20.28000000   -20.04100000
   C     50.32000000    20.76000000   -18.73100000
   N     51.19000000    20.01000000   -18.05100000
   O     50.10000000    21.91000000   -18.37100000
   H     50.77000000    22.39000000   -21.14100000
   H     48.62000000    20.49000000   -21.74100000
   H     50.40000000    19.66000000   -20.61100000
   H     48.91000000    19.61000000   -19.72100000
   H     51.32000000    19.05000000   -18.35100000
   H     51.54000000    20.34000000   -17.16100000
   N     47.58000000    23.12000000   -20.42100000
   C     46.48000000    23.86000000   -19.83100000
   C     46.73000000    24.44000000   -18.44100000
   O     45.91000000    25.27000000   -18.05100000
   H     48.29000000    23.67000000   -20.88100000
   H     45.64000000    23.19000000   -19.69100000
   H     46.20000000    24.65000000   -20.52100000
   N     47.76000000    24.01000000   -17.72100000
   C     47.92000000    24.19000000   -16.29100000
   C     49.32000000    24.71000000   -15.99100000
   O     50.23000000    24.34000000   -16.73100000
   C     47.80000000    22.81000000   -15.65100000
   C     46.34000000    22.48000000   -15.36100000
   O     48.45000000    21.75000000   -16.32100000
   H     48.35000000    23.32000000   -18.15100000
   H     47.21000000    24.93000000   -15.91100000
   H     48.22000000    23.02000000   -14.67100000
   H     49.31000000    22.03000000   -16.62100000
   H     46.35000000    21.50000000   -14.88100000
   H     45.78000000    23.13000000   -14.69100000
   H     45.82000000    22.41000000   -16.31100000
   N     49.47000000    25.39000000   -14.85100000
   C     50.75000000    25.60000000   -14.21100000
   C     51.07000000    24.31000000   -13.47100000
   O     50.25000000    23.67000000   -12.82100000
   C     50.85000000    26.86000000   -13.36100000
   C     50.18000000    28.08000000   -13.98100000
   C     52.33000000    27.21000000   -13.26100000
   C     48.72000000    28.34000000   -13.62100000
   H     48.59000000    25.55000000   -14.39100000
   H     51.43000000    25.73000000   -15.06100000
   H     50.51000000    26.72000000   -12.34100000
   H     50.24000000    27.97000000   -15.06100000
   H     50.74000000    28.99000000   -13.74100000
   H     52.91000000    26.51000000   -12.65100000
   H     52.74000000    27.27000000   -14.26100000
   H     52.52000000    28.13000000   -12.70100000
   H     48.57000000    28.67000000   -12.59100000
   H     48.47000000    29.24000000   -14.19100000
   H     48.01000000    27.57000000   -13.88100000
   N     52.33000000    23.91000000   -13.63100000
   C     52.90000000    22.75000000   -12.97100000
   C     53.85000000    23.16000000   -11.85100000
   O     54.12000000    24.35000000   -11.76100000
   C     53.60000000    21.79000000   -13.93100000
   C     52.92000000    21.16000000   -15.13100000
   O     53.27000000    20.01000000   -15.48100000
   O     52.03000000    21.71000000   -15.81100000
   H     52.90000000    24.58000000   -14.13100000
   H     52.10000000    22.17000000   -12.52100000
   H     54.04000000    20.99000000   -13.33100000
   H     54.34000000    22.47000000   -14.37100000
   N     54.27000000    22.26000000   -10.95100000
   C     55.19000000    22.67000000    -9.91100000
   C     56.46000000    23.31000000   -10.46100000
   O     56.78000000    24.39000000    -9.97100000
   C     55.53000000    21.61000000    -8.87100000
   C     56.29000000    22.09000000    -7.65100000
   C     57.55000000    21.56000000    -7.39100000
   C     55.83000000    23.18000000    -6.91100000
   C     58.30000000    22.09000000    -6.33100000
   C     56.61000000    23.81000000    -5.93100000
   C     57.84000000    23.20000000    -5.63100000
   H     54.03000000    21.28000000   -10.98100000
   H     54.68000000    23.51000000    -9.42100000
   H     55.97000000    20.72000000    -9.31100000
   H     54.58000000    21.21000000    -8.51100000
   H     58.02000000    20.84000000    -8.05100000
   H     54.93000000    23.68000000    -7.25100000
   H     59.31000000    21.73000000    -6.17100000
   H     56.19000000    24.67000000    -5.43100000
   H     58.42000000    23.70000000    -4.87100000
   N     57.21000000    22.73000000   -11.40100000
   C     58.34000000    23.44000000   -11.96100000
   C     58.10000000    24.78000000   -12.63100000
   O     59.06000000    25.48000000   -12.94100000
   C     58.99000000    22.49000000   -12.96100000
   C     57.95000000    21.47000000   -13.43100000
   C     57.13000000    21.48000000   -12.14100000
   H     59.14000000    23.59000000   -11.24100000
   H     59.52000000    23.10000000   -13.69100000
   H     59.69000000    21.90000000   -12.37100000
   H     57.36000000    21.81000000   -14.27100000
   H     58.36000000    20.46000000   -13.54100000
   H     56.09000000    21.19000000   -12.33100000
   H     57.50000000    20.69000000   -11.50100000
   N     56.88000000    25.08000000   -13.08100000
   C     56.56000000    26.37000000   -13.64100000
   C     56.04000000    27.37000000   -12.61100000
   O     56.12000000    28.59000000   -12.73100000
   C     55.46000000    26.12000000   -14.67100000
   C     55.96000000    25.20000000   -15.78100000
   C     54.77000000    24.71000000   -16.60100000
   O     54.93000000    24.25000000   -17.75100000
   O     53.61000000    24.76000000   -16.14100000
   H     56.14000000    24.46000000   -12.78100000
   H     57.37000000    26.82000000   -14.22100000
   H     55.07000000    27.03000000   -15.13100000
   H     54.59000000    25.64000000   -14.23100000
   H     56.51000000    24.34000000   -15.39100000
   H     56.60000000    25.76000000   -16.46100000
   N     55.36000000    26.82000000   -11.60100000
   C     54.86000000    27.62000000   -10.50100000
   H     53.84400000    27.30800000   -10.25800000
   H     55.50000000    27.48200000    -9.63000000
   H     54.85800000    28.67200000   -10.78700000
   H     54.92000000    25.91000000   -11.57100000
  Ca     52.46000000    23.28000000   -17.74100000

Ca 1.00



