%chk=loop2.holoCaM-CaMKII.run79.water2.chk
%nprocshared=20
%mem=10GB
%nosave
#b3lyp/svp scf=(tight,noincore,xqc) Test 
#IOP(5/87=12) Density=Current Pop=(MK,readradii) iop(6/33=2) iop(6/42=6)

loop2.holoCaM-CaMKII.run79.water2 

   -2  1 
   C     19.21000000    63.63000000    88.09400000
   C     19.41000000    65.10000000    87.75400000
   O     19.80000000    65.84000000    88.65400000
   H     18.24100000    63.30000000    87.72000000
   H     19.99900000    63.03800000    87.62900000
   H     19.24600000    63.49800000    89.17500000
   N     19.23000000    65.56000000    86.51400000
   C     19.56000000    66.89000000    86.03400000
   C     18.64000000    68.01000000    86.49400000
   O     17.44000000    67.86000000    86.72400000
   C     19.50000000    66.78000000    84.51400000
   C     19.95000000    68.06000000    83.82400000
   O     20.74000000    68.92000000    84.28400000
   O     19.55000000    68.28000000    82.66400000
   H     18.84000000    64.95000000    85.80400000
   H     20.55000000    67.18000000    86.39400000
   H     18.47000000    66.54000000    84.23400000
   H     20.12000000    65.96000000    84.17400000
   N     19.21000000    69.18000000    86.79400000
   C     18.48000000    70.42000000    86.89400000
   C     18.70000000    71.54000000    85.87400000
   O     18.10000000    72.60000000    86.03400000
   C     18.57000000    70.93000000    88.32400000
   H     20.22000000    69.26000000    86.78400000
   H     17.46000000    70.10000000    86.69400000
   H     19.63000000    71.12000000    88.53400000
   H     17.98000000    71.80000000    88.61400000
   H     18.46000000    70.10000000    89.01400000
   N     19.69000000    71.45000000    84.99400000
   C     20.09000000    72.52000000    84.09400000
   C     20.26000000    72.19000000    82.61400000
   O     20.46000000    73.11000000    81.82400000
   C     21.40000000    73.12000000    84.60400000
   C     22.48000000    72.17000000    85.08400000
   O     22.76000000    71.16000000    84.39400000
   O     22.82000000    72.21000000    86.28400000
   H     20.12000000    70.54000000    84.89400000
   H     19.42000000    73.37000000    83.96400000
   H     21.03000000    73.74000000    85.42400000
   H     21.85000000    73.76000000    83.84400000
   N     20.10000000    70.93000000    82.21400000
   C     20.30000000    70.61000000    80.81400000
   C     21.75000000    70.60000000    80.36400000
   O     21.99000000    70.47000000    79.16400000
   H     20.13000000    70.20000000    82.91400000
   H     19.84000000    71.34000000    80.14400000
   H     19.96000000    69.60000000    80.58400000
   N     22.73000000    70.75000000    81.26400000
   C     24.08000000    70.95000000    80.80400000
   C     24.77000000    69.70000000    80.25400000
   O     25.91000000    69.73000000    79.81400000
   C     24.89000000    71.75000000    81.82400000
   C     25.34000000    70.95000000    83.03400000
   N     25.89000000    71.63000000    84.04400000
   O     25.17000000    69.73000000    83.04400000
   H     22.47000000    70.86000000    82.24400000
   H     24.12000000    71.62000000    79.93400000
   H     24.30000000    72.58000000    82.22400000
   H     25.79000000    72.13000000    81.33400000
   H     25.74000000    72.63000000    84.08400000
   H     25.98000000    71.18000000    84.94400000
   N     24.05000000    68.59000000    80.15400000
   C     24.55000000    67.33000000    79.63400000
   C     25.48000000    66.53000000    80.52400000
   O     25.98000000    65.52000000    80.02400000
   H     23.17000000    68.52000000    80.66400000
   H     25.11000000    67.60000000    78.73400000
   H     23.70000000    66.81000000    79.19400000
   N     25.77000000    66.98000000    81.75400000
   C     26.83000000    66.53000000    82.63400000
   C     26.43000000    66.44000000    84.09400000
   O     25.48000000    67.12000000    84.48400000
   C     28.05000000    67.44000000    82.52400000
   C     28.67000000    67.41000000    81.12400000
   O     27.74000000    68.80000000    82.69400000
   H     25.50000000    67.96000000    81.82400000
   H     27.03000000    65.54000000    82.22400000
   H     28.83000000    67.03000000    83.17400000
   H     26.88000000    68.87000000    83.11400000
   H     28.69000000    66.39000000    80.73400000
   H     28.04000000    68.06000000    80.52400000
   H     29.68000000    67.77000000    81.31400000
   N     27.17000000    65.66000000    84.89400000
   C     26.96000000    65.45000000    86.30400000
   C     27.61000000    66.62000000    87.01400000
   O     28.84000000    66.68000000    87.07400000
   C     27.44000000    64.11000000    86.86400000
   C     26.97000000    62.98000000    85.95400000
   C     27.01000000    63.81000000    88.29400000
   C     27.61000000    61.61000000    86.16400000
   H     27.92000000    65.15000000    84.45400000
   H     25.88000000    65.56000000    86.45400000
   H     28.53000000    64.15000000    86.88400000
   H     27.11000000    63.21000000    84.89400000
   H     25.89000000    62.82000000    86.05400000
   H     25.96000000    63.52000000    88.19400000
   H     27.65000000    63.02000000    88.67400000
   H     27.08000000    64.73000000    88.89400000
   H     27.09000000    60.86000000    85.57400000
   H     28.62000000    61.55000000    85.76400000
   H     27.62000000    61.27000000    87.19400000
   N     26.81000000    67.55000000    87.54400000
   C     27.15000000    68.55000000    88.53400000
   C     27.26000000    67.87000000    89.88400000
   O     26.50000000    66.94000000    90.14400000
   C     26.17000000    69.72000000    88.54400000
   C     26.21000000    70.42000000    87.19400000
   O     25.29000000    70.13000000    86.40400000
   O     26.97000000    71.39000000    87.00400000
   H     25.83000000    67.55000000    87.30400000
   H     28.15000000    68.97000000    88.36400000
   H     26.36000000    70.46000000    89.32400000
   H     25.17000000    69.32000000    88.67400000
   N     28.14000000    68.26000000    90.81400000
   C     28.28000000    67.55000000    92.06400000
   C     27.04000000    67.32000000    92.92400000
   O     26.83000000    66.15000000    93.26400000
   C     29.37000000    68.21000000    92.90400000
   C     29.71000000    67.52000000    94.20400000
   C     29.44000000    68.24000000    95.37400000
   C     30.32000000    66.26000000    94.24400000
   C     29.66000000    67.60000000    96.59400000
   C     30.55000000    65.61000000    95.46400000
   C     30.24000000    66.33000000    96.62400000
   H     28.87000000    68.94000000    90.64400000
   H     28.61000000    66.53000000    91.83400000
   H     29.16000000    69.26000000    93.12400000
   H     30.27000000    68.25000000    92.28400000
   H     28.83000000    69.13000000    95.31400000
   H     30.51000000    65.70000000    93.33400000
   H     29.38000000    68.14000000    97.49400000
   H     30.89000000    64.58000000    95.53400000
   H     30.43000000    65.90000000    97.59400000
   N     26.14000000    68.27000000    93.17400000
   C     24.81000000    68.11000000    93.73400000
   C     23.86000000    67.20000000    92.97400000
   O     22.74000000    66.96000000    93.41400000
   C     24.15000000    69.48000000    93.81400000
   C     25.13000000    70.47000000    93.18400000
   C     26.35000000    69.65000000    92.78400000
   H     24.92000000    67.73000000    94.74400000
   H     23.22000000    69.48000000    93.24400000
   H     23.86000000    69.73000000    94.83400000
   H     24.61000000    70.96000000    92.36400000
   H     25.42000000    71.26000000    93.86400000
   H     26.56000000    69.89000000    91.74400000
   H     27.12000000    70.02000000    93.45400000
   N     24.31000000    66.62000000    91.86400000
   C     23.64000000    65.57000000    91.11400000
   C     24.44000000    64.28000000    91.18400000
   O     23.78000000    63.25000000    91.29400000
   C     23.47000000    65.90000000    89.63400000
   C     22.78000000    67.22000000    89.30400000
   C     22.97000000    67.66000000    87.86400000
   O     22.31000000    68.61000000    87.38400000
   O     23.79000000    67.13000000    87.09400000
   H     25.17000000    67.04000000    91.54400000
   H     22.64000000    65.38000000    91.52400000
   H     22.92000000    65.06000000    89.22400000
   H     24.47000000    65.94000000    89.20400000
   H     23.24000000    68.07000000    89.80400000
   H     21.72000000    67.28000000    89.52400000
   N     25.77000000    64.29000000    91.29400000
   C     26.58000000    63.19000000    91.77400000
   H     27.50300000    63.58000000    92.20300000
   H     26.03000000    62.63900000    92.53600000
   H     26.81800000    62.52400000    90.94400000
   H     26.25000000    65.16000000    91.15400000
  Ca     23.36000000    68.83000000    85.02000000
   O     22.66000000    66.18000000    84.79000000
   H     22.35000000    65.35000000    84.42000000
   H     22.89000000    65.97000000    85.69000000
   O     22.59000000    67.99000000    82.55000000
   H     22.61000000    67.10000000    82.19000000
   H     21.71000000    68.31000000    82.36000000

Ca 1.00



