%chk=loop2.apoCaM-CA-Ng.Init31.run93.water5.chk
%nprocshared=20
%mem=10GB
%nosave
#b3lyp/svp scf=(tight,noincore,xqc) Test 
#IOP(5/87=12) Density=Current Pop=(MK,readradii) iop(6/33=2) iop(6/42=6)

loop2.apoCaM-CA-Ng.Init31.run93.water5 

   -2  1 
   C     37.73000000    61.91000000    20.73000000
   C     37.21000000    60.48000000    20.81000000
   O     36.01000000    60.21000000    20.73000000
   H     38.69500000    61.91700000    20.22400000
   H     37.02300000    62.52400000    20.17200000
   H     37.84500000    62.31200000    21.73700000
   N     38.06000000    59.46000000    20.93000000
   C     39.50000000    59.46000000    21.10000000
   C     40.02000000    58.53000000    22.19000000
   O     39.66000000    57.36000000    22.30000000
   C     40.22000000    59.17000000    19.78000000
   C     40.07000000    57.73000000    19.31000000
   O     41.00000000    56.90000000    19.31000000
   O     38.99000000    57.27000000    18.86000000
   H     37.56000000    58.59000000    20.79000000
   H     39.69000000    60.48000000    21.41000000
   H     41.26000000    59.39000000    20.01000000
   H     39.76000000    59.81000000    19.03000000
   N     40.96000000    58.97000000    23.03000000
   C     41.94000000    58.30000000    23.86000000
   C     41.38000000    57.67000000    25.13000000
   O     42.13000000    57.55000000    26.10000000
   C     43.04000000    59.29000000    24.24000000
   H     41.08000000    59.97000000    22.93000000
   H     42.44000000    57.47000000    23.36000000
   H     42.74000000    60.16000000    24.82000000
   H     43.79000000    58.72000000    24.78000000
   H     43.61000000    59.66000000    23.39000000
   N     40.07000000    57.42000000    25.20000000
   C     39.42000000    57.01000000    26.42000000
   C     39.12000000    55.52000000    26.34000000
   O     39.31000000    54.82000000    25.35000000
   C     38.13000000    57.80000000    26.61000000
   C     37.05000000    57.55000000    25.57000000
   O     37.25000000    56.76000000    24.62000000
   O     35.99000000    58.21000000    25.66000000
   H     39.52000000    57.43000000    24.36000000
   H     39.98000000    57.18000000    27.34000000
   H     38.42000000    58.85000000    26.68000000
   H     37.75000000    57.39000000    27.54000000
   N     38.60000000    54.94000000    27.43000000
   C     38.30000000    53.53000000    27.47000000
   C     36.82000000    53.24000000    27.26000000
   O     35.96000000    54.11000000    27.09000000
   H     38.42000000    55.53000000    28.23000000
   H     38.56000000    53.12000000    28.44000000
   H     38.91000000    52.94000000    26.77000000
   N     36.50000000    51.99000000    26.93000000
   C     35.20000000    51.54000000    26.49000000
   C     34.93000000    50.08000000    26.81000000
   O     35.74000000    49.20000000    26.52000000
   C     35.19000000    51.69000000    24.97000000
   C     35.13000000    53.07000000    24.33000000
   N     33.98000000    53.75000000    24.34000000
   O     36.09000000    53.55000000    23.74000000
   H     37.24000000    51.30000000    26.94000000
   H     34.43000000    52.16000000    26.96000000
   H     34.34000000    51.18000000    24.51000000
   H     36.10000000    51.21000000    24.61000000
   H     33.14000000    53.47000000    24.81000000
   H     33.96000000    54.64000000    23.87000000
   N     33.73000000    49.75000000    27.29000000
   C     33.15000000    48.42000000    27.19000000
   C     33.73000000    47.40000000    28.15000000
   O     34.05000000    46.30000000    27.70000000
   H     33.10000000    50.51000000    27.49000000
   H     33.37000000    48.12000000    26.16000000
   H     32.07000000    48.53000000    27.28000000
   N     33.88000000    47.52000000    29.47000000
   C     33.35000000    48.55000000    30.35000000
   C     34.40000000    49.38000000    31.09000000
   O     34.07000000    50.52000000    31.40000000
   C     32.37000000    47.99000000    31.38000000
   C     31.37000000    49.02000000    31.89000000
   O     31.62000000    47.00000000    30.70000000
   H     34.26000000    46.72000000    29.95000000
   H     32.77000000    49.27000000    29.79000000
   H     32.92000000    47.44000000    32.14000000
   H     30.80000000    46.86000000    31.18000000
   H     31.93000000    49.92000000    32.13000000
   H     30.63000000    49.32000000    31.14000000
   H     30.86000000    48.61000000    32.76000000
   N     35.63000000    48.89000000    31.24000000
   C     36.66000000    49.26000000    32.18000000
   C     36.20000000    49.19000000    33.63000000
   O     35.32000000    49.97000000    33.99000000
   C     37.19000000    50.65000000    31.82000000
   C     37.68000000    50.72000000    30.37000000
   C     38.29000000    51.10000000    32.78000000
   C     38.82000000    49.75000000    30.10000000
   H     35.68000000    47.92000000    30.95000000
   H     37.52000000    48.60000000    32.07000000
   H     36.39000000    51.38000000    31.91000000
   H     38.08000000    51.72000000    30.19000000
   H     36.92000000    50.53000000    29.62000000
   H     39.11000000    50.39000000    32.79000000
   H     38.51000000    52.10000000    32.41000000
   H     37.86000000    51.31000000    33.76000000
   H     38.57000000    48.69000000    30.18000000
   H     39.10000000    49.84000000    29.05000000
   H     39.76000000    49.90000000    30.63000000
   N     36.83000000    48.48000000    34.57000000
   C     37.95000000    47.57000000    34.47000000
   C     39.27000000    48.26000000    34.80000000
   O     40.24000000    48.21000000    34.05000000
   C     37.75000000    46.29000000    35.27000000
   C     37.34000000    46.37000000    36.73000000
   O     36.84000000    47.40000000    37.24000000
   O     37.65000000    45.48000000    37.55000000
   H     36.38000000    48.53000000    35.48000000
   H     37.98000000    47.18000000    33.45000000
   H     38.66000000    45.69000000    35.17000000
   H     36.93000000    45.75000000    34.81000000
   N     39.19000000    49.05000000    35.88000000
   C     40.30000000    49.78000000    36.44000000
   C     40.63000000    49.17000000    37.80000000
   O     39.76000000    48.47000000    38.31000000
   C     39.98000000    51.27000000    36.51000000
   C     39.02000000    51.65000000    37.61000000
   C     39.41000000    52.40000000    38.73000000
   C     37.68000000    51.24000000    37.55000000
   C     38.53000000    52.89000000    39.70000000
   C     36.78000000    51.82000000    38.44000000
   C     37.17000000    52.67000000    39.48000000
   H     38.34000000    48.98000000    36.42000000
   H     41.05000000    49.60000000    35.66000000
   H     39.50000000    51.66000000    35.61000000
   H     40.92000000    51.79000000    36.68000000
   H     40.43000000    52.73000000    38.87000000
   H     37.22000000    50.75000000    36.70000000
   H     38.88000000    53.56000000    40.47000000
   H     35.71000000    51.75000000    38.31000000
   H     36.42000000    53.15000000    40.09000000
   N     41.82000000    49.43000000    38.34000000
   C     42.99000000    49.96000000    37.68000000
   C     43.59000000    49.09000000    36.57000000
   O     43.10000000    48.00000000    36.32000000
   C     44.03000000    50.09000000    38.79000000
   C     43.66000000    48.95000000    39.74000000
   C     42.14000000    49.04000000    39.70000000
   H     42.82000000    50.97000000    37.32000000
   H     45.04000000    49.97000000    38.39000000
   H     44.05000000    50.96000000    39.45000000
   H     44.04000000    47.97000000    39.45000000
   H     44.04000000    49.07000000    40.75000000
   H     41.74000000    48.08000000    40.03000000
   H     41.80000000    49.79000000    40.41000000
   N     44.61000000    49.59000000    35.87000000
   C     45.15000000    49.03000000    34.65000000
   C     45.40000000    49.94000000    33.45000000
   O     46.16000000    49.56000000    32.56000000
   C     46.34000000    48.10000000    34.85000000
   C     46.26000000    46.99000000    35.89000000
   C     47.52000000    46.15000000    35.76000000
   O     47.49000000    44.95000000    35.40000000
   O     48.62000000    46.73000000    35.88000000
   H     45.00000000    50.47000000    36.18000000
   H     44.34000000    48.43000000    34.25000000
   H     47.23000000    48.67000000    35.11000000
   H     46.54000000    47.51000000    33.95000000
   H     45.41000000    46.32000000    35.74000000
   H     46.28000000    47.50000000    36.85000000
   N     44.85000000    51.15000000    33.33000000
   C     43.95000000    51.86000000    34.22000000
   H     42.99500000    51.33600000    34.26400000
   H     44.38600000    51.90500000    35.21800000
   H     43.79200000    52.87200000    33.84600000
   H     45.07000000    51.54000000    32.43000000
  Ca     38.25000000    54.88000000    22.99000000
   O     37.15000000    53.35000000    20.91000000
   H     36.82000000    53.79000000    20.13000000
   H     36.73000000    52.49000000    20.90000000
   O     38.83000000    52.26000000    23.75000000
   H     39.50000000    52.14000000    24.42000000
   H     38.80000000    51.43000000    23.29000000
   O     39.62000000    54.96000000    20.72000000
   H     39.44000000    54.23000000    20.13000000
   H     39.83000000    55.69000000    20.13000000
   O     36.26000000    56.24000000    21.95000000
   H     35.74000000    56.34000000    21.16000000
   H     35.93000000    56.92000000    22.54000000
   O     41.37000000    54.72000000    23.13000000
   H     41.57000000    53.93000000    22.63000000
   H     41.51000000    54.46000000    24.04000000

Ca 1.00



