%chk=loop2.holoCaM.run13.water2.chk
%nprocshared=20
%mem=10GB
%nosave
#b3lyp/svp scf=(tight,noincore,xqc) Test 
#IOP(5/87=12) Density=Current Pop=(MK,readradii) iop(6/33=2) iop(6/42=6)

loop2.holoCaM.run13.water2 

   -2  1 
   C     36.06000000    35.54000000     4.75000000
   C     34.98000000    36.51000000     4.30000000
   O     35.09000000    37.71000000     4.53000000
   H     36.93000000    36.10000000     5.09500000
   H     35.67900000    34.92400000     5.56400000
   H     36.34700000    34.90200000     3.91400000
   N     33.91000000    36.03000000     3.66000000
   C     32.85000000    36.84000000     3.08000000
   C     32.13000000    37.69000000     4.11000000
   O     31.53000000    37.17000000     5.05000000
   C     32.03000000    35.89000000     2.21000000
   C     30.89000000    36.55000000     1.45000000
   O     30.72000000    37.78000000     1.56000000
   O     30.20000000    35.81000000     0.71000000
   H     34.03000000    35.09000000     3.31000000
   H     33.34000000    37.51000000     2.38000000
   H     31.61000000    35.08000000     2.81000000
   H     32.63000000    35.37000000     1.46000000
   N     32.17000000    39.03000000     4.07000000
   C     31.70000000    39.94000000     5.10000000
   C     30.34000000    40.56000000     4.80000000
   O     29.90000000    41.50000000     5.48000000
   C     32.78000000    40.94000000     5.48000000
   H     32.62000000    39.42000000     3.25000000
   H     31.60000000    39.32000000     5.99000000
   H     32.45000000    41.47000000     6.38000000
   H     33.65000000    40.36000000     5.79000000
   H     33.03000000    41.69000000     4.73000000
   N     29.59000000    39.98000000     3.87000000
   C     28.20000000    40.25000000     3.57000000
   C     27.39000000    38.98000000     3.40000000
   O     26.17000000    39.00000000     3.59000000
   C     27.93000000    41.18000000     2.38000000
   C     28.64000000    40.90000000     1.06000000
   O     28.19000000    41.54000000     0.09000000
   O     29.73000000    40.29000000     1.00000000
   H     30.14000000    39.38000000     3.26000000
   H     27.80000000    40.77000000     4.44000000
   H     28.26000000    42.19000000     2.63000000
   H     26.87000000    41.24000000     2.16000000
   N     28.06000000    37.92000000     2.95000000
   C     27.40000000    36.67000000     2.59000000
   C     26.79000000    36.63000000     1.20000000
   O     25.65000000    36.19000000     1.03000000
   H     29.07000000    37.96000000     2.90000000
   H     26.67000000    36.48000000     3.38000000
   H     28.16000000    35.89000000     2.57000000
   N     27.46000000    37.22000000     0.21000000
   C     26.99000000    37.14000000    -1.16000000
   C     27.44000000    35.90000000    -1.92000000
   O     26.74000000    35.49000000    -2.85000000
   C     27.17000000    38.50000000    -1.81000000
   C     28.58000000    38.66000000    -2.34000000
   N     28.74000000    39.32000000    -3.49000000
   O     29.61000000    38.27000000    -1.79000000
   H     28.43000000    37.47000000     0.36000000
   H     25.90000000    37.03000000    -1.17000000
   H     26.93000000    39.32000000    -1.12000000
   H     26.52000000    38.73000000    -2.66000000
   H     27.90000000    39.72000000    -3.86000000
   H     29.61000000    39.15000000    -3.98000000
   N     28.48000000    35.12000000    -1.61000000
   C     28.94000000    33.91000000    -2.25000000
   C     30.28000000    34.02000000    -2.96000000
   O     30.72000000    33.02000000    -3.52000000
   H     29.13000000    35.42000000    -0.90000000
   H     28.17000000    33.38000000    -2.82000000
   H     29.03000000    33.16000000    -1.46000000
   N     30.82000000    35.24000000    -2.98000000
   C     32.13000000    35.51000000    -3.54000000
   C     32.92000000    36.42000000    -2.61000000
   O     32.34000000    36.96000000    -1.67000000
   C     32.04000000    36.12000000    -4.93000000
   C     31.27000000    35.32000000    -5.98000000
   O     31.24000000    37.29000000    -4.95000000
   H     30.41000000    35.91000000    -2.34000000
   H     32.70000000    34.58000000    -3.53000000
   H     33.03000000    36.23000000    -5.36000000
   H     30.62000000    37.28000000    -5.68000000
   H     31.38000000    35.69000000    -7.00000000
   H     31.56000000    34.26000000    -6.00000000
   H     30.22000000    35.34000000    -5.72000000
   N     34.24000000    36.38000000    -2.81000000
   C     35.25000000    37.18000000    -2.14000000
   C     35.45000000    38.50000000    -2.88000000
   O     35.63000000    38.46000000    -4.10000000
   C     36.59000000    36.45000000    -2.14000000
   C     36.65000000    35.41000000    -1.03000000
   C     37.82000000    37.35000000    -2.05000000
   C     37.76000000    34.38000000    -1.24000000
   H     34.57000000    35.86000000    -3.61000000
   H     34.95000000    37.45000000    -1.13000000
   H     36.66000000    35.95000000    -3.10000000
   H     35.72000000    34.85000000    -0.95000000
   H     36.69000000    35.82000000    -0.02000000
   H     37.97000000    38.21000000    -2.70000000
   H     37.88000000    37.80000000    -1.05000000
   H     38.72000000    36.75000000    -2.15000000
   H     37.59000000    33.39000000    -0.81000000
   H     37.81000000    34.19000000    -2.31000000
   H     38.71000000    34.72000000    -0.82000000
   N     35.63000000    39.59000000    -2.13000000
   C     36.08000000    40.87000000    -2.63000000
   C     37.54000000    41.26000000    -2.48000000
   O     38.31000000    40.63000000    -1.75000000
   C     35.21000000    41.97000000    -2.05000000
   C     33.72000000    41.69000000    -2.23000000
   O     33.03000000    41.34000000    -1.25000000
   O     33.21000000    41.90000000    -3.36000000
   H     35.38000000    39.47000000    -1.16000000
   H     35.85000000    40.93000000    -3.70000000
   H     35.51000000    42.90000000    -2.53000000
   H     35.47000000    42.01000000    -0.99000000
   N     37.91000000    42.49000000    -2.85000000
   C     39.19000000    43.04000000    -2.45000000
   C     39.47000000    42.97000000    -0.96000000
   O     40.31000000    42.18000000    -0.54000000
   C     39.43000000    44.44000000    -3.01000000
   C     40.86000000    44.88000000    -2.86000000
   C     41.91000000    44.16000000    -3.43000000
   C     41.15000000    46.11000000    -2.25000000
   C     43.23000000    44.61000000    -3.41000000
   C     42.49000000    46.47000000    -2.08000000
   C     43.54000000    45.76000000    -2.67000000
   H     37.23000000    43.09000000    -3.30000000
   H     39.88000000    42.43000000    -3.03000000
   H     38.71000000    45.18000000    -2.63000000
   H     39.24000000    44.42000000    -4.08000000
   H     41.84000000    43.18000000    -3.88000000
   H     40.35000000    46.66000000    -1.76000000
   H     44.02000000    43.93000000    -3.72000000
   H     42.78000000    47.34000000    -1.50000000
   H     44.56000000    46.10000000    -2.63000000
   N     38.72000000    43.68000000    -0.10000000
   C     39.08000000    43.67000000     1.30000000
   C     38.88000000    42.33000000     1.99000000
   O     39.21000000    42.18000000     3.17000000
   C     38.23000000    44.74000000     1.97000000
   C     37.00000000    44.73000000     1.07000000
   C     37.49000000    44.41000000    -0.34000000
   H     40.15000000    43.88000000     1.34000000
   H     38.03000000    44.57000000     3.03000000
   H     38.70000000    45.72000000     1.90000000
   H     36.43000000    43.85000000     1.39000000
   H     36.42000000    45.62000000     1.30000000
   H     36.82000000    43.79000000    -0.94000000
   H     37.68000000    45.36000000    -0.84000000
   N     38.38000000    41.30000000     1.30000000
   C     38.03000000    40.01000000     1.85000000
   C     39.12000000    39.05000000     1.38000000
   O     39.51000000    38.17000000     2.13000000
   C     36.66000000    39.58000000     1.34000000
   C     35.53000000    40.48000000     1.82000000
   C     34.20000000    40.01000000     1.26000000
   O     34.11000000    39.25000000     0.27000000
   O     33.10000000    40.36000000     1.74000000
   H     38.21000000    41.56000000     0.34000000
   H     38.06000000    40.09000000     2.94000000
   H     36.54000000    38.54000000     1.65000000
   H     36.64000000    39.58000000     0.25000000
   H     35.73000000    41.51000000     1.52000000
   H     35.31000000    40.46000000     2.88000000
   N     39.70000000    39.20000000     0.19000000
   C     40.94000000    38.59000000    -0.25000000
   H     41.72700000    38.80800000     0.47200000
   H     40.80700000    37.51100000    -0.32800000
   H     41.21900000    38.99300000    -1.22400000
   H     39.21000000    39.73000000    -0.51000000
  Ca     31.62000000    39.36000000    -0.40100000
   O     32.17000000    39.37000000    -3.22100000
   H     31.97000000    38.99000000    -4.08100000
   H     32.65000000    40.17000000    -3.42100000
   O     30.16000000    41.59000000    -1.74100000
   H     30.47000000    42.47000000    -1.55100000
   H     29.39000000    41.48000000    -1.18100000

Ca 1.00



