%chk=loop2.holoCaM-CaMKII.run15.water2.chk
%nprocshared=20
%mem=10GB
%nosave
#b3lyp/svp scf=(tight,noincore,xqc) Test 
#IOP(5/87=12) Density=Current Pop=(MK,readradii) iop(6/33=2) iop(6/42=6)

loop2.holoCaM-CaMKII.run15.water2 

   -2  1 
   C     74.34000000    63.32000000    -1.85000000
   C     74.84000000    62.49000000    -3.03000000
   O     76.05000000    62.32000000    -3.07000000
   H     73.32200000    63.02000000    -1.60100000
   H     74.98700000    63.15500000    -0.98900000
   H     74.35200000    64.37700000    -2.11700000
   N     73.95000000    62.09000000    -3.94000000
   C     74.43000000    61.17000000    -4.96000000
   C     75.43000000    61.76000000    -5.94000000
   O     75.13000000    62.83000000    -6.46000000
   C     73.20000000    60.72000000    -5.74000000
   C     73.58000000    59.74000000    -6.84000000
   O     74.44000000    58.88000000    -6.55000000
   O     73.19000000    59.86000000    -8.02000000
   H     73.03000000    62.50000000    -3.91000000
   H     74.84000000    60.32000000    -4.41000000
   H     72.72000000    61.60000000    -6.17000000
   H     72.45000000    60.18000000    -5.16000000
   N     76.44000000    60.98000000    -6.35000000
   C     77.35000000    61.24000000    -7.44000000
   C     77.48000000    60.18000000    -8.53000000
   O     78.30000000    60.35000000    -9.43000000
   C     78.68000000    61.72000000    -6.86000000
   H     76.59000000    60.13000000    -5.83000000
   H     76.95000000    62.07000000    -8.01000000
   H     79.27000000    62.22000000    -7.64000000
   H     78.42000000    62.48000000    -6.12000000
   H     79.22000000    60.89000000    -6.40000000
   N     76.81000000    59.03000000    -8.43000000
   C     76.94000000    57.89000000    -9.32000000
   C     75.73000000    57.15000000    -9.86000000
   O     75.80000000    56.17000000   -10.60000000
   C     78.04000000    56.98000000    -8.78000000
   C     77.90000000    56.50000000    -7.34000000
   O     76.85000000    56.68000000    -6.69000000
   O     78.95000000    56.03000000    -6.86000000
   H     76.11000000    58.91000000    -7.71000000
   H     77.34000000    58.38000000   -10.21000000
   H     78.99000000    57.44000000    -9.06000000
   H     78.05000000    56.05000000    -9.35000000
   N     74.53000000    57.59000000    -9.49000000
   C     73.28000000    57.14000000   -10.07000000
   C     72.83000000    55.74000000    -9.69000000
   O     71.78000000    55.23000000   -10.08000000
   H     74.50000000    58.38000000    -8.87000000
   H     73.36000000    57.18000000   -11.16000000
   H     72.47000000    57.81000000    -9.76000000
   N     73.55000000    55.12000000    -8.76000000
   C     73.30000000    53.76000000    -8.33000000
   C     72.13000000    53.62000000    -7.36000000
   O     71.74000000    52.50000000    -7.04000000
   C     74.60000000    53.21000000    -7.74000000
   C     75.06000000    53.76000000    -6.40000000
   N     76.26000000    53.38000000    -5.95000000
   O     74.55000000    54.77000000    -5.92000000
   H     74.37000000    55.61000000    -8.41000000
   H     73.00000000    53.12000000    -9.15000000
   H     75.42000000    53.37000000    -8.45000000
   H     74.43000000    52.14000000    -7.62000000
   H     76.72000000    52.78000000    -6.63000000
   H     76.72000000    53.96000000    -5.27000000
   N     71.49000000    54.65000000    -6.81000000
   C     70.24000000    54.58000000    -6.08000000
   C     70.48000000    54.47000000    -4.58000000
   O     69.56000000    54.53000000    -3.77000000
   H     71.85000000    55.57000000    -7.02000000
   H     69.67000000    53.78000000    -6.54000000
   H     69.54000000    55.40000000    -6.25000000
   N     71.74000000    54.32000000    -4.16000000
   C     72.09000000    54.13000000    -2.77000000
   C     72.97000000    55.29000000    -2.31000000
   O     73.63000000    55.84000000    -3.19000000
   C     72.90000000    52.85000000    -2.56000000
   C     72.08000000    51.60000000    -2.84000000
   O     74.08000000    52.87000000    -3.33000000
   H     72.51000000    54.49000000    -4.80000000
   H     71.15000000    54.12000000    -2.22000000
   H     73.20000000    52.79000000    -1.51000000
   H     74.37000000    53.79000000    -3.35000000
   H     71.48000000    51.66000000    -3.75000000
   H     72.74000000    50.73000000    -2.88000000
   H     71.45000000    51.45000000    -1.97000000
   N     73.15000000    55.47000000    -1.00000000
   C     74.26000000    56.10000000    -0.31000000
   C     75.45000000    55.17000000    -0.19000000
   O     75.36000000    54.11000000     0.41000000
   C     73.89000000    56.69000000     1.05000000
   C     72.46000000    57.09000000     1.42000000
   C     74.84000000    57.88000000     1.23000000
   C     72.14000000    57.11000000     2.91000000
   H     72.58000000    54.89000000    -0.40000000
   H     74.45000000    56.94000000    -0.98000000
   H     74.18000000    55.91000000     1.76000000
   H     71.76000000    56.42000000     0.92000000
   H     72.30000000    58.13000000     1.16000000
   H     74.73000000    58.66000000     0.48000000
   H     74.81000000    58.28000000     2.25000000
   H     75.87000000    57.54000000     1.12000000
   H     72.61000000    56.31000000     3.48000000
   H     72.58000000    58.05000000     3.26000000
   H     71.08000000    57.30000000     3.09000000
   N     76.56000000    55.79000000    -0.61000000
   C     77.95000000    55.38000000    -0.61000000
   C     78.71000000    56.07000000     0.51000000
   O     78.25000000    57.04000000     1.10000000
   C     78.58000000    55.58000000    -1.99000000
   C     77.71000000    54.90000000    -3.04000000
   O     76.70000000    55.57000000    -3.35000000
   O     78.04000000    53.86000000    -3.65000000
   H     76.41000000    56.70000000    -1.02000000
   H     77.88000000    54.35000000    -0.25000000
   H     79.56000000    55.10000000    -1.99000000
   H     78.75000000    56.65000000    -2.12000000
   N     79.86000000    55.52000000     0.91000000
   C     80.54000000    55.99000000     2.11000000
   C     80.96000000    57.45000000     2.08000000
   O     80.76000000    58.11000000     3.10000000
   C     81.72000000    55.13000000     2.56000000
   C     82.26000000    55.45000000     3.93000000
   C     83.62000000    55.80000000     4.04000000
   C     81.45000000    55.48000000     5.07000000
   C     84.11000000    56.28000000     5.27000000
   C     82.00000000    55.82000000     6.32000000
   C     83.30000000    56.31000000     6.41000000
   H     80.30000000    54.72000000     0.48000000
   H     79.80000000    55.96000000     2.91000000
   H     82.48000000    55.18000000     1.78000000
   H     81.38000000    54.10000000     2.64000000
   H     84.24000000    55.91000000     3.16000000
   H     80.46000000    55.05000000     5.02000000
   H     85.14000000    56.58000000     5.34000000
   H     81.39000000    55.78000000     7.21000000
   H     83.70000000    56.64000000     7.36000000
   N     81.45000000    58.07000000     1.01000000
   C     81.91000000    59.44000000     1.00000000
   C     80.71000000    60.37000000     1.00000000
   O     80.66000000    61.35000000     1.74000000
   C     82.85000000    59.66000000    -0.19000000
   C     82.33000000    58.64000000    -1.19000000
   C     81.71000000    57.54000000    -0.32000000
   H     82.43000000    59.56000000     1.95000000
   H     82.76000000    60.64000000    -0.65000000
   H     83.90000000    59.51000000     0.05000000
   H     81.51000000    59.08000000    -1.76000000
   H     83.08000000    58.24000000    -1.87000000
   H     80.83000000    57.20000000    -0.87000000
   H     82.40000000    56.70000000    -0.23000000
   N     79.70000000    60.03000000     0.19000000
   C     78.40000000    60.66000000     0.19000000
   C     77.86000000    60.72000000     1.61000000
   O     77.32000000    61.73000000     2.03000000
   C     77.45000000    59.89000000    -0.72000000
   C     78.00000000    59.72000000    -2.13000000
   C     77.00000000    58.95000000    -2.99000000
   O     77.03000000    58.95000000    -4.24000000
   O     76.03000000    58.32000000    -2.52000000
   H     79.83000000    59.14000000    -0.26000000
   H     78.46000000    61.69000000    -0.19000000
   H     76.48000000    60.39000000    -0.63000000
   H     77.22000000    58.91000000    -0.32000000
   H     78.96000000    59.19000000    -2.08000000
   H     78.11000000    60.74000000    -2.48000000
   N     77.87000000    59.65000000     2.42000000
   C     77.39000000    59.73000000     3.78000000
   H     76.36400000    59.36600000     3.82400000
   H     78.02100000    59.11800000     4.42500000
   H     77.42200000    60.76600000     4.11700000
   H     78.10000000    58.73000000     2.08000000
  Ca     75.25000000    57.17000000    -4.71400000
   O     73.50000000    58.79000000    -3.52400000
   H     74.23000000    59.21000000    -3.05400000
   H     72.74000000    59.33000000    -3.32400000
   O     72.84000000    57.03000000    -5.94400000
   H     71.93000000    57.30000000    -5.78400000
   H     73.20000000    57.72000000    -6.50400000

Ca 1.00



