%chk=loop2.holoCaM-CaMKII.run77.water2.chk
%nprocshared=20
%mem=10GB
%nosave
#b3lyp/svp scf=(tight,noincore,xqc) Test 
#IOP(5/87=12) Density=Current Pop=(MK,readradii) iop(6/33=2) iop(6/42=6)

loop2.holoCaM-CaMKII.run77.water2 

   -2  1 
   C      9.72000000    54.66000000   106.93800000
   C      9.31000000    56.12000000   106.81800000
   O     10.06000000    57.02000000   107.18800000
   H     10.66800000    54.59200000   107.47200000
   H      8.95500000    54.11100000   107.48600000
   H      9.83300000    54.23100000   105.94200000
   N      8.11000000    56.46000000   106.33800000
   C      7.71000000    57.74000000   105.80800000
   C      7.70000000    58.86000000   106.83800000
   O      7.57000000    58.62000000   108.03800000
   C      6.42000000    57.51000000   105.01800000
   C      5.99000000    58.75000000   104.24800000
   O      6.79000000    59.65000000   103.91800000
   O      4.84000000    58.73000000   103.74800000
   H      7.44000000    55.71000000   106.18800000
   H      8.47000000    57.91000000   105.03800000
   H      5.65000000    57.28000000   105.74800000
   H      6.57000000    56.70000000   104.30800000
   N      7.61000000    60.11000000   106.38800000
   C      7.47000000    61.29000000   107.21800000
   C      6.62000000    62.38000000   106.57800000
   O      6.23000000    63.34000000   107.22800000
   C      8.88000000    61.79000000   107.50800000
   H      7.73000000    60.26000000   105.39800000
   H      7.00000000    60.99000000   108.15800000
   H      9.50000000    61.05000000   108.02800000
   H      9.30000000    61.98000000   106.51800000
   H      8.95000000    62.66000000   108.15800000
   N      6.27000000    62.21000000   105.29800000
   C      5.59000000    63.28000000   104.60800000
   C      4.68000000    62.90000000   103.44800000
   O      4.12000000    63.78000000   102.79800000
   C      6.62000000    64.26000000   104.05800000
   C      7.77000000    63.56000000   103.34800000
   O      7.58000000    62.46000000   102.78800000
   O      8.88000000    64.12000000   103.40800000
   H      6.67000000    61.41000000   104.82800000
   H      4.89000000    63.82000000   105.24800000
   H      7.05000000    64.67000000   104.96800000
   H      6.15000000    65.05000000   103.47800000
   N      4.38000000    61.62000000   103.22800000
   C      3.41000000    61.22000000   102.22800000
   C      3.67000000    61.37000000   100.73800000
   O      2.84000000    60.93000000    99.94800000
   H      4.78000000    60.90000000   103.81800000
   H      2.55000000    61.85000000   102.41800000
   H      3.24000000    60.18000000   102.50800000
   N      4.84000000    61.89000000   100.34800000
   C      5.16000000    62.20000000    98.96800000
   C      5.32000000    61.02000000    98.02800000
   O      5.79000000    61.19000000    96.89800000
   C      6.37000000    63.13000000    98.93800000
   C      7.57000000    62.44000000    99.57800000
   N      8.53000000    63.24000000   100.04800000
   O      7.61000000    61.24000000    99.82800000
   H      5.43000000    62.17000000   101.11800000
   H      4.32000000    62.76000000    98.56800000
   H      6.22000000    64.07000000    99.46800000
   H      6.55000000    63.61000000    97.97800000
   H      8.28000000    64.22000000   100.01800000
   H      9.41000000    62.86000000   100.36800000
   N      5.09000000    59.78000000    98.48800000
   C      5.04000000    58.57000000    97.69800000
   C      6.38000000    57.87000000    97.55800000
   O      6.34000000    56.74000000    97.06800000
   H      4.79000000    59.66000000    99.43800000
   H      4.77000000    58.78000000    96.66800000
   H      4.45000000    57.77000000    98.14800000
   N      7.50000000    58.40000000    98.06800000
   C      8.88000000    58.11000000    97.74800000
   C      9.67000000    58.04000000    99.03800000
   O      9.46000000    58.88000000    99.90800000
   C      9.59000000    59.19000000    96.91800000
   C      9.17000000    59.11000000    95.44800000
   O      9.16000000    60.43000000    97.41800000
   H      7.33000000    59.29000000    98.50800000
   H      8.87000000    57.15000000    97.22800000
   H     10.67000000    59.09000000    96.95800000
   H      9.43000000    60.42000000    98.33800000
   H      9.58000000    59.94000000    94.87800000
   H      9.67000000    58.25000000    95.02800000
   H      8.11000000    58.98000000    95.23800000
   N     10.76000000    57.27000000    99.07800000
   C     11.73000000    57.37000000   100.15800000
   C     12.54000000    58.65000000   100.03800000
   O     13.06000000    58.96000000    98.96800000
   C     12.71000000    56.21000000   100.29800000
   C     12.21000000    54.81000000    99.95800000
   C     13.39000000    56.20000000   101.66800000
   C     13.24000000    53.70000000    99.73800000
   H     10.85000000    56.61000000    98.31800000
   H     11.22000000    57.48000000   101.10800000
   H     13.49000000    56.31000000    99.53800000
   H     11.67000000    54.84000000    99.01800000
   H     11.49000000    54.53000000   100.73800000
   H     14.01000000    55.31000000   101.76800000
   H     13.84000000    57.16000000   101.87800000
   H     12.60000000    56.04000000   102.40800000
   H     12.74000000    52.74000000    99.77800000
   H     13.70000000    53.76000000    98.75800000
   H     14.05000000    53.76000000   100.45800000
   N     12.71000000    59.40000000   101.12800000
   C     13.59000000    60.54000000   101.21800000
   C     14.81000000    60.20000000   102.06800000
   O     14.92000000    59.12000000   102.65800000
   C     12.86000000    61.69000000   101.90800000
   C     11.63000000    62.12000000   101.11800000
   O     10.51000000    61.58000000   101.19800000
   O     11.80000000    63.12000000   100.38800000
   H     12.19000000    59.10000000   101.94800000
   H     13.79000000    60.81000000   100.18800000
   H     13.55000000    62.50000000   102.12800000
   H     12.48000000    61.25000000   102.82800000
   N     15.85000000    61.03000000   101.99800000
   C     17.10000000    60.58000000   102.57800000
   C     17.20000000    60.38000000   104.07800000
   O     17.79000000    59.44000000   104.59800000
   C     18.19000000    61.52000000   102.05800000
   C     19.55000000    61.01000000   102.46800000
   C     20.22000000    61.33000000   103.65800000
   C     20.14000000    60.04000000   101.64800000
   C     21.50000000    60.83000000   103.92800000
   C     21.38000000    59.45000000   101.93800000
   C     22.07000000    59.87000000   103.07800000
   H     15.83000000    61.94000000   101.56800000
   H     17.37000000    59.59000000   102.19800000
   H     18.07000000    62.50000000   102.50800000
   H     18.07000000    61.61000000   100.97800000
   H     19.71000000    61.91000000   104.40800000
   H     19.75000000    59.90000000   100.64800000
   H     22.03000000    61.00000000   104.84800000
   H     21.88000000    58.85000000   101.19800000
   H     23.02000000    59.38000000   103.24800000
   N     16.53000000    61.18000000   104.91800000
   C     16.38000000    60.91000000   106.32800000
   C     15.58000000    59.65000000   106.62800000
   O     15.91000000    58.90000000   107.53800000
   C     15.62000000    62.04000000   107.00800000
   C     15.58000000    63.12000000   105.92800000
   C     15.75000000    62.36000000   104.61800000
   H     17.39000000    60.85000000   106.73800000
   H     14.60000000    61.69000000   107.19800000
   H     16.18000000    62.41000000   107.86800000
   H     14.71000000    63.77000000   105.86800000
   H     16.38000000    63.85000000   106.06800000
   H     14.77000000    62.07000000   104.25800000
   H     16.23000000    63.07000000   103.93800000
   N     14.61000000    59.40000000   105.75800000
   C     13.87000000    58.16000000   105.85800000
   C     14.60000000    56.91000000   105.37800000
   O     14.45000000    55.81000000   105.90800000
   C     12.54000000    58.21000000   105.10800000
   C     11.58000000    59.37000000   105.34800000
   C     10.56000000    59.64000000   104.24800000
   O      9.71000000    60.54000000   104.36800000
   O     10.54000000    59.03000000   103.15800000
   H     14.44000000    60.09000000   105.03800000
   H     13.55000000    58.03000000   106.89800000
   H     12.03000000    57.28000000   105.32800000
   H     12.69000000    58.27000000   104.02800000
   H     12.18000000    60.28000000   105.40800000
   H     11.13000000    59.30000000   106.33800000
   N     15.54000000    57.10000000   104.45800000
   C     16.48000000    56.06000000   104.10800000
   H     17.40400000    56.20200000   104.66900000
   H     16.05400000    55.08700000   104.35200000
   H     16.69300000    56.10600000   103.04000000
   H     15.51000000    57.90000000   103.83800000
  Ca      8.61000000    60.33000000   101.99800000
   O      8.44000000    57.44000000   102.57800000
   H      8.22000000    56.69000000   103.12800000
   H      9.26000000    57.77000000   102.94800000
   O      6.46000000    58.48000000   101.19800000
   H      5.73000000    58.46000000   101.81800000
   H      7.15000000    57.95000000   101.61800000

Ca 1.00



