%chk=loop2.holoCaM.run65.water2.chk
%nprocshared=20
%mem=10GB
%nosave
#b3lyp/svp scf=(tight,noincore,xqc) Test 
#IOP(5/87=12) Density=Current Pop=(MK,readradii) iop(6/33=2) iop(6/42=6)

loop2.holoCaM.run65.water2 

   -2  1 
   C     45.77000000    67.10000000    18.81000000
   C     44.67000000    67.66000000    19.70000000
   O     44.94000000    68.37000000    20.66000000
   H     46.67400000    66.95300000    19.40000000
   H     45.45000000    66.14500000    18.39200000
   H     45.97500000    67.80100000    18.00100000
   N     43.42000000    67.43000000    19.27000000
   C     42.26000000    67.57000000    20.12000000
   C     42.31000000    66.50000000    21.20000000
   O     42.51000000    65.33000000    20.87000000
   C     40.98000000    67.52000000    19.30000000
   C     39.75000000    67.85000000    20.13000000
   O     38.63000000    67.58000000    19.65000000
   O     39.90000000    68.32000000    21.28000000
   H     43.27000000    67.12000000    18.32000000
   H     42.32000000    68.58000000    20.55000000
   H     40.90000000    66.53000000    18.85000000
   H     41.00000000    68.22000000    18.47000000
   N     42.19000000    66.90000000    22.47000000
   C     42.39000000    66.12000000    23.67000000
   C     41.10000000    65.56000000    24.25000000
   O     41.08000000    64.77000000    25.19000000
   C     43.16000000    66.98000000    24.66000000
   H     41.93000000    67.86000000    22.62000000
   H     43.08000000    65.32000000    23.38000000
   H     44.10000000    67.33000000    24.23000000
   H     42.51000000    67.81000000    24.94000000
   H     43.38000000    66.42000000    25.57000000
   N     39.97000000    66.20000000    23.96000000
   C     38.64000000    65.83000000    24.40000000
   C     37.83000000    65.21000000    23.27000000
   O     36.97000000    64.38000000    23.54000000
   C     37.91000000    66.99000000    25.07000000
   C     37.92000000    68.24000000    24.20000000
   O     37.18000000    68.40000000    23.21000000
   O     38.78000000    69.11000000    24.47000000
   H     40.02000000    66.89000000    23.21000000
   H     38.64000000    64.99000000    25.09000000
   H     38.56000000    67.14000000    25.93000000
   H     36.90000000    66.75000000    25.42000000
   N     38.17000000    65.49000000    22.01000000
   C     37.58000000    64.80000000    20.88000000
   C     36.36000000    65.50000000    20.31000000
   O     35.58000000    64.90000000    19.56000000
   H     38.89000000    66.17000000    21.84000000
   H     37.39000000    63.74000000    21.07000000
   H     38.35000000    64.88000000    20.10000000
   N     36.20000000    66.77000000    20.67000000
   C     35.09000000    67.60000000    20.22000000
   C     35.19000000    68.49000000    18.99000000
   O     34.31000000    69.32000000    18.78000000
   C     34.45000000    68.30000000    21.41000000
   C     34.04000000    67.24000000    22.44000000
   N     34.74000000    67.11000000    23.56000000
   O     33.14000000    66.46000000    22.17000000
   H     36.82000000    67.18000000    21.35000000
   H     34.29000000    66.94000000    19.89000000
   H     33.61000000    68.88000000    21.04000000
   H     35.12000000    69.00000000    21.92000000
   H     35.51000000    67.73000000    23.78000000
   H     34.55000000    66.31000000    24.14000000
   N     36.16000000    68.25000000    18.11000000
   C     36.51000000    68.97000000    16.90000000
   C     36.85000000    70.45000000    17.01000000
   O     37.04000000    71.11000000    16.00000000
   H     36.82000000    67.57000000    18.45000000
   H     35.76000000    68.78000000    16.13000000
   H     37.45000000    68.55000000    16.53000000
   N     37.00000000    71.02000000    18.21000000
   C     37.36000000    72.40000000    18.46000000
   C     38.73000000    72.37000000    19.11000000
   O     38.97000000    71.59000000    20.03000000
   C     36.32000000    73.08000000    19.35000000
   C     36.80000000    74.53000000    19.50000000
   O     35.08000000    72.99000000    18.70000000
   H     36.82000000    70.51000000    19.06000000
   H     37.43000000    72.97000000    17.53000000
   H     36.23000000    72.56000000    20.30000000
   H     34.45000000    73.22000000    19.39000000
   H     37.83000000    74.42000000    19.83000000
   H     36.80000000    75.06000000    18.56000000
   H     36.26000000    75.02000000    20.32000000
   N     39.63000000    73.15000000    18.50000000
   C     40.97000000    73.36000000    19.02000000
   C     41.08000000    74.50000000    20.02000000
   O     40.95000000    75.68000000    19.72000000
   C     41.87000000    73.60000000    17.81000000
   C     41.84000000    72.51000000    16.74000000
   C     43.31000000    74.02000000    18.09000000
   C     42.10000000    71.10000000    17.26000000
   H     39.24000000    73.70000000    17.76000000
   H     41.23000000    72.41000000    19.49000000
   H     41.44000000    74.46000000    17.31000000
   H     42.48000000    72.78000000    15.90000000
   H     40.85000000    72.46000000    16.29000000
   H     43.95000000    73.21000000    18.44000000
   H     43.80000000    74.28000000    17.16000000
   H     43.35000000    74.81000000    18.84000000
   H     41.36000000    70.81000000    18.00000000
   H     41.91000000    70.36000000    16.48000000
   H     43.10000000    70.99000000    17.69000000
   N     41.51000000    74.16000000    21.24000000
   C     41.99000000    75.05000000    22.28000000
   C     43.42000000    75.52000000    22.10000000
   O     44.23000000    74.86000000    21.45000000
   C     41.80000000    74.46000000    23.68000000
   C     40.47000000    73.73000000    23.81000000
   O     40.43000000    72.50000000    24.02000000
   O     39.38000000    74.35000000    23.83000000
   H     41.71000000    73.17000000    21.28000000
   H     41.35000000    75.94000000    22.28000000
   H     41.74000000    75.20000000    24.48000000
   H     42.59000000    73.75000000    23.90000000
   N     43.83000000    76.64000000    22.70000000
   C     45.16000000    77.20000000    22.52000000
   C     46.29000000    76.28000000    22.97000000
   O     47.28000000    76.21000000    22.24000000
   C     45.22000000    78.58000000    23.16000000
   C     46.61000000    79.15000000    23.19000000
   C     47.25000000    79.32000000    21.96000000
   C     47.31000000    79.40000000    24.38000000
   C     48.60000000    79.71000000    21.93000000
   C     48.64000000    79.85000000    24.34000000
   C     49.30000000    79.96000000    23.11000000
   H     43.08000000    77.23000000    23.04000000
   H     45.36000000    77.40000000    21.46000000
   H     44.71000000    78.49000000    24.12000000
   H     44.52000000    79.24000000    22.66000000
   H     46.65000000    79.31000000    21.06000000
   H     46.83000000    79.22000000    25.32000000
   H     49.12000000    79.99000000    21.03000000
   H     49.14000000    80.10000000    25.26000000
   H     50.28000000    80.43000000    23.06000000
   N     46.15000000    75.58000000    24.09000000
   C     47.01000000    74.49000000    24.49000000
   C     46.97000000    73.23000000    23.63000000
   O     47.88000000    72.42000000    23.69000000
   C     46.60000000    74.17000000    25.93000000
   C     46.03000000    75.49000000    26.44000000
   C     45.42000000    76.14000000    25.21000000
   H     48.04000000    74.80000000    24.37000000
   H     45.84000000    73.39000000    25.83000000
   H     47.39000000    73.72000000    26.53000000
   H     45.22000000    75.37000000    27.16000000
   H     46.81000000    76.11000000    26.88000000
   H     44.34000000    75.97000000    25.23000000
   H     45.53000000    77.20000000    25.44000000
   N     46.02000000    73.08000000    22.70000000
   C     46.03000000    72.05000000    21.68000000
   C     46.61000000    72.50000000    20.34000000
   O     47.50000000    71.90000000    19.74000000
   C     44.58000000    71.61000000    21.49000000
   C     43.90000000    71.04000000    22.73000000
   C     42.47000000    70.58000000    22.43000000
   O     41.80000000    71.18000000    21.57000000
   O     41.88000000    69.70000000    23.09000000
   H     45.27000000    73.75000000    22.61000000
   H     46.65000000    71.18000000    21.90000000
   H     44.54000000    70.86000000    20.70000000
   H     43.97000000    72.46000000    21.21000000
   H     43.91000000    71.76000000    23.55000000
   H     44.53000000    70.21000000    23.07000000
   N     46.44000000    73.76000000    19.94000000
   C     47.15000000    74.42000000    18.86000000
   H     48.14600000    73.98800000    18.76300000
   H     46.60300000    74.28300000    17.92700000
   H     47.23600000    75.48400000    19.07800000
   H     45.64000000    74.22000000    20.37000000
  Ca     39.44000000    70.55000000    22.46000000
   O     37.74000000    72.62000000    22.63000000
   H     36.80000000    72.80000000    22.71000000
   H     38.16000000    73.30000000    23.16000000
   O     37.30000000    69.58000000    20.98000000
   H     37.87000000    69.08000000    20.39000000
   H     37.17000000    69.01000000    21.73000000

Ca 1.00



