%chk=loop2.holoCaM-CaMKII.run33.water2.chk
%nprocshared=20
%mem=10GB
%nosave
#b3lyp/svp scf=(tight,noincore,xqc) Test 
#IOP(5/87=12) Density=Current Pop=(MK,readradii) iop(6/33=2) iop(6/42=6)

loop2.holoCaM-CaMKII.run33.water2 

   -2  1 
   C     67.99000000    55.68000000    17.50000000
   C     68.11000000    56.28000000    16.10000000
   O     68.88000000    57.22000000    15.92000000
   H     66.93700000    55.56900000    17.75800000
   H     68.47400000    54.70300000    17.52000000
   H     68.47200000    56.34000000    18.22100000
   N     67.33000000    55.82000000    15.13000000
   C     67.44000000    56.38000000    13.79000000
   C     66.82000000    57.74000000    13.51000000
   O     65.74000000    58.06000000    14.01000000
   C     66.90000000    55.43000000    12.73000000
   C     67.10000000    55.79000000    11.27000000
   O     66.21000000    55.49000000    10.44000000
   O     68.21000000    56.27000000    10.98000000
   H     66.82000000    54.98000000    15.35000000
   H     68.48000000    56.47000000    13.47000000
   H     65.83000000    55.35000000    12.91000000
   H     67.29000000    54.40000000    12.73000000
   N     67.45000000    58.45000000    12.57000000
   C     67.14000000    59.80000000    12.15000000
   C     67.28000000    60.02000000    10.65000000
   O     67.00000000    61.11000000    10.17000000
   C     67.96000000    60.86000000    12.88000000
   H     68.30000000    58.04000000    12.19000000
   H     66.11000000    60.04000000    12.42000000
   H     67.75000000    61.87000000    12.55000000
   H     67.69000000    60.77000000    13.93000000
   H     69.04000000    60.67000000    12.90000000
   N     67.66000000    59.06000000     9.80000000
   C     67.74000000    59.17000000     8.36000000
   C     67.44000000    57.93000000     7.52000000
   O     67.27000000    58.04000000     6.31000000
   C     69.14000000    59.61000000     7.94000000
   C     70.20000000    58.69000000     8.53000000
   O     70.05000000    57.46000000     8.70000000
   O     71.20000000    59.31000000     8.96000000
   H     67.89000000    58.13000000    10.12000000
   H     66.92000000    59.82000000     8.06000000
   H     69.41000000    60.59000000     8.32000000
   H     69.18000000    59.60000000     6.86000000
   N     67.38000000    56.74000000     8.12000000
   C     67.04000000    55.52000000     7.42000000
   C     68.19000000    54.80000000     6.73000000
   O     67.90000000    53.81000000     6.05000000
   H     67.57000000    56.64000000     9.10000000
   H     66.35000000    55.69000000     6.59000000
   H     66.58000000    54.77000000     8.07000000
   N     69.46000000    55.15000000     6.93000000
   C     70.57000000    54.61000000     6.19000000
   C     70.96000000    53.20000000     6.63000000
   O     72.05000000    52.75000000     6.27000000
   C     71.74000000    55.59000000     6.14000000
   C     72.36000000    55.85000000     7.51000000
   N     73.35000000    56.74000000     7.60000000
   O     72.04000000    55.17000000     8.48000000
   H     69.60000000    55.91000000     7.58000000
   H     70.20000000    54.46000000     5.17000000
   H     71.38000000    56.54000000     5.76000000
   H     72.48000000    55.23000000     5.43000000
   H     73.68000000    57.27000000     6.80000000
   H     73.74000000    56.98000000     8.50000000
   N     70.17000000    52.52000000     7.46000000
   C     70.36000000    51.20000000     8.02000000
   C     71.41000000    51.02000000     9.10000000
   O     71.66000000    49.90000000     9.54000000
   H     69.21000000    52.81000000     7.51000000
   H     70.62000000    50.53000000     7.19000000
   H     69.44000000    50.87000000     8.51000000
   N     71.99000000    52.13000000     9.58000000
   C     73.25000000    52.04000000    10.30000000
   C     73.19000000    53.03000000    11.46000000
   O     72.44000000    53.99000000    11.30000000
   C     74.48000000    52.44000000     9.50000000
   C     75.09000000    51.26000000     8.73000000
   O     74.15000000    53.49000000     8.62000000
   H     71.86000000    52.95000000     9.01000000
   H     73.41000000    51.06000000    10.74000000
   H     75.27000000    52.75000000    10.19000000
   H     73.59000000    54.12000000     9.09000000
   H     75.06000000    50.36000000     9.34000000
   H     74.48000000    51.15000000     7.84000000
   H     76.12000000    51.54000000     8.53000000
   N     74.02000000    52.92000000    12.49000000
   C     74.22000000    53.95000000    13.48000000
   C     75.23000000    55.02000000    13.09000000
   O     76.42000000    54.77000000    12.91000000
   C     74.50000000    53.38000000    14.87000000
   C     73.18000000    52.81000000    15.40000000
   C     74.93000000    54.50000000    15.81000000
   C     73.34000000    52.18000000    16.78000000
   H     74.61000000    52.10000000    12.57000000
   H     73.27000000    54.49000000    13.61000000
   H     75.23000000    52.58000000    14.76000000
   H     72.91000000    51.94000000    14.79000000
   H     72.36000000    53.51000000    15.45000000
   H     75.87000000    54.98000000    15.55000000
   H     74.17000000    55.28000000    15.73000000
   H     75.08000000    54.26000000    16.86000000
   H     72.57000000    51.44000000    17.01000000
   H     74.25000000    51.58000000    16.74000000
   H     73.37000000    52.97000000    17.53000000
   N     74.73000000    56.24000000    12.87000000
   C     75.59000000    57.41000000    12.79000000
   C     76.10000000    57.92000000    14.12000000
   O     75.40000000    57.69000000    15.11000000
   C     74.81000000    58.47000000    12.01000000
   C     74.31000000    57.99000000    10.65000000
   O     73.20000000    57.41000000    10.65000000
   O     74.99000000    58.22000000     9.63000000
   H     73.73000000    56.35000000    12.80000000
   H     76.44000000    57.12000000    12.17000000
   H     75.35000000    59.41000000    11.97000000
   H     73.97000000    58.79000000    12.64000000
   N     77.20000000    58.67000000    14.19000000
   C     77.66000000    59.25000000    15.44000000
   C     76.53000000    59.88000000    16.24000000
   O     76.44000000    59.61000000    17.44000000
   C     78.81000000    60.23000000    15.22000000
   C     79.40000000    60.81000000    16.49000000
   C     79.60000000    62.19000000    16.60000000
   C     79.76000000    59.95000000    17.54000000
   C     80.10000000    62.73000000    17.79000000
   C     80.30000000    60.51000000    18.70000000
   C     80.49000000    61.89000000    18.84000000
   H     77.70000000    58.91000000    13.35000000
   H     77.99000000    58.44000000    16.09000000
   H     78.56000000    61.08000000    14.59000000
   H     79.63000000    59.68000000    14.75000000
   H     79.37000000    62.81000000    15.74000000
   H     79.65000000    58.88000000    17.46000000
   H     80.31000000    63.77000000    17.96000000
   H     80.52000000    59.92000000    19.58000000
   H     80.93000000    62.28000000    19.75000000
   N     75.73000000    60.79000000    15.68000000
   C     74.69000000    61.50000000    16.38000000
   C     73.68000000    60.57000000    17.04000000
   O     73.13000000    60.86000000    18.10000000
   C     74.02000000    62.51000000    15.45000000
   C     74.55000000    62.13000000    14.08000000
   C     75.88000000    61.45000000    14.40000000
   H     75.29000000    62.05000000    17.11000000
   H     72.93000000    62.39000000    15.40000000
   H     74.26000000    63.49000000    15.86000000
   H     73.84000000    61.51000000    13.53000000
   H     74.68000000    63.06000000    13.53000000
   H     76.14000000    60.80000000    13.57000000
   H     76.62000000    62.22000000    14.61000000
   N     73.46000000    59.39000000    16.46000000
   C     72.51000000    58.40000000    16.90000000
   C     73.09000000    57.61000000    18.07000000
   O     72.47000000    57.26000000    19.07000000
   C     72.14000000    57.57000000    15.67000000
   C     71.50000000    58.44000000    14.59000000
   C     71.16000000    57.62000000    13.35000000
   O     70.43000000    58.08000000    12.45000000
   O     71.64000000    56.48000000    13.23000000
   H     73.84000000    59.30000000    15.53000000
   H     71.61000000    58.87000000    17.32000000
   H     71.43000000    56.85000000    16.07000000
   H     73.01000000    57.02000000    15.32000000
   H     72.25000000    59.17000000    14.27000000
   H     70.60000000    58.93000000    14.95000000
   N     74.41000000    57.42000000    18.05000000
   C     75.30000000    57.00000000    19.11000000
   H     76.18400000    57.63700000    19.11500000
   H     74.78800000    57.08200000    20.06900000
   H     75.59900000    55.96500000    18.94500000
   H     74.99000000    57.76000000    17.30000000
  Ca     70.78000000    56.10000000    10.68000000
   O     69.91000000    54.34000000    12.83000000
   H     70.62000000    54.81000000    13.27000000
   H     69.46000000    53.87000000    13.53000000
   O     69.26000000    53.75000000    10.08000000
   H     68.70000000    53.04000000     9.77000000
   H     69.18000000    53.71000000    11.04000000

Ca 1.00



