%chk=loop2.apoCaM-CA-Ng.Init295.run74.water4.chk
%nprocshared=20
%mem=10GB
%nosave
#b3lyp/svp scf=(tight,noincore,xqc) Test 
#IOP(5/87=12) Density=Current Pop=(MK,readradii) iop(6/33=2) iop(6/42=6)

loop2.apoCaM-CA-Ng.Init295.run74.water4 

   -2  1 
   C     14.78000000     8.66000000    47.82000000
   C     14.79000000     8.83000000    49.33000000
   O     14.56000000     9.94000000    49.81000000
   H     15.16900000     9.56400000    47.35100000
   H     15.40500000     7.81100000    47.54500000
   H     13.75900000     8.48500000    47.48000000
   N     15.04000000     7.78000000    50.11000000
   C     15.13000000     7.86000000    51.55000000
   C     13.86000000     7.84000000    52.38000000
   O     13.83000000     7.61000000    53.59000000
   C     16.22000000     6.88000000    52.00000000
   C     17.59000000     7.03000000    51.36000000
   O     18.42000000     6.12000000    51.60000000
   O     17.95000000     8.13000000    50.89000000
   H     15.00000000     6.89000000    49.63000000
   H     15.42000000     8.88000000    51.80000000
   H     15.82000000     5.87000000    51.99000000
   H     16.37000000     6.92000000    53.08000000
   N     12.74000000     8.21000000    51.75000000
   C     11.46000000     8.42000000    52.40000000
   C     10.78000000     7.07000000    52.54000000
   O     10.68000000     6.38000000    51.53000000
   C     10.66000000     9.33000000    51.48000000
   H     12.80000000     8.45000000    50.77000000
   H     11.58000000     8.92000000    53.36000000
   H      9.72000000     9.54000000    51.99000000
   H     11.12000000    10.30000000    51.29000000
   H     10.52000000     8.79000000    50.54000000
   N     10.36000000     6.60000000    53.72000000
   C     10.51000000     7.19000000    55.04000000
   C     10.47000000     6.05000000    56.04000000
   O      9.55000000     5.24000000    56.05000000
   C      9.51000000     8.33000000    55.27000000
   C      9.62000000     8.87000000    56.69000000
   O     10.52000000     9.73000000    56.81000000
   O      8.97000000     8.49000000    57.69000000
   H      9.88000000     5.72000000    53.67000000
   H     11.51000000     7.62000000    55.02000000
   H      8.52000000     7.98000000    55.01000000
   H      9.71000000     9.15000000    54.58000000
   N     11.50000000     6.04000000    56.89000000
   C     11.64000000     4.89000000    57.77000000
   C     12.74000000     3.99000000    57.24000000
   O     13.85000000     4.37000000    56.90000000
   H     12.31000000     6.63000000    56.81000000
   H     10.71000000     4.33000000    57.88000000
   H     11.84000000     5.36000000    58.74000000
   N     12.57000000     2.67000000    57.07000000
   C     11.48000000     1.78000000    57.41000000
   C     10.25000000     2.02000000    56.55000000
   O     10.35000000     2.04000000    55.32000000
   C     12.14000000     0.41000000    57.32000000
   C     11.26000000    -0.72000000    57.85000000
   N     11.83000000    -1.92000000    57.76000000
   O     10.11000000    -0.61000000    58.25000000
   H     13.26000000     2.21000000    56.49000000
   H     11.29000000     1.86000000    58.48000000
   H     13.12000000     0.41000000    57.81000000
   H     12.36000000     0.20000000    56.27000000
   H     12.73000000    -2.00000000    57.31000000
   H     11.32000000    -2.73000000    58.10000000
   N      9.09000000     2.31000000    57.14000000
   C      7.84000000     2.37000000    56.42000000
   C      6.92000000     3.41000000    57.05000000
   O      5.71000000     3.19000000    56.94000000
   H      9.00000000     2.36000000    58.15000000
   H      7.40000000     1.38000000    56.48000000
   H      7.97000000     2.57000000    55.35000000
   N      7.47000000     4.35000000    57.81000000
   C      6.73000000     5.38000000    58.52000000
   C      6.24000000     6.51000000    57.63000000
   O      6.40000000     7.70000000    57.92000000
   C      7.61000000     5.92000000    59.64000000
   C      7.75000000     4.92000000    60.78000000
   O      8.90000000     6.17000000    59.15000000
   H      8.47000000     4.52000000    57.76000000
   H      5.82000000     4.92000000    58.88000000
   H      7.15000000     6.82000000    60.06000000
   H      8.87000000     6.91000000    58.53000000
   H      7.95000000     5.52000000    61.66000000
   H      6.80000000     4.39000000    60.88000000
   H      8.60000000     4.24000000    60.64000000
   N      5.69000000     6.27000000    56.44000000
   C      5.43000000     7.24000000    55.39000000
   C      4.21000000     8.09000000    55.74000000
   O      3.22000000     7.44000000    56.06000000
   C      5.37000000     6.67000000    53.98000000
   C      6.78000000     6.32000000    53.53000000
   C      4.56000000     5.37000000    53.91000000
   C      6.93000000     5.65000000    52.16000000
   H      5.42000000     5.31000000    56.33000000
   H      6.25000000     7.97000000    55.40000000
   H      4.96000000     7.40000000    53.28000000
   H      7.37000000     5.70000000    54.21000000
   H      7.36000000     7.24000000    53.47000000
   H      5.08000000     4.73000000    54.62000000
   H      3.53000000     5.60000000    54.18000000
   H      4.51000000     5.01000000    52.88000000
   H      7.96000000     5.78000000    51.82000000
   H      6.66000000     4.60000000    52.13000000
   H      6.26000000     6.03000000    51.39000000
   N      4.27000000     9.42000000    55.63000000
   C      3.14000000    10.33000000    55.70000000
   C      3.30000000    11.30000000    54.54000000
   O      4.37000000    11.84000000    54.25000000
   C      3.05000000    11.06000000    57.03000000
   C      3.24000000    10.23000000    58.29000000
   O      2.31000000     9.78000000    58.99000000
   O      4.45000000     9.96000000    58.46000000
   H      5.18000000     9.86000000    55.62000000
   H      2.23000000     9.80000000    55.44000000
   H      2.13000000    11.63000000    57.13000000
   H      3.90000000    11.74000000    57.00000000
   N      2.21000000    11.70000000    53.87000000
   C      2.17000000    12.78000000    52.90000000
   C      2.94000000    12.43000000    51.64000000
   O      2.89000000    11.32000000    51.11000000
   C      0.73000000    13.06000000    52.48000000
   C      0.43000000    14.15000000    51.48000000
   C      0.54000000    13.88000000    50.12000000
   C      0.40000000    15.49000000    51.90000000
   C      0.44000000    14.87000000    49.14000000
   C      0.52000000    16.49000000    50.93000000
   C      0.44000000    16.21000000    49.56000000
   H      1.30000000    11.32000000    54.11000000
   H      2.67000000    13.67000000    53.27000000
   H      0.15000000    13.18000000    53.40000000
   H      0.31000000    12.12000000    52.11000000
   H      0.80000000    12.87000000    49.80000000
   H      0.30000000    15.69000000    52.96000000
   H      0.28000000    14.61000000    48.10000000
   H      0.49000000    17.53000000    51.22000000
   H      0.38000000    16.98000000    48.81000000
   N      3.71000000    13.39000000    51.12000000
   C      4.45000000    13.12000000    49.90000000
   C      5.38000000    11.92000000    49.93000000
   O      5.79000000    11.41000000    48.90000000
   C      5.21000000    14.42000000    49.63000000
   C      4.23000000    15.48000000    50.13000000
   C      3.78000000    14.81000000    51.42000000
   H      3.71000000    12.88000000    49.13000000
   H      6.17000000    14.52000000    50.12000000
   H      5.41000000    14.46000000    48.56000000
   H      4.73000000    16.45000000    50.24000000
   H      3.30000000    15.56000000    49.56000000
   H      4.52000000    14.94000000    52.21000000
   H      2.75000000    15.10000000    51.62000000
   N      5.82000000    11.47000000    51.11000000
   C      6.73000000    10.37000000    51.38000000
   C      6.31000000     9.06000000    50.73000000
   O      7.16000000     8.35000000    50.20000000
   C      6.83000000    10.18000000    52.89000000
   C      7.55000000    11.35000000    53.57000000
   C      7.41000000    11.37000000    55.08000000
   O      7.52000000    12.47000000    55.68000000
   O      7.32000000    10.33000000    55.76000000
   H      5.47000000    11.85000000    51.98000000
   H      7.70000000    10.57000000    50.94000000
   H      7.48000000     9.31000000    53.00000000
   H      5.85000000     9.88000000    53.27000000
   H      7.19000000    12.30000000    53.18000000
   H      8.60000000    11.39000000    53.30000000
   N      5.01000000     8.92000000    50.45000000
   C      4.50000000     7.92000000    49.54000000
   H      3.59000000     8.29000000    49.06800000
   H      5.24600000     7.71100000    48.77400000
   H      4.27800000     7.00600000    50.09100000
   H      4.38000000     9.62000000    50.83000000
  Ca      7.08000000    10.08000000    58.38000000
   O      5.48000000     8.76000000    60.53000000
   H      4.89000000     9.20000000    59.92000000
   H      4.91000000     8.15000000    61.01000000
   O      8.50000000     9.45000000    60.50000000
   H      9.32000000     9.82000000    60.83000000
   H      8.13000000     8.98000000    61.26000000
   O      9.17000000    12.00000000    58.52000000
   H      9.05000000    12.93000000    58.70000000
   H      9.97000000    11.95000000    58.00000000
   O      6.31000000    12.69000000    57.94000000
   H      6.39000000    13.60000000    58.23000000
   H      6.74000000    12.66000000    57.09000000

Ca 1.00



