%chk=loop2.holoCaM.run61.water3.chk
%nprocshared=20
%mem=10GB
%nosave
#b3lyp/svp scf=(tight,noincore,xqc) Test 
#IOP(5/87=12) Density=Current Pop=(MK,readradii) iop(6/33=2) iop(6/42=6)

loop2.holoCaM.run61.water3 

   -2  1 
   C     68.34000000    66.43000000     4.53000000
   C     67.00000000    66.81000000     5.14000000
   O     66.92000000    67.70000000     5.98000000
   H     69.10200000    66.41400000     5.30900000
   H     68.26600000    65.44200000     4.07500000
   H     68.61400000    67.16100000     3.76900000
   N     65.89000000    66.19000000     4.72000000
   C     64.54000000    66.31000000     5.26000000
   C     64.45000000    65.76000000     6.68000000
   O     64.43000000    64.56000000     6.91000000
   C     63.55000000    65.64000000     4.31000000
   C     62.11000000    65.77000000     4.79000000
   O     61.25000000    65.21000000     4.08000000
   O     61.79000000    66.39000000     5.83000000
   H     65.99000000    65.46000000     4.03000000
   H     64.29000000    67.37000000     5.24000000
   H     63.89000000    64.61000000     4.24000000
   H     63.52000000    66.11000000     3.33000000
   N     64.25000000    66.64000000     7.67000000
   C     64.33000000    66.19000000     9.04000000
   C     63.17000000    65.35000000     9.56000000
   O     63.26000000    64.77000000    10.64000000
   C     64.40000000    67.42000000     9.94000000
   H     64.09000000    67.61000000     7.46000000
   H     65.20000000    65.54000000     9.15000000
   H     64.49000000    67.03000000    10.95000000
   H     65.26000000    68.07000000     9.77000000
   H     63.48000000    68.01000000     9.83000000
   N     62.06000000    65.32000000     8.82000000
   C     60.97000000    64.39000000     9.08000000
   C     60.76000000    63.26000000     8.09000000
   O     60.03000000    62.31000000     8.37000000
   C     59.69000000    65.22000000     9.13000000
   C     59.32000000    65.98000000     7.86000000
   O     58.57000000    65.48000000     7.00000000
   O     59.50000000    67.22000000     7.84000000
   H     61.98000000    65.79000000     7.93000000
   H     61.04000000    63.95000000    10.07000000
   H     59.71000000    65.96000000     9.93000000
   H     58.89000000    64.52000000     9.35000000
   N     61.39000000    63.36000000     6.92000000
   C     61.44000000    62.24000000     5.99000000
   C     60.19000000    61.97000000     5.17000000
   O     60.02000000    60.91000000     4.56000000
   H     62.06000000    64.10000000     6.80000000
   H     61.65000000    61.31000000     6.51000000
   H     62.28000000    62.42000000     5.31000000
   N     59.19000000    62.85000000     5.11000000
   C     58.03000000    62.70000000     4.25000000
   C     58.11000000    63.22000000     2.82000000
   O     57.10000000    63.19000000     2.12000000
   C     56.87000000    63.30000000     5.03000000
   C     56.62000000    62.58000000     6.35000000
   N     57.04000000    63.27000000     7.41000000
   O     56.15000000    61.44000000     6.39000000
   H     59.41000000    63.79000000     5.43000000
   H     57.71000000    61.66000000     4.17000000
   H     55.98000000    63.14000000     4.41000000
   H     57.11000000    64.36000000     5.11000000
   H     57.61000000    64.08000000     7.22000000
   H     57.01000000    62.89000000     8.35000000
   N     59.26000000    63.82000000     2.51000000
   C     59.67000000    64.10000000     1.15000000
   C     59.43000000    65.54000000     0.72000000
   O     59.21000000    65.79000000    -0.47000000
   H     59.96000000    63.93000000     3.22000000
   H     59.31000000    63.33000000     0.47000000
   H     60.73000000    63.88000000     1.01000000
   N     59.62000000    66.48000000     1.64000000
   C     59.32000000    67.88000000     1.42000000
   C     60.15000000    68.89000000     2.20000000
   O     60.32000000    68.81000000     3.42000000
   C     57.91000000    68.28000000     1.84000000
   C     56.92000000    68.08000000     0.70000000
   O     57.39000000    67.54000000     2.93000000
   H     59.94000000    66.23000000     2.57000000
   H     59.55000000    68.10000000     0.38000000
   H     57.88000000    69.29000000     2.26000000
   H     58.03000000    67.20000000     3.56000000
   H     56.91000000    67.03000000     0.41000000
   H     55.92000000    68.44000000     0.91000000
   H     57.24000000    68.67000000    -0.17000000
   N     60.78000000    69.86000000     1.55000000
   C     61.92000000    70.60000000     2.05000000
   C     61.51000000    71.97000000     2.58000000
   O     60.94000000    72.80000000     1.87000000
   C     62.97000000    70.81000000     0.96000000
   C     63.64000000    69.50000000     0.55000000
   C     64.06000000    71.81000000     1.31000000
   C     64.46000000    68.96000000     1.72000000
   H     60.78000000    69.73000000     0.54000000
   H     62.33000000    70.08000000     2.91000000
   H     62.57000000    71.33000000     0.09000000
   H     64.15000000    69.65000000    -0.40000000
   H     62.86000000    68.78000000     0.32000000
   H     63.67000000    72.82000000     1.36000000
   H     64.52000000    71.62000000     2.28000000
   H     64.82000000    71.72000000     0.53000000
   H     65.29000000    69.61000000     1.98000000
   H     63.94000000    68.85000000     2.67000000
   H     64.90000000    68.02000000     1.38000000
   N     61.73000000    72.24000000     3.87000000
   C     61.62000000    73.51000000     4.56000000
   C     62.87000000    74.37000000     4.46000000
   O     63.96000000    73.82000000     4.40000000
   C     61.15000000    73.33000000     6.00000000
   C     59.95000000    72.43000000     6.23000000
   O     60.03000000    71.20000000     5.98000000
   O     58.92000000    72.92000000     6.74000000
   H     62.20000000    71.49000000     4.36000000
   H     60.82000000    74.01000000     4.01000000
   H     60.85000000    74.33000000     6.33000000
   H     61.92000000    72.93000000     6.65000000
   N     62.80000000    75.71000000     4.49000000
   C     63.98000000    76.55000000     4.35000000
   C     65.23000000    76.20000000     5.13000000
   O     66.27000000    76.16000000     4.47000000
   C     63.63000000    78.03000000     4.34000000
   C     64.75000000    78.93000000     3.85000000
   C     65.13000000    78.90000000     2.50000000
   C     65.35000000    79.81000000     4.74000000
   C     66.13000000    79.75000000     2.01000000
   C     66.30000000    80.71000000     4.23000000
   C     66.73000000    80.65000000     2.90000000
   H     61.91000000    76.16000000     4.40000000
   H     64.35000000    76.45000000     3.32000000
   H     63.35000000    78.33000000     5.35000000
   H     62.77000000    78.27000000     3.71000000
   H     64.62000000    78.24000000     1.81000000
   H     64.97000000    79.97000000     5.74000000
   H     66.37000000    79.89000000     0.97000000
   H     66.71000000    81.46000000     4.89000000
   H     67.46000000    81.37000000     2.55000000
   N     65.14000000    75.85000000     6.42000000
   C     66.35000000    75.37000000     7.05000000
   C     66.97000000    74.07000000     6.57000000
   O     68.19000000    73.98000000     6.53000000
   C     65.93000000    75.22000000     8.51000000
   C     64.65000000    76.03000000     8.67000000
   C     64.00000000    75.82000000     7.31000000
   H     67.13000000    76.13000000     7.06000000
   H     65.66000000    74.19000000     8.74000000
   H     66.68000000    75.48000000     9.26000000
   H     64.00000000    75.64000000     9.46000000
   H     64.85000000    77.09000000     8.85000000
   H     63.39000000    74.92000000     7.23000000
   H     63.39000000    76.68000000     7.03000000
   N     66.19000000    73.17000000     5.95000000
   C     66.64000000    72.03000000     5.18000000
   C     67.26000000    72.49000000     3.87000000
   O     68.34000000    72.04000000     3.52000000
   C     65.48000000    71.07000000     4.97000000
   C     64.89000000    70.47000000     6.24000000
   C     63.53000000    69.79000000     6.18000000
   O     62.73000000    69.95000000     5.23000000
   O     63.17000000    69.19000000     7.22000000
   H     65.25000000    73.50000000     5.76000000
   H     67.34000000    71.48000000     5.81000000
   H     65.79000000    70.32000000     4.24000000
   H     64.66000000    71.52000000     4.40000000
   H     64.84000000    71.24000000     7.01000000
   H     65.65000000    69.76000000     6.60000000
   N     66.65000000    73.45000000     3.15000000
   C     67.22000000    74.12000000     2.00000000
   H     68.23300000    73.75400000     1.83200000
   H     66.61000000    73.91600000     1.12000000
   H     67.24800000    75.19400000     2.18200000
   H     65.80000000    73.86000000     3.52000000
  Ca     60.57000000    68.72000000     6.12000000
   O     59.04000000    66.41000000     4.74000000
   H     58.79000000    65.96000000     5.54000000
   H     59.83000000    65.94000000     4.45000000
   O     57.97000000    69.59000000     6.79000000
   H     58.33000000    70.46000000     6.67000000
   H     57.03000000    69.69000000     6.67000000
   O     60.78000000    70.16000000     8.51000000
   H     60.30000000    70.96000000     8.73000000
   H     60.38000000    69.48000000     9.05000000

Ca 1.00



