%chk=loop2.apoCaM-CA-Ng.Init295.run13.water2.chk
%nprocshared=20
%mem=10GB
%nosave
#b3lyp/svp scf=(tight,noincore,xqc) Test 
#IOP(5/87=12) Density=Current Pop=(MK,readradii) iop(6/33=2) iop(6/42=6)

loop2.apoCaM-CA-Ng.Init295.run13.water2 

   -2  1 
   C     79.82000000    51.96000000    58.65000000
   C     79.22000000    52.29000000    57.29000000
   O     78.17000000    51.71000000    57.04000000
   H     80.71200000    52.56500000    58.80900000
   H     79.09100000    52.17600000    59.43100000
   H     80.08700000    50.90400000    58.68300000
   N     79.80000000    53.18000000    56.49000000
   C     79.35000000    53.58000000    55.17000000
   C     77.86000000    53.64000000    54.89000000
   O     77.08000000    54.22000000    55.65000000
   C     80.02000000    54.94000000    54.95000000
   C     79.82000000    55.46000000    53.53000000
   O     78.99000000    56.38000000    53.35000000
   O     80.46000000    54.90000000    52.62000000
   H     80.67000000    53.64000000    56.75000000
   H     79.78000000    52.93000000    54.40000000
   H     81.07000000    54.82000000    55.20000000
   H     79.55000000    55.62000000    55.65000000
   N     77.37000000    53.10000000    53.77000000
   C     76.03000000    53.05000000    53.23000000
   C     75.36000000    51.70000000    53.48000000
   O     76.00000000    50.67000000    53.61000000
   C     76.11000000    53.23000000    51.72000000
   H     78.03000000    52.66000000    53.16000000
   H     75.41000000    53.73000000    53.81000000
   H     75.18000000    53.21000000    51.14000000
   H     76.56000000    54.20000000    51.50000000
   H     76.73000000    52.42000000    51.35000000
   N     74.03000000    51.63000000    53.35000000
   C     73.03000000    52.64000000    53.06000000
   C     72.92000000    53.67000000    54.18000000
   O     73.28000000    53.32000000    55.30000000
   C     71.66000000    52.00000000    52.82000000
   C     71.20000000    51.11000000    53.97000000
   O     71.70000000    49.97000000    54.02000000
   O     70.41000000    51.56000000    54.83000000
   H     73.68000000    50.79000000    53.79000000
   H     73.25000000    53.11000000    52.11000000
   H     71.79000000    51.34000000    51.96000000
   H     70.84000000    52.68000000    52.61000000
   N     72.33000000    54.82000000    53.86000000
   C     72.45000000    56.06000000    54.61000000
   C     73.71000000    56.91000000    54.45000000
   O     74.40000000    56.91000000    53.43000000
   H     71.98000000    54.87000000    52.92000000
   H     72.37000000    55.74000000    55.65000000
   H     71.59000000    56.72000000    54.55000000
   N     74.04000000    57.68000000    55.48000000
   C     73.53000000    57.91000000    56.82000000
   C     74.63000000    57.68000000    57.85000000
   O     75.76000000    58.12000000    57.62000000
   C     72.88000000    59.28000000    56.90000000
   C     72.50000000    59.90000000    58.24000000
   N     71.69000000    59.25000000    59.08000000
   O     72.97000000    60.99000000    58.56000000
   H     74.91000000    58.19000000    55.39000000
   H     72.80000000    57.12000000    57.01000000
   H     72.04000000    59.41000000    56.22000000
   H     73.59000000    59.99000000    56.47000000
   H     71.26000000    58.39000000    58.74000000
   H     71.44000000    59.52000000    60.02000000
   N     74.38000000    57.06000000    59.00000000
   C     75.32000000    56.91000000    60.09000000
   C     75.02000000    55.78000000    61.07000000
   O     75.50000000    55.79000000    62.20000000
   H     73.41000000    56.81000000    59.14000000
   H     75.28000000    57.81000000    60.70000000
   H     76.35000000    56.85000000    59.74000000
   N     74.00000000    54.95000000    60.82000000
   C     73.58000000    53.87000000    61.70000000
   C     73.17000000    52.54000000    61.08000000
   O     72.67000000    52.49000000    59.96000000
   C     72.39000000    54.38000000    62.52000000
   C     72.61000000    55.68000000    63.29000000
   O     71.23000000    54.38000000    61.71000000
   H     73.49000000    55.09000000    59.97000000
   H     74.41000000    53.72000000    62.38000000
   H     72.21000000    53.57000000    63.22000000
   H     71.41000000    55.05000000    61.05000000
   H     73.13000000    55.46000000    64.22000000
   H     73.17000000    56.50000000    62.83000000
   H     71.63000000    55.98000000    63.68000000
   N     73.48000000    51.44000000    61.76000000
   C     73.17000000    50.10000000    61.31000000
   C     71.83000000    49.65000000    61.85000000
   O     71.22000000    50.12000000    62.82000000
   C     74.29000000    49.10000000    61.59000000
   C     75.67000000    49.51000000    61.09000000
   C     74.37000000    48.93000000    63.11000000
   C     75.87000000    49.37000000    59.58000000
   H     73.88000000    51.58000000    62.68000000
   H     73.19000000    49.99000000    60.22000000
   H     74.01000000    48.18000000    61.07000000
   H     76.53000000    48.92000000    61.43000000
   H     75.86000000    50.55000000    61.33000000
   H     74.89000000    48.00000000    63.33000000
   H     74.81000000    49.83000000    63.54000000
   H     73.35000000    48.70000000    63.43000000
   H     76.92000000    49.62000000    59.43000000
   H     75.65000000    48.36000000    59.24000000
   H     75.32000000    50.16000000    59.08000000
   N     71.32000000    48.58000000    61.22000000
   C     70.07000000    47.96000000    61.58000000
   C     70.10000000    46.47000000    61.25000000
   O     70.77000000    46.05000000    60.31000000
   C     69.01000000    48.53000000    60.64000000
   C     69.41000000    48.77000000    59.20000000
   O     69.96000000    49.87000000    59.00000000
   O     69.07000000    47.96000000    58.30000000
   H     71.73000000    48.24000000    60.36000000
   H     69.77000000    48.07000000    62.62000000
   H     68.68000000    49.47000000    61.07000000
   H     68.15000000    47.85000000    60.68000000
   N     69.28000000    45.69000000    61.96000000
   C     69.19000000    44.25000000    61.86000000
   C     70.58000000    43.64000000    61.77000000
   O     71.48000000    44.08000000    62.49000000
   C     68.47000000    43.70000000    63.09000000
   C     68.06000000    42.25000000    63.05000000
   C     68.79000000    41.23000000    63.67000000
   C     66.88000000    41.99000000    62.34000000
   C     68.36000000    39.91000000    63.44000000
   C     66.40000000    40.68000000    62.28000000
   C     67.16000000    39.61000000    62.79000000
   H     68.74000000    46.13000000    62.69000000
   H     68.54000000    43.93000000    61.05000000
   H     67.59000000    44.30000000    63.33000000
   H     69.07000000    43.82000000    63.99000000
   H     69.73000000    41.43000000    64.17000000
   H     66.30000000    42.78000000    61.89000000
   H     68.89000000    39.11000000    63.93000000
   H     65.53000000    40.40000000    61.70000000
   H     66.98000000    38.58000000    62.54000000
   N     70.83000000    42.62000000    60.96000000
   C     72.08000000    41.89000000    60.95000000
   C     73.20000000    42.60000000    60.21000000
   O     74.21000000    41.91000000    60.03000000
   C     71.69000000    40.54000000    60.37000000
   C     70.71000000    40.95000000    59.27000000
   C     69.90000000    41.98000000    60.04000000
   H     72.42000000    41.69000000    61.96000000
   H     72.52000000    40.00000000    59.92000000
   H     71.23000000    39.83000000    61.06000000
   H     71.22000000    41.41000000    58.41000000
   H     70.02000000    40.17000000    58.96000000
   H     69.45000000    42.70000000    59.36000000
   H     69.19000000    41.41000000    60.63000000
   N     73.14000000    43.89000000    59.86000000
   C     74.17000000    44.60000000    59.14000000
   C     75.36000000    44.92000000    60.02000000
   O     76.44000000    45.35000000    59.60000000
   C     73.76000000    45.89000000    58.41000000
   C     72.57000000    45.70000000    57.48000000
   C     71.99000000    46.97000000    56.88000000
   O     72.23000000    48.08000000    57.40000000
   O     71.19000000    47.03000000    55.92000000
   H     72.27000000    44.37000000    60.02000000
   H     74.58000000    44.03000000    58.30000000
   H     74.58000000    46.26000000    57.80000000
   H     73.34000000    46.59000000    59.13000000
   H     71.72000000    45.29000000    58.02000000
   H     72.90000000    45.13000000    56.61000000
   N     75.20000000    44.75000000    61.34000000
   C     76.18000000    45.17000000    62.32000000
   H     77.04300000    45.59900000    61.81000000
   H     75.73900000    45.91900000    62.97800000
   H     76.49800000    44.31000000    62.90900000
   H     74.28000000    44.55000000    61.69000000
  Ca     70.36000000    49.41000000    56.35000000
   O     72.12000000    51.35000000    57.20000000
   H     72.26000000    51.87000000    58.00000000
   H     72.83000000    51.63000000    56.62000000
   O     68.75000000    48.56000000    54.07000000
   H     68.14000000    47.85000000    53.92000000
   H     69.20000000    48.68000000    53.24000000

Ca 1.00



