%chk=loop2.holoCaM.run100.water2.chk
%nprocshared=20
%mem=10GB
%nosave
#b3lyp/svp scf=(tight,noincore,xqc) Test 
#IOP(5/87=12) Density=Current Pop=(MK,readradii) iop(6/33=2) iop(6/42=6)

loop2.holoCaM.run100.water2 

   -2  1 
   C      4.06000000    51.03000000     9.68000000
   C      3.20000000    50.94000000    10.94000000
   O      3.73000000    50.51000000    11.96000000
   H      5.04100000    50.60000000     9.87900000
   H      3.58000000    50.47900000     8.87100000
   H      4.17400000    52.07500000     9.39100000
   N      1.89000000    51.17000000    10.80000000
   C      0.95000000    51.16000000    11.90000000
   C      0.84000000    49.78000000    12.52000000
   O      1.03000000    48.74000000    11.88000000
   C     -0.41000000    51.66000000    11.42000000
   C     -1.45000000    51.91000000    12.51000000
   O     -2.65000000    51.97000000    12.13000000
   O     -1.05000000    52.07000000    13.68000000
   H      1.45000000    51.35000000     9.91000000
   H      1.27000000    51.86000000    12.67000000
   H     -0.78000000    50.94000000    10.69000000
   H     -0.28000000    52.60000000    10.89000000
   N      0.35000000    49.72000000    13.77000000
   C     -0.11000000    48.53000000    14.44000000
   C     -1.47000000    48.69000000    15.09000000
   O     -1.99000000    47.69000000    15.60000000
   C      1.02000000    47.99000000    15.33000000
   H      0.09000000    50.57000000    14.24000000
   H     -0.31000000    47.71000000    13.76000000
   H      0.64000000    47.11000000    15.84000000
   H      1.90000000    47.70000000    14.77000000
   H      1.35000000    48.80000000    15.98000000
   N     -2.14000000    49.85000000    15.10000000
   C     -3.25000000    50.06000000    16.01000000
   C     -4.55000000    50.58000000    15.42000000
   O     -5.58000000    50.55000000    16.10000000
   C     -2.86000000    50.97000000    17.17000000
   C     -2.12000000    52.24000000    16.78000000
   O     -1.02000000    52.53000000    17.29000000
   O     -2.69000000    52.99000000    15.95000000
   H     -1.70000000    50.65000000    14.68000000
   H     -3.47000000    49.08000000    16.42000000
   H     -2.23000000    50.45000000    17.90000000
   H     -3.72000000    51.28000000    17.75000000
   N     -4.42000000    51.29000000    14.29000000
   C     -5.46000000    52.10000000    13.71000000
   C     -5.87000000    53.37000000    14.44000000
   O     -7.05000000    53.70000000    14.45000000
   H     -3.49000000    51.33000000    13.90000000
   H     -6.38000000    51.53000000    13.54000000
   H     -5.20000000    52.44000000    12.70000000
   N     -4.98000000    54.14000000    15.08000000
   C     -5.32000000    55.38000000    15.74000000
   C     -5.17000000    56.65000000    14.92000000
   O     -5.23000000    57.74000000    15.49000000
   C     -4.64000000    55.40000000    17.11000000
   C     -3.17000000    55.81000000    17.06000000
   N     -2.58000000    55.92000000    18.25000000
   O     -2.54000000    56.09000000    16.04000000
   H     -4.08000000    53.70000000    15.21000000
   H     -6.38000000    55.35000000    16.00000000
   H     -4.74000000    54.42000000    17.57000000
   H     -5.18000000    56.07000000    17.78000000
   H     -3.18000000    55.49000000    18.94000000
   H     -1.58000000    55.97000000    18.36000000
   N     -4.96000000    56.54000000    13.61000000
   C     -4.81000000    57.72000000    12.77000000
   C     -3.63000000    58.65000000    13.01000000
   O     -3.47000000    59.70000000    12.40000000
   H     -4.92000000    55.59000000    13.27000000
   H     -5.68000000    58.38000000    12.82000000
   H     -4.60000000    57.38000000    11.76000000
   N     -2.64000000    58.24000000    13.81000000
   C     -1.39000000    58.95000000    14.00000000
   C     -0.22000000    57.99000000    14.13000000
   O     -0.40000000    56.81000000    14.44000000
   C     -1.48000000    59.79000000    15.27000000
   C     -2.49000000    60.94000000    15.27000000
   O     -1.73000000    58.94000000    16.37000000
   H     -2.78000000    57.35000000    14.26000000
   H     -1.07000000    59.59000000    13.17000000
   H     -0.48000000    60.21000000    15.36000000
   H     -1.60000000    58.02000000    16.10000000
   H     -2.30000000    61.57000000    14.40000000
   H     -3.53000000    60.62000000    15.30000000
   H     -2.31000000    61.47000000    16.20000000
   N      1.02000000    58.43000000    13.91000000
   C      2.25000000    57.76000000    14.29000000
   C      2.41000000    57.71000000    15.80000000
   O      2.59000000    58.76000000    16.41000000
   C      3.42000000    58.45000000    13.59000000
   C      3.29000000    58.60000000    12.08000000
   C      4.78000000    57.91000000    14.01000000
   C      4.42000000    59.34000000    11.36000000
   H      1.03000000    59.39000000    13.57000000
   H      2.16000000    56.72000000    13.98000000
   H      3.49000000    59.48000000    13.95000000
   H      2.31000000    59.01000000    11.81000000
   H      3.31000000    57.60000000    11.65000000
   H      4.99000000    58.11000000    15.06000000
   H      4.83000000    56.83000000    13.84000000
   H      5.66000000    58.32000000    13.53000000
   H      4.61000000    60.30000000    11.84000000
   H      5.31000000    58.72000000    11.47000000
   H      4.23000000    59.41000000    10.29000000
   N      2.47000000    56.51000000    16.39000000
   C      2.93000000    56.34000000    17.75000000
   C      4.43000000    56.06000000    17.76000000
   O      4.96000000    55.61000000    16.75000000
   C      2.10000000    55.32000000    18.53000000
   C      0.61000000    55.58000000    18.41000000
   O      0.07000000    55.41000000    17.29000000
   O     -0.01000000    55.98000000    19.42000000
   H      2.30000000    55.70000000    15.82000000
   H      2.80000000    57.25000000    18.34000000
   H      2.47000000    55.22000000    19.55000000
   H      2.41000000    54.33000000    18.20000000
   N      5.16000000    56.29000000    18.86000000
   C      6.60000000    56.23000000    18.94000000
   C      7.27000000    55.02000000    18.32000000
   O      8.20000000    55.21000000    17.53000000
   C      7.06000000    56.46000000    20.38000000
   C      8.57000000    56.48000000    20.50000000
   C      9.25000000    57.55000000    19.92000000
   C      9.26000000    55.48000000    21.19000000
   C     10.65000000    57.58000000    19.92000000
   C     10.65000000    55.63000000    21.25000000
   C     11.41000000    56.60000000    20.57000000
   H      4.85000000    56.68000000    19.74000000
   H      6.90000000    57.03000000    18.27000000
   H      6.66000000    55.64000000    20.97000000
   H      6.65000000    57.41000000    20.73000000
   H      8.66000000    58.33000000    19.47000000
   H      8.73000000    54.75000000    21.78000000
   H     11.20000000    58.35000000    19.40000000
   H     11.09000000    54.82000000    21.81000000
   H     12.49000000    56.59000000    20.50000000
   N      6.87000000    53.75000000    18.47000000
   C      7.57000000    52.65000000    17.84000000
   C      7.40000000    52.65000000    16.33000000
   O      8.09000000    51.90000000    15.64000000
   C      6.95000000    51.40000000    18.45000000
   C      6.26000000    51.89000000    19.72000000
   C      5.77000000    53.26000000    19.28000000
   H      8.64000000    52.71000000    18.02000000
   H      6.27000000    50.94000000    17.73000000
   H      7.72000000    50.72000000    18.81000000
   H      5.43000000    51.24000000    20.01000000
   H      6.99000000    51.96000000    20.53000000
   H      4.92000000    53.28000000    18.59000000
   H      5.64000000    53.88000000    20.17000000
   N      6.42000000    53.41000000    15.82000000
   C      6.18000000    53.68000000    14.41000000
   C      7.02000000    54.83000000    13.89000000
   O      7.48000000    54.69000000    12.76000000
   C      4.68000000    53.83000000    14.15000000
   C      3.73000000    52.79000000    14.74000000
   C      2.24000000    53.04000000    14.63000000
   O      1.78000000    54.06000000    14.07000000
   O      1.36000000    52.38000000    15.22000000
   H      6.02000000    54.05000000    16.48000000
   H      6.47000000    52.84000000    13.78000000
   H      4.63000000    53.78000000    13.07000000
   H      4.42000000    54.85000000    14.45000000
   H      4.05000000    52.71000000    15.78000000
   H      3.96000000    51.85000000    14.24000000
   N      7.38000000    55.80000000    14.74000000
   C      8.23000000    56.92000000    14.39000000
   H      9.17700000    56.54800000    14.00000000
   H      7.73800000    57.52700000    13.63000000
   H      8.41600000    57.52700000    15.27600000
   H      6.92000000    55.83000000    15.63000000
  Ca     -0.58900000    54.19000000    15.18000000
   O     -2.33900000    54.86000000    13.10000000
   H     -3.04900000    54.64000000    12.50000000
   H     -1.57900000    55.02000000    12.54000000
   O      0.18000000    54.78000000    12.07000000
   H      0.80000000    54.31000000    12.62000000
   H      0.56000000    54.74000000    11.19000000

Ca 1.00



