%chk=loop2.holoCaM-CaMKII.run93.water1.chk
%nprocshared=20
%mem=10GB
%nosave
#b3lyp/svp scf=(tight,noincore,xqc) Test 
#IOP(5/87=12) Density=Current Pop=(MK,readradii) iop(6/33=2) iop(6/42=6)

loop2.holoCaM-CaMKII.run93.water1 

   -2  1 
   C     52.10000000    23.17000000   -20.06000000
   C     52.11000000    21.92000000   -20.92000000
   O     53.17000000    21.46000000   -21.34000000
   H     51.40300000    23.89400000   -20.48100000
   H     51.78900000    22.91300000   -19.04800000
   H     53.10000000    23.60200000   -20.03400000
   N     50.91000000    21.43000000   -21.25000000
   C     50.76000000    20.37000000   -22.22000000
   C     51.12000000    20.77000000   -23.65000000
   O     50.51000000    21.65000000   -24.24000000
   C     49.42000000    19.64000000   -22.18000000
   C     49.37000000    18.40000000   -23.07000000
   O     50.33000000    17.60000000   -23.10000000
   O     48.36000000    18.14000000   -23.76000000
   H     50.07000000    21.79000000   -20.83000000
   H     51.39000000    19.53000000   -21.95000000
   H     48.69000000    20.39000000   -22.48000000
   H     49.16000000    19.31000000   -21.18000000
   N     52.17000000    20.11000000   -24.15000000
   C     53.04000000    20.59000000   -25.21000000
   C     53.17000000    19.61000000   -26.37000000
   O     53.61000000    20.04000000   -27.43000000
   C     54.42000000    20.84000000   -24.61000000
   H     52.55000000    19.32000000   -23.67000000
   H     52.64000000    21.52000000   -25.62000000
   H     55.27000000    20.83000000   -25.29000000
   H     54.48000000    21.79000000   -24.09000000
   H     54.66000000    20.09000000   -23.85000000
   N     52.56000000    18.42000000   -26.35000000
   C     52.34000000    17.57000000   -27.50000000
   C     50.89000000    17.11000000   -27.58000000
   O     50.65000000    16.12000000   -28.28000000
   C     53.27000000    16.37000000   -27.36000000
   C     53.18000000    15.59000000   -26.06000000
   O     54.03000000    14.67000000   -26.04000000
   O     52.20000000    15.62000000   -25.29000000
   H     52.06000000    18.22000000   -25.49000000
   H     52.61000000    18.06000000   -28.43000000
   H     54.28000000    16.78000000   -27.39000000
   H     53.12000000    15.70000000   -28.20000000
   N     49.93000000    17.73000000   -26.90000000
   C     48.53000000    17.58000000   -27.25000000
   C     48.04000000    16.17000000   -26.99000000
   O     47.17000000    15.72000000   -27.74000000
   H     50.12000000    18.46000000   -26.23000000
   H     48.45000000    17.88000000   -28.29000000
   H     48.02000000    18.27000000   -26.57000000
   N     48.49000000    15.43000000   -25.98000000
   C     48.24000000    14.04000000   -25.64000000
   C     47.23000000    13.90000000   -24.51000000
   O     46.74000000    12.80000000   -24.24000000
   C     49.49000000    13.23000000   -25.36000000
   C     50.14000000    13.51000000   -24.01000000
   N     51.08000000    12.67000000   -23.58000000
   O     49.77000000    14.43000000   -23.29000000
   H     49.16000000    15.91000000   -25.39000000
   H     47.86000000    13.62000000   -26.57000000
   H     50.22000000    13.32000000   -26.17000000
   H     49.19000000    12.18000000   -25.44000000
   H     51.52000000    12.09000000   -24.28000000
   H     51.46000000    12.75000000   -22.65000000
   N     46.86000000    15.01000000   -23.88000000
   C     45.82000000    15.12000000   -22.88000000
   C     46.19000000    14.80000000   -21.44000000
   O     45.34000000    14.54000000   -20.59000000
   H     47.20000000    15.88000000   -24.27000000
   H     45.02000000    14.44000000   -23.17000000
   H     45.39000000    16.12000000   -22.96000000
   N     47.49000000    14.61000000   -21.17000000
   C     48.05000000    14.44000000   -19.85000000
   C     49.28000000    15.31000000   -19.64000000
   O     49.96000000    15.58000000   -20.63000000
   C     48.52000000    13.00000000   -19.68000000
   C     47.31000000    12.07000000   -19.69000000
   O     49.36000000    12.74000000   -20.78000000
   H     48.16000000    14.78000000   -21.90000000
   H     47.39000000    14.73000000   -19.03000000
   H     49.14000000    12.97000000   -18.78000000
   H     50.16000000    13.24000000   -20.60000000
   H     47.45000000    11.12000000   -19.18000000
   H     46.56000000    12.64000000   -19.15000000
   H     47.01000000    11.97000000   -20.74000000
   N     49.51000000    15.74000000   -18.39000000
   C     50.76000000    16.30000000   -17.93000000
   C     51.68000000    15.11000000   -17.68000000
   O     51.41000000    14.20000000   -16.91000000
   C     50.50000000    17.07000000   -16.64000000
   C     49.89000000    18.38000000   -17.12000000
   C     51.80000000    17.38000000   -15.91000000
   C     48.82000000    18.85000000   -16.14000000
   H     48.81000000    15.52000000   -17.69000000
   H     51.22000000    16.95000000   -18.69000000
   H     49.78000000    16.55000000   -16.01000000
   H     49.39000000    18.35000000   -18.09000000
   H     50.66000000    19.15000000   -17.14000000
   H     52.53000000    17.79000000   -16.60000000
   H     51.55000000    18.17000000   -15.19000000
   H     52.15000000    16.44000000   -15.48000000
   H     49.16000000    19.05000000   -15.12000000
   H     48.42000000    19.77000000   -16.56000000
   H     48.03000000    18.11000000   -16.03000000
   N     52.81000000    15.13000000   -18.39000000
   C     53.91000000    14.19000000   -18.30000000
   C     55.02000000    14.91000000   -17.54000000
   O     54.98000000    16.13000000   -17.39000000
   C     54.35000000    13.69000000   -19.67000000
   C     53.29000000    13.04000000   -20.53000000
   O     53.31000000    11.81000000   -20.73000000
   O     52.49000000    13.75000000   -21.18000000
   H     52.90000000    15.89000000   -19.05000000
   H     53.59000000    13.33000000   -17.72000000
   H     55.15000000    12.99000000   -19.45000000
   H     54.80000000    14.57000000   -20.13000000
   N     55.92000000    14.19000000   -16.88000000
   C     56.80000000    14.78000000   -15.90000000
   C     57.69000000    15.88000000   -16.46000000
   O     57.72000000    16.84000000   -15.69000000
   C     57.73000000    13.73000000   -15.30000000
   C     58.41000000    14.09000000   -14.00000000
   C     59.80000000    14.22000000   -14.02000000
   C     57.63000000    14.32000000   -12.86000000
   C     60.44000000    14.49000000   -12.80000000
   C     58.29000000    14.50000000   -11.64000000
   C     59.69000000    14.61000000   -11.63000000
   H     55.91000000    13.19000000   -17.05000000
   H     56.21000000    15.27000000   -15.13000000
   H     58.48000000    13.45000000   -16.05000000
   H     57.20000000    12.80000000   -15.09000000
   H     60.46000000    14.01000000   -14.85000000
   H     56.56000000    14.19000000   -12.89000000
   H     61.52000000    14.41000000   -12.71000000
   H     57.75000000    14.43000000   -10.71000000
   H     60.26000000    14.72000000   -10.72000000
   N     58.23000000    15.88000000   -17.68000000
   C     58.91000000    17.05000000   -18.17000000
   C     58.07000000    18.32000000   -18.30000000
   O     58.67000000    19.40000000   -18.34000000
   C     59.59000000    16.66000000   -19.48000000
   C     59.45000000    15.14000000   -19.45000000
   C     58.22000000    14.78000000   -18.63000000
   H     59.66000000    17.31000000   -17.43000000
   H     59.01000000    16.93000000   -20.37000000
   H     60.62000000    17.01000000   -19.41000000
   H     59.38000000    14.79000000   -20.48000000
   H     60.38000000    14.76000000   -19.03000000
   H     57.42000000    14.87000000   -19.37000000
   H     58.26000000    13.73000000   -18.38000000
   N     56.75000000    18.25000000   -18.46000000
   C     55.77000000    19.31000000   -18.36000000
   C     55.41000000    19.70000000   -16.93000000
   O     55.24000000    20.90000000   -16.71000000
   C     54.54000000    18.94000000   -19.19000000
   C     54.82000000    18.63000000   -20.66000000
   C     53.67000000    17.91000000   -21.35000000
   O     53.47000000    17.95000000   -22.58000000
   O     52.98000000    17.11000000   -20.70000000
   H     56.36000000    17.32000000   -18.39000000
   H     56.22000000    20.24000000   -18.68000000
   H     53.85000000    19.78000000   -19.12000000
   H     54.01000000    18.14000000   -18.68000000
   H     55.77000000    18.10000000   -20.75000000
   H     55.08000000    19.52000000   -21.24000000
   N     55.43000000    18.75000000   -15.99000000
   C     55.10000000    19.10000000   -14.63000000
   H     54.06300000    18.83200000   -14.42800000
   H     55.75400000    18.55900000   -13.94600000
   H     55.23200000    20.17300000   -14.48800000
   H     55.38000000    17.76000000   -16.18000000
  Ca     51.85000000    15.75000000   -22.56000000
   O     53.93000000    14.26000000   -23.44000000
   H     54.45000000    13.49000000   -23.23000000
   H     54.04000000    14.38000000   -24.38000000

Ca 1.00



