%chk=loop2.holoCaM-CaMKII.run83.water2.chk
%nprocshared=20
%mem=10GB
%nosave
#b3lyp/svp scf=(tight,noincore,xqc) Test 
#IOP(5/87=12) Density=Current Pop=(MK,readradii) iop(6/33=2) iop(6/42=6)

loop2.holoCaM-CaMKII.run83.water2 

   -2  1 
   C     52.83000000    72.53000000    73.01000000
   C     53.36000000    73.91000000    73.38000000
   O     52.64000000    74.73000000    73.94000000
   H     51.88800000    72.63500000    72.47200000
   H     53.55500000    72.02000000    72.37500000
   H     52.66700000    71.94800000    73.91700000
   N     54.60000000    74.22000000    73.01000000
   C     55.20000000    75.49000000    73.38000000
   C     54.39000000    76.72000000    72.98000000
   O     54.00000000    76.91000000    71.83000000
   C     56.62000000    75.54000000    72.82000000
   C     57.30000000    76.88000000    73.03000000
   O     57.72000000    77.21000000    74.17000000
   O     57.65000000    77.54000000    72.03000000
   H     55.17000000    73.49000000    72.61000000
   H     55.24000000    75.44000000    74.46000000
   H     56.49000000    75.36000000    71.75000000
   H     57.21000000    74.75000000    73.27000000
   N     54.56000000    77.77000000    73.79000000
   C     54.27000000    79.18000000    73.58000000
   C     55.39000000    80.20000000    73.62000000
   O     55.14000000    81.39000000    73.40000000
   C     53.21000000    79.66000000    74.56000000
   H     54.87000000    77.65000000    74.74000000
   H     53.86000000    79.22000000    72.57000000
   H     53.70000000    80.05000000    75.45000000
   H     52.76000000    80.54000000    74.10000000
   H     52.45000000    78.91000000    74.82000000
   N     56.66000000    79.93000000    73.92000000
   C     57.68000000    80.93000000    74.16000000
   C     59.12000000    80.57000000    73.85000000
   O     60.04000000    81.33000000    74.16000000
   C     57.64000000    81.38000000    75.62000000
   C     57.70000000    80.26000000    76.65000000
   O     58.42000000    79.25000000    76.49000000
   O     57.04000000    80.42000000    77.69000000
   H     56.96000000    79.00000000    74.19000000
   H     57.59000000    81.82000000    73.52000000
   H     56.72000000    81.93000000    75.80000000
   H     58.43000000    82.09000000    75.88000000
   N     59.44000000    79.36000000    73.39000000
   C     60.76000000    78.85000000    73.06000000
   C     61.72000000    78.57000000    74.20000000
   O     62.85000000    78.23000000    73.83000000
   H     58.63000000    78.79000000    73.19000000
   H     61.22000000    79.67000000    72.50000000
   H     60.77000000    77.90000000    72.52000000
   N     61.29000000    78.57000000    75.46000000
   C     62.17000000    78.56000000    76.61000000
   C     62.88000000    77.23000000    76.86000000
   O     63.51000000    77.04000000    77.90000000
   C     61.34000000    79.11000000    77.77000000
   C     60.38000000    78.18000000    78.48000000
   N     59.68000000    78.62000000    79.53000000
   O     60.13000000    77.06000000    78.04000000
   H     60.33000000    78.86000000    75.61000000
   H     62.99000000    79.23000000    76.39000000
   H     60.82000000    79.98000000    77.36000000
   H     62.07000000    79.50000000    78.48000000
   H     59.79000000    79.53000000    79.97000000
   H     58.91000000    78.06000000    79.87000000
   N     62.77000000    76.18000000    76.04000000
   C     63.30000000    74.86000000    76.32000000
   C     62.47000000    73.96000000    77.22000000
   O     62.81000000    72.77000000    77.20000000
   H     62.42000000    76.40000000    75.12000000
   H     64.28000000    74.81000000    76.80000000
   H     63.38000000    74.35000000    75.37000000
   N     61.41000000    74.41000000    77.90000000
   C     60.72000000    73.72000000    78.97000000
   C     59.23000000    73.52000000    78.80000000
   O     58.69000000    74.33000000    78.05000000
   C     61.09000000    74.33000000    80.32000000
   C     62.42000000    73.84000000    80.89000000
   O     61.07000000    75.74000000    80.35000000
   H     61.09000000    75.34000000    77.70000000
   H     61.12000000    72.70000000    78.99000000
   H     60.25000000    73.99000000    80.93000000
   H     60.68000000    76.05000000    79.53000000
   H     62.31000000    73.86000000    81.97000000
   H     62.62000000    72.83000000    80.53000000
   H     63.27000000    74.42000000    80.53000000
   N     58.57000000    72.60000000    79.51000000
   C     57.12000000    72.63000000    79.56000000
   C     56.56000000    73.49000000    80.68000000
   O     56.99000000    73.40000000    81.83000000
   C     56.55000000    71.21000000    79.55000000
   C     57.22000000    70.18000000    78.64000000
   C     55.13000000    71.43000000    79.05000000
   C     56.82000000    68.78000000    79.07000000
   H     59.09000000    71.88000000    79.99000000
   H     56.91000000    73.12000000    78.61000000
   H     56.59000000    70.90000000    80.59000000
   H     58.30000000    70.31000000    78.71000000
   H     56.92000000    70.27000000    77.60000000
   H     54.66000000    70.45000000    79.14000000
   H     54.51000000    72.09000000    79.66000000
   H     55.06000000    71.87000000    78.05000000
   H     57.68000000    68.51000000    79.69000000
   H     55.88000000    68.85000000    79.62000000
   H     56.62000000    68.16000000    78.20000000
   N     55.64000000    74.38000000    80.32000000
   C     55.02000000    75.36000000    81.18000000
   C     53.65000000    74.89000000    81.66000000
   O     53.17000000    73.99000000    80.97000000
   C     55.24000000    76.78000000    80.68000000
   C     56.69000000    77.12000000    80.38000000
   O     57.23000000    76.81000000    79.30000000
   O     57.30000000    77.80000000    81.24000000
   H     55.52000000    74.44000000    79.32000000
   H     55.60000000    75.32000000    82.10000000
   H     54.72000000    77.44000000    81.39000000
   H     54.57000000    76.86000000    79.83000000
   N     53.03000000    75.34000000    82.76000000
   C     51.76000000    74.77000000    83.13000000
   C     50.68000000    74.88000000    82.06000000
   O     50.06000000    73.83000000    81.85000000
   C     51.22000000    75.40000000    84.41000000
   C     50.10000000    74.61000000    85.06000000
   C     48.79000000    75.10000000    85.03000000
   C     50.40000000    73.40000000    85.71000000
   C     47.73000000    74.31000000    85.50000000
   C     49.36000000    72.66000000    86.27000000
   C     48.03000000    73.09000000    86.11000000
   H     53.45000000    76.14000000    83.21000000
   H     51.94000000    73.73000000    83.42000000
   H     50.91000000    76.40000000    84.11000000
   H     51.96000000    75.46000000    85.21000000
   H     48.55000000    75.97000000    84.43000000
   H     51.44000000    73.12000000    85.75000000
   H     46.72000000    74.69000000    85.46000000
   H     49.53000000    71.75000000    86.82000000
   H     47.25000000    72.45000000    86.49000000
   N     50.50000000    76.00000000    81.37000000
   C     49.44000000    76.08000000    80.38000000
   C     49.79000000    75.26000000    79.15000000
   O     48.89000000    74.80000000    78.45000000
   C     49.42000000    77.55000000    79.96000000
   C     50.81000000    78.08000000    80.28000000
   C     51.15000000    77.28000000    81.54000000
   H     48.47000000    75.72000000    80.71000000
   H     49.05000000    77.64000000    78.94000000
   H     48.70000000    78.11000000    80.55000000
   H     51.52000000    77.76000000    79.52000000
   H     50.92000000    79.16000000    80.38000000
   H     52.23000000    77.14000000    81.53000000
   H     50.64000000    77.75000000    82.38000000
   N     51.08000000    75.03000000    78.89000000
   C     51.51000000    74.13000000    77.84000000
   C     51.24000000    72.68000000    78.20000000
   O     50.90000000    71.86000000    77.35000000
   C     52.93000000    74.32000000    77.32000000
   C     53.31000000    75.78000000    77.07000000
   C     54.81000000    76.01000000    76.95000000
   O     55.26000000    77.06000000    76.43000000
   O     55.69000000    75.23000000    77.36000000
   H     51.81000000    75.42000000    79.47000000
   H     50.87000000    74.31000000    76.97000000
   H     53.04000000    73.81000000    76.36000000
   H     53.58000000    73.88000000    78.07000000
   H     52.96000000    76.26000000    77.99000000
   H     52.82000000    76.29000000    76.25000000
   N     51.45000000    72.34000000    79.48000000
   C     51.09000000    71.06000000    80.03000000
   H     50.10100000    70.77600000    79.67000000
   H     51.81900000    70.31200000    79.71800000
   H     51.07600000    71.12200000    81.11800000
   H     51.83000000    73.03000000    80.12000000
  Ca     57.82000000    76.51000000    76.72000000
   O     57.02000000    73.59000000    75.81000000
   H     56.44000000    73.93000000    76.49000000
   H     56.47000000    73.01000000    75.28000000
   O     59.68000000    75.24000000    75.27000000
   H     59.27000000    74.40000000    75.48000000
   H     60.21000000    75.06000000    74.49000000

Ca 1.00



