%chk=loop2.apoCaM-CA-Ng.Init295.run84.water2.chk
%nprocshared=20
%mem=10GB
%nosave
#b3lyp/svp scf=(tight,noincore,xqc) Test 
#IOP(5/87=12) Density=Current Pop=(MK,readradii) iop(6/33=2) iop(6/42=6)

loop2.apoCaM-CA-Ng.Init295.run84.water2 

   -2  1 
   C     13.78000000     8.66000000    64.59000000
   C     14.36000000     9.12000000    65.92000000
   O     14.39000000    10.31000000    66.25000000
   H     12.88800000     9.24300000    64.36200000
   H     14.51900000     8.80500000    63.80100000
   H     13.51700000     7.60400000    64.65300000
   N     14.84000000     8.12000000    66.66000000
   C     15.51000000     8.34000000    67.93000000
   C     14.59000000     8.50000000    69.13000000
   O     15.00000000     8.20000000    70.25000000
   C     16.61000000     7.30000000    68.13000000
   C     17.75000000     7.74000000    69.03000000
   O     17.94000000     8.97000000    69.12000000
   O     18.50000000     6.86000000    69.53000000
   H     14.68000000     7.16000000    66.40000000
   H     15.91000000     9.34000000    67.79000000
   H     16.95000000     7.06000000    67.12000000
   H     16.31000000     6.31000000    68.49000000
   N     13.31000000     8.79000000    68.88000000
   C     12.31000000     9.02000000    69.90000000
   C     11.01000000     8.28000000    69.64000000
   O     10.71000000     7.85000000    68.52000000
   C     11.92000000    10.50000000    69.89000000
   H     13.06000000     8.83000000    67.91000000
   H     12.67000000     8.67000000    70.87000000
   H     11.35000000    10.86000000    69.04000000
   H     11.28000000    10.69000000    70.75000000
   H     12.76000000    11.18000000    70.04000000
   N     10.21000000     7.97000000    70.66000000
   C     10.16000000     8.61000000    71.96000000
   C      9.81000000     7.53000000    72.98000000
   O      8.84000000     6.81000000    72.74000000
   C      9.11000000     9.71000000    71.92000000
   C      9.35000000    10.77000000    73.00000000
   O     10.48000000    10.86000000    73.52000000
   O      8.44000000    11.54000000    73.39000000
   H      9.53000000     7.23000000    70.56000000
   H     11.10000000     9.06000000    72.27000000
   H      8.15000000     9.22000000    72.10000000
   H      9.17000000    10.16000000    70.93000000
   N     10.47000000     7.52000000    74.14000000
   C     10.25000000     6.50000000    75.14000000
   C     11.34000000     5.45000000    75.15000000
   O     12.51000000     5.76000000    74.93000000
   H     11.20000000     8.20000000    74.27000000
   H      9.26000000     6.08000000    74.91000000
   H     10.22000000     6.99000000    76.11000000
   N     11.08000000     4.16000000    75.37000000
   C      9.80000000     3.52000000    75.55000000
   C      8.82000000     3.67000000    74.40000000
   O      9.25000000     3.50000000    73.26000000
   C      9.96000000     2.01000000    75.71000000
   C      8.80000000     1.13000000    76.13000000
   N      8.93000000     0.23000000    77.11000000
   O      7.69000000     1.27000000    75.62000000
   H     11.82000000     3.48000000    75.49000000
   H      9.37000000     3.93000000    76.47000000
   H     10.78000000     1.90000000    76.42000000
   H     10.24000000     1.56000000    74.75000000
   H      9.72000000     0.20000000    77.74000000
   H      8.10000000    -0.18000000    77.52000000
   N      7.53000000     3.91000000    74.66000000
   C      6.58000000     4.09000000    73.58000000
   C      5.70000000     5.32000000    73.74000000
   O      4.53000000     5.23000000    73.36000000
   H      7.24000000     3.82000000    75.62000000
   H      5.99000000     3.20000000    73.34000000
   H      7.09000000     4.40000000    72.66000000
   N      6.21000000     6.38000000    74.36000000
   C      5.52000000     7.60000000    74.72000000
   C      5.47000000     8.58000000    73.55000000
   O      5.95000000     9.70000000    73.71000000
   C      6.04000000     8.20000000    76.02000000
   C      5.41000000     7.40000000    77.16000000
   O      7.45000000     8.18000000    76.09000000
   H      7.17000000     6.31000000    74.68000000
   H      4.46000000     7.36000000    74.82000000
   H      5.70000000     9.24000000    76.06000000
   H      7.74000000     9.06000000    75.84000000
   H      5.76000000     6.37000000    77.13000000
   H      5.66000000     7.89000000    78.10000000
   H      4.33000000     7.33000000    77.00000000
   N      4.89000000     8.14000000    72.44000000
   C      4.69000000     8.96000000    71.26000000
   C      3.35000000     9.68000000    71.36000000
   O      2.40000000     9.16000000    71.95000000
   C      4.95000000     8.15000000    70.00000000
   C      6.46000000     8.00000000    69.81000000
   C      4.23000000     6.81000000    69.91000000
   C      6.99000000     7.26000000    68.59000000
   H      4.43000000     7.24000000    72.41000000
   H      5.40000000     9.78000000    71.37000000
   H      4.65000000     8.76000000    69.15000000
   H      6.91000000     7.64000000    70.74000000
   H      6.81000000     9.02000000    69.69000000
   H      4.61000000     6.25000000    69.06000000
   H      4.48000000     6.22000000    70.80000000
   H      3.14000000     6.85000000    69.85000000
   H      6.32000000     7.39000000    67.74000000
   H      7.92000000     7.69000000    68.22000000
   H      7.16000000     6.21000000    68.84000000
   N      3.26000000    10.86000000    70.76000000
   C      2.04000000    11.64000000    70.66000000
   C      1.88000000    12.37000000    69.34000000
   O      2.79000000    13.12000000    68.98000000
   C      1.96000000    12.61000000    71.84000000
   C      3.27000000    13.01000000    72.50000000
   O      3.68000000    12.29000000    73.43000000
   O      3.94000000    14.02000000    72.18000000
   H      4.11000000    11.35000000    70.54000000
   H      1.17000000    11.00000000    70.83000000
   H      1.22000000    12.38000000    72.60000000
   H      1.54000000    13.52000000    71.40000000
   N      0.82000000    12.17000000    68.55000000
   C      0.64000000    12.92000000    67.33000000
   C      1.55000000    12.50000000    66.18000000
   O      1.56000000    11.31000000    65.87000000
   C     -0.85000000    12.84000000    66.99000000
   C     -1.19000000    13.85000000    65.92000000
   C     -1.44000000    13.41000000    64.62000000
   C     -1.22000000    15.22000000    66.21000000
   C     -1.76000000    14.32000000    63.60000000
   C     -1.70000000    16.08000000    65.21000000
   C     -1.99000000    15.66000000    63.91000000
   H      0.04000000    11.64000000    68.90000000
   H      0.90000000    13.95000000    67.57000000
   H     -1.41000000    13.04000000    67.90000000
   H     -1.11000000    11.83000000    66.69000000
   H     -1.42000000    12.37000000    64.35000000
   H     -1.12000000    15.55000000    67.24000000
   H     -1.96000000    13.98000000    62.59000000
   H     -1.75000000    17.14000000    65.38000000
   H     -2.27000000    16.38000000    63.15000000
   N      2.23000000    13.39000000    65.45000000
   C      3.01000000    13.09000000    64.27000000
   C      4.25000000    12.29000000    64.66000000
   O      4.94000000    11.83000000    63.75000000
   C      3.40000000    14.42000000    63.62000000
   C      2.38000000    15.41000000    64.17000000
   C      2.16000000    14.83000000    65.56000000
   H      2.50000000    12.53000000    63.49000000
   H      4.42000000    14.72000000    63.86000000
   H      3.41000000    14.32000000    62.54000000
   H      2.77000000    16.42000000    64.05000000
   H      1.52000000    15.27000000    63.50000000
   H      2.95000000    15.24000000    66.19000000
   H      1.17000000    15.10000000    65.90000000
   N      4.62000000    12.21000000    65.94000000
   C      5.71000000    11.45000000    66.50000000
   C      5.76000000     9.97000000    66.12000000
   O      6.87000000     9.47000000    65.98000000
   C      5.74000000    11.53000000    68.02000000
   C      6.20000000    12.86000000    68.61000000
   C      6.39000000    12.80000000    70.12000000
   O      7.14000000    13.69000000    70.58000000
   O      5.82000000    12.02000000    70.90000000
   H      4.06000000    12.68000000    66.64000000
   H      6.66000000    11.94000000    66.27000000
   H      6.42000000    10.78000000    68.42000000
   H      4.80000000    11.25000000    68.51000000
   H      5.42000000    13.58000000    68.35000000
   H      7.06000000    13.23000000    68.05000000
   N      4.59000000     9.33000000    66.09000000
   C      4.39000000     7.98000000    65.61000000
   H      3.52300000     7.95400000    64.95000000
   H      5.27300000     7.65400000    65.06100000
   H      4.22200000     7.31400000    66.45600000
   H      3.79000000     9.94000000    66.13000000
  Ca      6.14000000    12.86000000    73.37000000
   O      6.12000000    11.81000000    75.90000000
   H      5.54000000    11.26000000    76.42000000
   H      7.00000000    11.54000000    76.15000000
   O      8.02000000    14.49000000    74.21000000
   H      8.94000000    14.30000000    74.04000000
   H      8.00000000    15.41000000    74.45000000

Ca 1.00



