%chk=loop2.apoCaM-CA-Ng.Init293.run14.water7.chk
%nprocshared=20
%mem=10GB
%nosave
#b3lyp/svp scf=(tight,noincore,xqc) Test 
#IOP(5/87=12) Density=Current Pop=(MK,readradii) iop(6/33=2) iop(6/42=6)

loop2.apoCaM-CA-Ng.Init293.run14.water7 

   -2  1 
   C     45.00000000    -6.52000000    32.40000000
   C     43.67000000    -7.23000000    32.67000000
   O     43.18000000    -7.11000000    33.78000000
   H     45.76800000    -7.26100000    32.17600000
   H     44.88700000    -5.84700000    31.55000000
   H     45.29300000    -5.94900000    33.28100000
   N     43.09000000    -8.02000000    31.76000000
   C     41.82000000    -8.70000000    31.88000000
   C     42.03000000    -9.95000000    32.72000000
   O     41.25000000   -10.25000000    33.62000000
   C     41.32000000    -9.16000000    30.51000000
   C     40.06000000   -10.02000000    30.53000000
   O     40.01000000   -11.08000000    29.88000000
   O     38.98000000    -9.62000000    31.00000000
   H     43.42000000    -7.92000000    30.82000000
   H     41.10000000    -8.07000000    32.40000000
   H     42.15000000    -9.75000000    30.11000000
   H     41.06000000    -8.27000000    29.93000000
   N     43.11000000   -10.72000000    32.54000000
   C     43.23000000   -12.02000000    33.16000000
   C     43.34000000   -11.96000000    34.68000000
   O     43.25000000   -13.03000000    35.28000000
   C     42.20000000   -13.00000000    32.60000000
   H     43.80000000   -10.41000000    31.86000000
   H     44.20000000   -12.34000000    32.78000000
   H     41.16000000   -12.80000000    32.82000000
   H     42.26000000   -12.94000000    31.52000000
   H     42.45000000   -14.04000000    32.81000000
   N     43.74000000   -10.83000000    35.26000000
   C     43.90000000   -10.52000000    36.67000000
   C     42.69000000   -10.86000000    37.53000000
   O     42.80000000   -11.22000000    38.70000000
   C     45.19000000   -11.04000000    37.29000000
   C     46.40000000   -10.86000000    36.39000000
   O     46.61000000    -9.71000000    35.95000000
   O     47.09000000   -11.88000000    36.17000000
   H     43.93000000   -10.09000000    34.60000000
   H     44.07000000    -9.45000000    36.72000000
   H     45.12000000   -12.12000000    37.40000000
   H     45.33000000   -10.62000000    38.29000000
   N     41.48000000   -10.89000000    36.96000000
   C     40.28000000   -11.18000000    37.71000000
   C     39.95000000   -10.22000000    38.84000000
   O     40.39000000    -9.08000000    38.81000000
   H     41.45000000   -10.74000000    35.96000000
   H     40.26000000   -12.21000000    38.08000000
   H     39.36000000   -11.15000000    37.12000000
   N     39.14000000   -10.60000000    39.83000000
   C     38.81000000    -9.79000000    40.98000000
   C     38.13000000    -8.44000000    40.82000000
   O     38.52000000    -7.49000000    41.50000000
   C     40.01000000    -9.78000000    41.93000000
   C     40.37000000   -11.19000000    42.40000000
   N     41.60000000   -11.28000000    42.90000000
   O     39.64000000   -12.17000000    42.26000000
   H     38.57000000   -11.40000000    39.60000000
   H     38.09000000   -10.34000000    41.58000000
   H     39.93000000    -9.10000000    42.77000000
   H     40.87000000    -9.39000000    41.38000000
   H     42.10000000   -10.44000000    43.16000000
   H     41.81000000   -12.10000000    43.46000000
   N     37.24000000    -8.28000000    39.84000000
   C     36.68000000    -7.02000000    39.40000000
   C     37.53000000    -6.20000000    38.44000000
   O     37.07000000    -5.12000000    38.09000000
   H     36.88000000    -9.13000000    39.41000000
   H     36.64000000    -6.39000000    40.29000000
   H     35.68000000    -7.19000000    39.00000000
   N     38.60000000    -6.74000000    37.84000000
   C     39.46000000    -5.97000000    36.96000000
   C     40.43000000    -5.04000000    37.67000000
   O     40.89000000    -5.30000000    38.78000000
   C     40.23000000    -6.94000000    36.06000000
   C     39.41000000    -7.97000000    35.29000000
   O     40.72000000    -6.12000000    35.02000000
   H     38.89000000    -7.69000000    38.02000000
   H     38.77000000    -5.43000000    36.32000000
   H     41.07000000    -7.32000000    36.63000000
   H     41.64000000    -6.31000000    34.83000000
   H     39.56000000    -8.90000000    35.82000000
   H     38.34000000    -7.74000000    35.29000000
   H     39.83000000    -8.16000000    34.30000000
   N     40.83000000    -3.99000000    36.96000000
   C     41.82000000    -2.98000000    37.28000000
   C     43.20000000    -3.61000000    37.24000000
   O     43.43000000    -4.47000000    36.39000000
   C     41.65000000    -1.76000000    36.39000000
   C     42.33000000    -0.51000000    36.95000000
   C     41.99000000    -1.89000000    34.90000000
   C     41.78000000     0.80000000    36.40000000
   H     40.49000000    -3.87000000    36.01000000
   H     41.67000000    -2.67000000    38.32000000
   H     40.59000000    -1.53000000    36.48000000
   H     43.40000000    -0.65000000    36.80000000
   H     42.10000000    -0.47000000    38.02000000
   H     43.01000000    -1.90000000    34.53000000
   H     41.51000000    -2.79000000    34.52000000
   H     41.47000000    -1.10000000    34.36000000
   H     40.69000000     0.81000000    36.30000000
   H     42.07000000     1.64000000    37.04000000
   H     42.25000000     1.06000000    35.45000000
   N     44.11000000    -3.27000000    38.16000000
   C     45.47000000    -3.77000000    38.19000000
   C     46.21000000    -3.97000000    39.51000000
   O     47.43000000    -4.11000000    39.54000000
   C     46.27000000    -3.00000000    37.14000000
   C     47.52000000    -3.74000000    36.71000000
   O     47.69000000    -4.96000000    36.95000000
   O     48.48000000    -3.05000000    36.31000000
   H     43.78000000    -2.59000000    38.84000000
   H     45.42000000    -4.79000000    37.83000000
   H     46.46000000    -2.06000000    37.64000000
   H     45.68000000    -2.75000000    36.26000000
   N     45.55000000    -3.82000000    40.66000000
   C     46.06000000    -4.09000000    42.00000000
   C     45.64000000    -3.12000000    43.10000000
   O     46.52000000    -2.92000000    43.93000000
   C     45.83000000    -5.55000000    42.35000000
   C     44.39000000    -5.97000000    42.58000000
   C     43.83000000    -5.65000000    43.82000000
   C     43.63000000    -6.57000000    41.57000000
   C     42.49000000    -5.98000000    44.08000000
   C     42.27000000    -6.80000000    41.80000000
   C     41.74000000    -6.62000000    43.09000000
   H     44.59000000    -3.56000000    40.54000000
   H     47.13000000    -3.90000000    41.94000000
   H     46.39000000    -5.84000000    43.24000000
   H     46.26000000    -6.19000000    41.58000000
   H     44.37000000    -5.28000000    44.67000000
   H     44.04000000    -6.72000000    40.58000000
   H     42.11000000    -5.72000000    45.05000000
   H     41.69000000    -7.24000000    41.00000000
   H     40.69000000    -6.84000000    43.24000000
   N     44.46000000    -2.51000000    43.25000000
   C     43.52000000    -2.16000000    42.21000000
   C     43.86000000    -0.96000000    41.34000000
   O     43.55000000    -0.91000000    40.15000000
   C     42.24000000    -1.92000000    43.01000000
   C     42.66000000    -1.30000000    44.34000000
   C     44.06000000    -1.88000000    44.50000000
   H     43.50000000    -3.07000000    41.60000000
   H     41.59000000    -1.35000000    42.35000000
   H     41.71000000    -2.84000000    43.27000000
   H     42.61000000    -0.22000000    44.23000000
   H     42.07000000    -1.55000000    45.23000000
   H     44.87000000    -1.24000000    44.83000000
   H     43.99000000    -2.75000000    45.15000000
   N     44.45000000     0.09000000    41.92000000
   C     44.78000000     1.29000000    41.18000000
   C     45.85000000     1.03000000    40.13000000
   O     46.84000000     0.35000000    40.40000000
   C     45.22000000     2.26000000    42.27000000
   C     44.04000000     2.84000000    43.06000000
   C     44.63000000     3.77000000    44.10000000
   O     44.77000000     3.27000000    45.24000000
   O     44.81000000     5.00000000    43.92000000
   H     44.52000000     0.09000000    42.93000000
   H     43.91000000     1.57000000    40.59000000
   H     45.65000000     3.10000000    41.73000000
   H     46.04000000     1.88000000    42.87000000
   H     43.40000000     2.10000000    43.52000000
   H     43.43000000     3.41000000    42.36000000
   N     45.69000000     1.77000000    39.03000000
   C     46.41000000     1.62000000    37.79000000
   H     47.40800000     1.23300000    37.99500000
   H     45.87700000     0.92500000    37.14100000
   H     46.49100000     2.58900000    37.29700000
   H     44.85000000     2.32000000    38.89000000
  Ca     47.69000000    -7.54200000    36.83000000
   O     50.26000000    -6.32200000    37.44000000
   H     50.06000000    -5.49200000    37.01000000
   H     50.45000000    -6.09200000    38.34000000
   O     47.89000000    -6.70200000    34.28000000
   H     48.16000000    -5.84200000    33.96000000
   H     48.35000000    -7.32200000    33.72000000
   O     45.48000000    -7.95200000    38.61000000
   H     44.55000000    -7.84200000    38.82000000
   H     45.85000000    -8.40200000    39.37000000
   O     45.29000000    -6.85200000    35.90000000
   H     44.80000000    -7.02200000    35.09000000
   H     45.03000000    -5.97200000    36.16000000
   O     49.68000000    -8.80200000    35.51000000
   H     50.12000000    -9.31200000    34.84000000
   H     50.39000000    -8.40200000    36.02000000
   O     49.11000000    -9.40200000    38.15000000
   H     48.99000000   -10.34200000    38.23000000
   H     49.97000000    -9.23200000    38.54000000
   O     48.29000000    -6.81200000    39.44000000
   H     48.59000000    -7.27200000    40.22000000
   H     48.13000000    -5.92200000    39.73000000

Ca 1.00



