%chk=loop2.holoCaM.run11.water1.chk
%nprocshared=20
%mem=10GB
%nosave
#b3lyp/svp scf=(tight,noincore,xqc) Test 
#IOP(5/87=12) Density=Current Pop=(MK,readradii) iop(6/33=2) iop(6/42=6)

loop2.holoCaM.run11.water1 

   -2  1 
   C     31.65000000    39.04000000     4.62000000
   C     30.57000000    40.10000000     4.46000000
   O     30.64000000    41.16000000     5.08000000
   H     32.53000000    39.48600000     5.08400000
   H     31.27700000    38.23300000     5.25000000
   H     31.91800000    38.64300000     3.64100000
   N     29.52000000    39.80000000     3.69000000
   C     28.50000000    40.77000000     3.32000000
   C     27.46000000    41.10000000     4.39000000
   O     26.80000000    40.18000000     4.87000000
   C     27.80000000    40.22000000     2.08000000
   C     26.66000000    41.05000000     1.50000000
   O     26.57000000    42.19000000     2.01000000
   O     25.93000000    40.56000000     0.61000000
   H     29.55000000    38.91000000     3.23000000
   H     28.96000000    41.71000000     3.04000000
   H     27.42000000    39.22000000     2.29000000
   H     28.58000000    40.14000000     1.32000000
   N     27.45000000    42.37000000     4.82000000
   C     26.84000000    42.72000000     6.08000000
   C     25.33000000    42.86000000     5.95000000
   O     24.63000000    42.61000000     6.93000000
   C     27.47000000    43.95000000     6.72000000
   H     27.75000000    43.17000000     4.29000000
   H     27.00000000    41.96000000     6.84000000
   H     27.03000000    44.23000000     7.68000000
   H     28.51000000    43.68000000     6.91000000
   H     27.37000000    44.85000000     6.11000000
   N     24.73000000    43.29000000     4.84000000
   C     23.32000000    43.50000000     4.61000000
   C     22.69000000    42.46000000     3.70000000
   O     21.47000000    42.42000000     3.57000000
   C     22.98000000    44.90000000     4.10000000
   C     23.75000000    45.29000000     2.85000000
   O     24.75000000    44.69000000     2.41000000
   O     23.32000000    46.32000000     2.28000000
   H     25.32000000    43.65000000     4.10000000
   H     22.77000000    43.43000000     5.55000000
   H     23.15000000    45.59000000     4.93000000
   H     21.92000000    44.90000000     3.88000000
   N     23.53000000    41.57000000     3.17000000
   C     23.13000000    40.26000000     2.68000000
   C     22.65000000    40.25000000     1.23000000
   O     21.79000000    39.45000000     0.86000000
   H     24.51000000    41.78000000     3.13000000
   H     22.33000000    39.97000000     3.35000000
   H     23.97000000    39.57000000     2.77000000
   N     23.04000000    41.24000000     0.43000000
   C     22.44000000    41.54000000    -0.86000000
   C     23.02000000    40.70000000    -1.98000000
   O     22.35000000    40.51000000    -3.00000000
   C     22.58000000    43.03000000    -1.14000000
   C     24.02000000    43.41000000    -1.48000000
   N     24.26000000    43.67000000    -2.76000000
   O     24.92000000    43.32000000    -0.64000000
   H     23.68000000    41.95000000     0.76000000
   H     21.36000000    41.41000000    -0.91000000
   H     22.26000000    43.59000000    -0.26000000
   H     22.03000000    43.32000000    -2.04000000
   H     23.51000000    43.85000000    -3.42000000
   H     25.21000000    43.95000000    -2.98000000
   N     24.21000000    40.14000000    -1.73000000
   C     25.07000000    39.41000000    -2.64000000
   C     26.27000000    40.13000000    -3.23000000
   O     26.82000000    39.62000000    -4.20000000
   H     24.58000000    40.44000000    -0.84000000
   H     24.46000000    39.02000000    -3.46000000
   H     25.53000000    38.55000000    -2.15000000
   N     26.66000000    41.28000000    -2.66000000
   C     27.83000000    41.98000000    -3.14000000
   C     28.59000000    42.66000000    -2.00000000
   O     28.04000000    42.92000000    -0.93000000
   C     27.58000000    42.93000000    -4.30000000
   C     27.03000000    42.29000000    -5.57000000
   O     26.85000000    44.02000000    -3.77000000
   H     26.08000000    41.75000000    -1.98000000
   H     28.55000000    41.28000000    -3.56000000
   H     28.59000000    43.23000000    -4.61000000
   H     26.62000000    44.44000000    -4.60000000
   H     27.72000000    41.57000000    -6.00000000
   H     26.11000000    41.83000000    -5.21000000
   H     26.83000000    43.00000000    -6.38000000
   N     29.85000000    43.02000000    -2.22000000
   C     30.80000000    43.49000000    -1.23000000
   C     30.82000000    45.01000000    -1.27000000
   O     31.19000000    45.61000000    -2.28000000
   C     32.16000000    42.82000000    -1.40000000
   C     31.95000000    41.31000000    -1.28000000
   C     33.17000000    43.40000000    -0.40000000
   C     33.21000000    40.45000000    -1.23000000
   H     30.24000000    42.64000000    -3.07000000
   H     30.45000000    43.25000000    -0.23000000
   H     32.55000000    43.02000000    -2.40000000
   H     31.41000000    40.89000000    -2.12000000
   H     31.51000000    41.07000000    -0.31000000
   H     34.14000000    42.93000000    -0.50000000
   H     33.22000000    44.47000000    -0.61000000
   H     32.77000000    43.31000000     0.61000000
   H     33.80000000    40.66000000    -0.34000000
   H     32.95000000    39.39000000    -1.23000000
   H     33.86000000    40.65000000    -2.09000000
   N     30.38000000    45.70000000    -0.21000000
   C     30.59000000    47.13000000    -0.07000000
   C     31.95000000    47.38000000     0.56000000
   O     32.51000000    46.47000000     1.18000000
   C     29.52000000    47.86000000     0.74000000
   C     28.10000000    47.53000000     0.32000000
   O     27.32000000    46.92000000     1.08000000
   O     27.64000000    47.92000000    -0.78000000
   H     30.11000000    45.08000000     0.54000000
   H     30.75000000    47.64000000    -1.02000000
   H     29.68000000    48.93000000     0.62000000
   H     29.67000000    47.63000000     1.80000000
   N     32.55000000    48.55000000     0.41000000
   C     33.92000000    48.76000000     0.86000000
   C     34.25000000    48.39000000     2.30000000
   O     35.24000000    47.71000000     2.57000000
   C     34.21000000    50.24000000     0.61000000
   C     35.46000000    50.67000000     1.33000000
   C     36.71000000    50.08000000     1.12000000
   C     35.41000000    51.78000000     2.19000000
   C     37.83000000    50.53000000     1.84000000
   C     36.51000000    52.19000000     2.95000000
   C     37.77000000    51.61000000     2.73000000
   H     32.01000000    49.31000000     0.02000000
   H     34.62000000    48.18000000     0.27000000
   H     33.34000000    50.84000000     0.89000000
   H     34.25000000    50.36000000    -0.47000000
   H     36.83000000    49.36000000     0.32000000
   H     34.45000000    52.20000000     2.43000000
   H     38.76000000    50.02000000     1.67000000
   H     36.43000000    52.97000000     3.69000000
   H     38.59000000    51.92000000     3.36000000
   N     33.50000000    48.84000000     3.31000000
   C     33.75000000    48.44000000     4.68000000
   C     33.76000000    46.94000000     4.96000000
   O     34.44000000    46.50000000     5.88000000
   C     32.68000000    49.09000000     5.55000000
   C     31.58000000    49.40000000     4.54000000
   C     32.31000000    49.65000000     3.23000000
   H     34.78000000    48.74000000     4.91000000
   H     32.41000000    48.66000000     6.51000000
   H     33.15000000    50.05000000     5.77000000
   H     30.90000000    48.55000000     4.41000000
   H     31.00000000    50.29000000     4.80000000
   H     31.62000000    49.29000000     2.46000000
   H     32.43000000    50.72000000     3.10000000
   N     32.98000000    46.20000000     4.18000000
   C     32.87000000    44.75000000     4.18000000
   C     34.15000000    44.10000000     3.69000000
   O     34.67000000    43.18000000     4.31000000
   C     31.66000000    44.39000000     3.33000000
   C     30.30000000    44.77000000     3.91000000
   C     29.12000000    44.51000000     2.99000000
   O     29.26000000    44.41000000     1.75000000
   O     27.95000000    44.61000000     3.40000000
   H     32.46000000    46.64000000     3.43000000
   H     32.57000000    44.36000000     5.16000000
   H     31.84000000    43.32000000     3.40000000
   H     31.68000000    44.65000000     2.27000000
   H     30.54000000    45.81000000     4.17000000
   H     30.19000000    44.21000000     4.84000000
   N     34.73000000    44.74000000     2.67000000
   C     36.10000000    44.44000000     2.30000000
   H     36.75200000    44.60800000     3.15700000
   H     36.17300000    43.39800000     1.98800000
   H     36.40500000    45.08800000     1.47900000
   H     34.36000000    45.60000000     2.29000000
  Ca     26.80000000    44.41000000     1.00000000
   O     26.78000000    45.53000000    -1.41600000
   H     27.15000000    46.41000000    -1.46600000
   H     27.00000000    45.13000000    -2.25600000

Ca 1.00



