%chk=loop2.apoCaM-CA-Ng.Init295.run61.water4.chk
%nprocshared=20
%mem=10GB
%nosave
#b3lyp/svp scf=(tight,noincore,xqc) Test 
#IOP(5/87=12) Density=Current Pop=(MK,readradii) iop(6/33=2) iop(6/42=6)

loop2.apoCaM-CA-Ng.Init295.run61.water4 

   -2  1 
   C     70.68000000    82.26000000    39.23000000
   C     70.88000000    81.97000000    40.72000000
   O     69.99000000    82.26000000    41.52000000
   H     69.99000000    83.09600000    39.11200000
   H     71.63800000    82.51400000    38.77700000
   H     70.26800000    81.37800000    38.74000000
   N     71.95000000    81.31000000    41.17000000
   C     72.37000000    81.16000000    42.55000000
   C     71.60000000    80.12000000    43.35000000
   O     72.17000000    79.40000000    44.17000000
   C     73.88000000    81.08000000    42.69000000
   C     74.52000000    81.24000000    44.06000000
   O     73.87000000    81.83000000    44.95000000
   O     75.74000000    80.97000000    44.12000000
   H     72.62000000    80.94000000    40.51000000
   H     71.98000000    82.07000000    43.02000000
   H     74.23000000    81.97000000    42.15000000
   H     74.25000000    80.14000000    42.28000000
   N     70.32000000    79.96000000    43.04000000
   C     69.34000000    79.03000000    43.58000000
   C     68.30000000    78.61000000    42.55000000
   O     68.07000000    79.28000000    41.54000000
   C     68.79000000    79.90000000    44.70000000
   H     69.91000000    80.50000000    42.29000000
   H     69.84000000    78.16000000    44.01000000
   H     68.11000000    80.66000000    44.32000000
   H     68.16000000    79.36000000    45.40000000
   H     69.61000000    80.33000000    45.29000000
   N     67.57000000    77.52000000    42.80000000
   C     67.68000000    76.63000000    43.94000000
   C     68.61000000    75.45000000    43.72000000
   O     68.96000000    75.08000000    42.60000000
   C     66.26000000    76.24000000    44.35000000
   C     65.30000000    77.40000000    44.56000000
   O     65.34000000    78.17000000    45.54000000
   O     64.37000000    77.64000000    43.76000000
   H     66.91000000    77.25000000    42.09000000
   H     68.07000000    77.19000000    44.80000000
   H     66.27000000    75.66000000    45.27000000
   H     65.91000000    75.61000000    43.53000000
   N     68.86000000    74.72000000    44.81000000
   C     69.61000000    73.48000000    44.88000000
   C     71.07000000    73.82000000    44.60000000
   O     71.49000000    74.87000000    45.09000000
   H     68.50000000    75.04000000    45.70000000
   H     69.18000000    72.81000000    44.14000000
   H     69.50000000    73.11000000    45.90000000
   N     71.89000000    73.02000000    43.91000000
   C     71.69000000    71.66000000    43.45000000
   C     70.98000000    71.52000000    42.11000000
   O     70.71000000    70.41000000    41.64000000
   C     73.01000000    70.91000000    43.58000000
   C     72.79000000    69.44000000    43.26000000
   N     71.87000000    68.75000000    43.95000000
   O     73.44000000    68.87000000    42.39000000
   H     72.77000000    73.38000000    43.59000000
   H     70.99000000    71.11000000    44.07000000
   H     73.33000000    70.93000000    44.62000000
   H     73.81000000    71.22000000    42.91000000
   H     71.55000000    69.21000000    44.79000000
   H     71.78000000    67.75000000    43.84000000
   N     70.43000000    72.58000000    41.52000000
   C     69.42000000    72.57000000    40.48000000
   C     68.09000000    71.97000000    40.93000000
   O     67.46000000    71.28000000    40.14000000
   H     70.75000000    73.45000000    41.91000000
   H     69.92000000    72.04000000    39.67000000
   H     69.21000000    73.60000000    40.21000000
   N     67.70000000    72.28000000    42.17000000
   C     66.40000000    71.86000000    42.65000000
   C     65.38000000    72.92000000    42.28000000
   O     64.81000000    73.53000000    43.18000000
   C     66.38000000    71.66000000    44.17000000
   C     65.23000000    70.76000000    44.63000000
   O     67.50000000    70.94000000    44.63000000
   H     68.17000000    73.00000000    42.71000000
   H     66.14000000    70.91000000    42.18000000
   H     66.35000000    72.66000000    44.58000000
   H     67.53000000    71.16000000    45.57000000
   H     65.28000000    70.67000000    45.71000000
   H     64.25000000    71.20000000    44.46000000
   H     65.41000000    69.75000000    44.26000000
   N     65.24000000    73.28000000    41.00000000
   C     64.54000000    74.34000000    40.31000000
   C     63.21000000    73.78000000    39.84000000
   O     63.19000000    72.70000000    39.25000000
   C     65.32000000    74.95000000    39.14000000
   C     66.24000000    75.94000000    39.84000000
   C     66.01000000    74.00000000    38.17000000
   C     67.11000000    76.78000000    38.91000000
   H     65.81000000    72.78000000    40.32000000
   H     64.25000000    75.12000000    41.02000000
   H     64.71000000    75.54000000    38.47000000
   H     66.88000000    75.34000000    40.49000000
   H     65.56000000    76.60000000    40.38000000
   H     66.82000000    73.42000000    38.63000000
   H     65.27000000    73.28000000    37.82000000
   H     66.27000000    74.56000000    37.28000000
   H     67.87000000    76.10000000    38.52000000
   H     66.55000000    77.20000000    38.07000000
   H     67.49000000    77.59000000    39.53000000
   N     62.14000000    74.55000000    40.02000000
   C     60.77000000    74.22000000    39.67000000
   C     60.39000000    74.69000000    38.27000000
   O     60.45000000    75.89000000    38.03000000
   C     59.75000000    74.69000000    40.70000000
   C     60.03000000    74.60000000    42.19000000
   O     59.99000000    73.47000000    42.73000000
   O     60.39000000    75.62000000    42.83000000
   H     62.32000000    75.46000000    40.41000000
   H     60.66000000    73.14000000    39.62000000
   H     58.84000000    74.10000000    40.54000000
   H     59.55000000    75.74000000    40.50000000
   N     59.94000000    73.79000000    37.39000000
   C     59.33000000    74.13000000    36.12000000
   C     60.03000000    75.15000000    35.24000000
   O     61.15000000    74.91000000    34.78000000
   C     59.18000000    72.82000000    35.35000000
   C     58.63000000    72.97000000    33.95000000
   C     59.44000000    72.89000000    32.82000000
   C     57.28000000    73.31000000    33.77000000
   C     58.89000000    72.94000000    31.53000000
   C     56.74000000    73.55000000    32.50000000
   C     57.54000000    73.28000000    31.38000000
   H     60.06000000    72.81000000    37.62000000
   H     58.37000000    74.59000000    36.35000000
   H     58.62000000    72.09000000    35.94000000
   H     60.17000000    72.37000000    35.33000000
   H     60.49000000    72.67000000    32.97000000
   H     56.60000000    73.48000000    34.59000000
   H     59.48000000    72.71000000    30.65000000
   H     55.71000000    73.86000000    32.40000000
   H     57.11000000    73.15000000    30.40000000
   N     59.41000000    76.30000000    34.99000000
   C     59.96000000    77.40000000    34.23000000
   C     61.31000000    77.95000000    34.68000000
   O     62.10000000    78.46000000    33.89000000
   C     58.91000000    78.50000000    34.07000000
   C     57.64000000    77.71000000    34.33000000
   C     58.02000000    76.60000000    35.30000000
   H     60.19000000    77.10000000    33.21000000
   H     58.98000000    79.14000000    34.95000000
   H     58.91000000    79.09000000    33.15000000
   H     56.86000000    78.30000000    34.82000000
   H     57.43000000    77.27000000    33.35000000
   H     57.99000000    77.00000000    36.32000000
   H     57.36000000    75.74000000    35.21000000
   N     61.74000000    77.71000000    35.92000000
   C     63.04000000    78.02000000    36.47000000
   C     64.24000000    77.44000000    35.74000000
   O     65.28000000    78.09000000    35.75000000
   C     63.21000000    77.67000000    37.95000000
   C     62.48000000    78.61000000    38.91000000
   C     62.61000000    78.35000000    40.40000000
   O     62.65000000    77.22000000    40.94000000
   O     62.71000000    79.38000000    41.10000000
   H     61.10000000    77.29000000    36.58000000
   H     63.10000000    79.10000000    36.41000000
   H     64.26000000    77.77000000    38.23000000
   H     62.86000000    76.66000000    38.12000000
   H     61.43000000    78.67000000    38.62000000
   H     62.78000000    79.61000000    38.61000000
   N     64.08000000    76.40000000    34.91000000
   C     65.18000000    75.77000000    34.22000000
   H     66.05500000    75.75500000    34.87000000
   H     64.90700000    74.74800000    33.95600000
   H     65.41000000    76.33100000    33.31400000
   H     63.17000000    76.00000000    34.74000000
  Ca     61.84000000    77.62000000    43.27000000
   O     62.52000000    77.94000000    46.04000000
   H     62.50000000    77.56000000    46.92000000
   H     63.45000000    77.96000000    45.81000000
   O     62.89000000    75.32000000    44.33000000
   H     62.47000000    74.83000000    45.03000000
   H     63.64000000    74.78000000    44.08000000
   O     61.14000000    80.12000000    43.97000000
   H     61.64000000    80.89000000    43.69000000
   H     60.25000000    80.43000000    44.08000000
   O     59.69000000    78.36000000    41.55000000
   H     59.66000000    78.21000000    40.60000000
   H     58.87000000    78.83000000    41.74000000

Ca 1.00



