%chk=loop2.holoCaM-CaMKII.run81.water2.chk
%nprocshared=20
%mem=10GB
%nosave
#b3lyp/svp scf=(tight,noincore,xqc) Test 
#IOP(5/87=12) Density=Current Pop=(MK,readradii) iop(6/33=2) iop(6/42=6)

loop2.holoCaM-CaMKII.run81.water2 

   -2  1 
   C     28.70000000    68.71000000    82.06300000
   C     29.31000000    70.09000000    82.26300000
   O     29.47000000    70.53000000    83.39300000
   H     27.74800000    68.80600000    81.54200000
   H     29.37700000    68.09500000    81.47000000
   H     28.53700000    68.24000000    83.03300000
   N     29.45000000    70.90000000    81.20300000
   C     30.26000000    72.10000000    81.28300000
   C     29.54000000    73.27000000    81.94300000
   O     28.32000000    73.42000000    81.90300000
   C     30.78000000    72.32000000    79.86300000
   C     31.71000000    73.53000000    79.90300000
   O     32.60000000    73.66000000    80.77300000
   O     31.59000000    74.39000000    79.01300000
   H     29.10000000    70.55000000    80.32300000
   H     31.20000000    71.90000000    81.79300000
   H     29.92000000    72.54000000    79.23300000
   H     31.33000000    71.43000000    79.54300000
   N     30.36000000    74.11000000    82.57300000
   C     30.02000000    75.36000000    83.22300000
   C     30.93000000    76.52000000    82.85300000
   O     30.76000000    77.55000000    83.49300000
   C     30.16000000    75.10000000    84.72300000
   H     31.33000000    73.82000000    82.53300000
   H     28.97000000    75.60000000    83.03300000
   H     29.38000000    74.37000000    84.95300000
   H     31.06000000    74.54000000    84.95300000
   H     29.90000000    75.99000000    85.30300000
   N     31.76000000    76.51000000    81.81300000
   C     32.68000000    77.62000000    81.61300000
   C     33.16000000    77.76000000    80.17300000
   O     33.41000000    78.90000000    79.78300000
   C     33.79000000    77.54000000    82.65300000
   C     34.39000000    76.14000000    82.68300000
   O     34.79000000    75.63000000    81.61300000
   O     34.33000000    75.46000000    83.73300000
   H     32.01000000    75.60000000    81.44300000
   H     32.09000000    78.49000000    81.87300000
   H     33.51000000    77.72000000    83.68300000
   H     34.56000000    78.26000000    82.37300000
   N     33.26000000    76.67000000    79.41300000
   C     33.93000000    76.61000000    78.13300000
   C     35.43000000    76.83000000    78.15300000
   O     36.03000000    77.22000000    77.15300000
   H     33.02000000    75.78000000    79.82300000
   H     33.45000000    77.34000000    77.47300000
   H     33.66000000    75.63000000    77.74300000
   N     36.19000000    76.54000000    79.20300000
   C     37.64000000    76.43000000    79.19300000
   C     38.27000000    75.27000000    78.43300000
   O     39.44000000    75.33000000    78.07300000
   C     38.17000000    76.53000000    80.62300000
   C     37.98000000    75.33000000    81.54300000
   N     38.46000000    75.41000000    82.78300000
   O     37.42000000    74.29000000    81.20300000
   H     35.75000000    76.23000000    80.06300000
   H     37.99000000    77.34000000    78.71300000
   H     37.77000000    77.40000000    81.14300000
   H     39.24000000    76.70000000    80.56300000
   H     38.90000000    76.31000000    82.92300000
   H     37.99000000    74.89000000    83.51300000
   N     37.48000000    74.27000000    78.01300000
   C     37.98000000    73.10000000    77.32300000
   C     38.61000000    72.10000000    78.27300000
   O     39.24000000    71.14000000    77.81300000
   H     36.52000000    74.27000000    78.30300000
   H     38.70000000    73.42000000    76.56300000
   H     37.19000000    72.57000000    76.79300000
   N     38.46000000    72.17000000    79.59300000
   C     38.99000000    71.22000000    80.55300000
   C     37.96000000    70.86000000    81.61300000
   O     36.88000000    71.43000000    81.72300000
   C     40.23000000    71.79000000    81.24300000
   C     41.48000000    71.73000000    80.35300000
   O     40.04000000    73.10000000    81.70300000
   H     37.88000000    72.90000000    79.97300000
   H     39.16000000    70.35000000    79.93300000
   H     40.33000000    71.20000000    82.15300000
   H     39.10000000    73.14000000    81.90300000
   H     42.37000000    71.92000000    80.95300000
   H     41.67000000    70.74000000    79.95300000
   H     41.39000000    72.51000000    79.60300000
   N     38.17000000    69.70000000    82.25300000
   C     37.38000000    69.15000000    83.32300000
   C     37.78000000    69.84000000    84.62300000
   O     38.86000000    69.54000000    85.12300000
   C     37.36000000    67.62000000    83.37300000
   C     37.38000000    67.00000000    81.97300000
   C     36.20000000    67.17000000    84.25300000
   C     37.33000000    65.48000000    82.04300000
   H     39.10000000    69.33000000    82.10300000
   H     36.31000000    69.26000000    83.10300000
   H     38.31000000    67.30000000    83.79300000
   H     38.30000000    67.32000000    81.49300000
   H     36.65000000    67.44000000    81.29300000
   H     36.08000000    67.82000000    85.12300000
   H     35.25000000    67.11000000    83.71300000
   H     36.43000000    66.15000000    84.54300000
   H     38.16000000    65.10000000    82.63300000
   H     36.37000000    65.22000000    82.50300000
   H     37.34000000    64.95000000    81.08300000
   N     36.88000000    70.67000000    85.16300000
   C     37.01000000    71.38000000    86.41300000
   C     36.41000000    70.62000000    87.59300000
   O     35.75000000    69.61000000    87.36300000
   C     36.46000000    72.80000000    86.33300000
   C     36.99000000    73.64000000    85.17300000
   O     36.48000000    73.51000000    84.04300000
   O     38.00000000    74.33000000    85.44300000
   H     36.04000000    70.90000000    84.64300000
   H     38.09000000    71.51000000    86.52300000
   H     36.70000000    73.31000000    87.26300000
   H     35.38000000    72.76000000    86.19300000
   N     36.64000000    71.02000000    88.84300000
   C     36.29000000    70.11000000    89.91300000
   C     34.80000000    70.02000000    90.22300000
   O     34.27000000    68.95000000    90.50300000
   C     37.11000000    70.27000000    91.18300000
   C     36.78000000    69.26000000    92.26300000
   C     36.10000000    69.53000000    93.45300000
   C     37.17000000    67.93000000    92.07300000
   C     35.64000000    68.57000000    94.35300000
   C     36.86000000    66.99000000    93.06300000
   C     36.06000000    67.24000000    94.18300000
   H     37.16000000    71.87000000    89.03300000
   H     36.49000000    69.12000000    89.50300000
   H     37.02000000    71.25000000    91.65300000
   H     38.15000000    70.04000000    90.94300000
   H     35.76000000    70.53000000    93.67300000
   H     37.76000000    67.66000000    91.21300000
   H     35.00000000    68.90000000    95.15300000
   H     37.10000000    65.95000000    92.91300000
   H     35.72000000    66.44000000    94.82300000
   N     34.03000000    71.11000000    90.21300000
   C     32.59000000    71.02000000    90.31300000
   C     32.02000000    70.15000000    89.20300000
   O     30.93000000    69.61000000    89.33300000
   C     32.11000000    72.46000000    90.18300000
   C     33.22000000    73.25000000    90.87300000
   C     34.41000000    72.51000000    90.25300000
   H     32.32000000    70.66000000    91.31300000
   H     31.93000000    72.66000000    89.12300000
   H     31.16000000    72.57000000    90.70300000
   H     33.21000000    74.32000000    90.66300000
   H     33.05000000    73.05000000    91.92300000
   H     34.55000000    72.87000000    89.23300000
   H     35.29000000    72.66000000    90.87300000
   N     32.58000000    70.07000000    87.98300000
   C     32.15000000    69.19000000    86.92300000
   C     32.56000000    67.74000000    87.16300000
   O     31.77000000    66.85000000    86.88300000
   C     32.75000000    69.64000000    85.59300000
   C     32.42000000    71.12000000    85.39300000
   C     33.05000000    71.65000000    84.11300000
   O     32.63000000    72.65000000    83.49300000
   O     34.19000000    71.23000000    83.80300000
   H     33.47000000    70.54000000    87.88300000
   H     31.07000000    69.25000000    86.92300000
   H     32.32000000    69.07000000    84.77300000
   H     33.83000000    69.49000000    85.60300000
   H     32.91000000    71.70000000    86.17300000
   H     31.34000000    71.22000000    85.45300000
   N     33.79000000    67.43000000    87.58300000
   C     34.12000000    66.09000000    88.02300000
   H     35.03400000    66.11800000    88.61600000
   H     33.30600000    65.69600000    88.63100000
   H     34.27000000    65.44800000    87.15500000
   H     34.40000000    68.21000000    87.78300000
  Ca     34.82000000    73.20000000    82.12000000
   O     33.75000000    70.83000000    80.96000000
   H     33.44000000    70.06000000    80.49000000
   H     33.68000000    70.59000000    81.88000000
   O     35.09000000    73.17000000    79.34000000
   H     34.93000000    72.80000000    78.47000000
   H     34.21000000    73.41000000    79.65000000

Ca 1.00



