%chk=loop2.apoCaM-CA-Ng.Init293.run8.water6.chk
%nprocshared=20
%mem=10GB
%nosave
#b3lyp/svp scf=(tight,noincore,xqc) Test 
#IOP(5/87=12) Density=Current Pop=(MK,readradii) iop(6/33=2) iop(6/42=6)

loop2.apoCaM-CA-Ng.Init293.run8.water6 

   -2  1 
   C     54.01000000    18.92000000    36.18000000
   C     53.23000000    17.85000000    35.42000000
   O     52.47000000    17.06000000    35.96000000
   H     54.92900000    19.15100000    35.64100000
   H     53.40300000    19.82100000    36.26500000
   H     54.25700000    18.55200000    37.17600000
   N     53.54000000    17.66000000    34.13000000
   C     52.90000000    16.68000000    33.28000000
   C     53.54000000    15.30000000    33.43000000
   O     52.84000000    14.30000000    33.48000000
   C     52.99000000    17.11000000    31.82000000
   C     52.07000000    16.41000000    30.84000000
   O     52.16000000    16.83000000    29.66000000
   O     51.21000000    15.58000000    31.22000000
   H     54.27000000    18.16000000    33.64000000
   H     51.84000000    16.51000000    33.51000000
   H     54.02000000    17.08000000    31.48000000
   H     52.63000000    18.14000000    31.79000000
   N     54.86000000    15.26000000    33.59000000
   C     55.68000000    14.06000000    33.69000000
   C     55.31000000    13.14000000    34.84000000
   O     55.56000000    11.93000000    34.83000000
   C     55.63000000    13.39000000    32.32000000
   H     55.41000000    16.09000000    33.42000000
   H     56.69000000    14.40000000    33.93000000
   H     55.87000000    14.15000000    31.58000000
   H     56.36000000    12.58000000    32.38000000
   H     54.65000000    13.06000000    31.99000000
   N     54.89000000    13.83000000    35.90000000
   C     54.50000000    13.18000000    37.13000000
   C     53.38000000    12.19000000    36.84000000
   O     53.40000000    11.15000000    37.49000000
   C     55.73000000    12.79000000    37.94000000
   C     56.78000000    13.89000000    38.04000000
   O     57.92000000    13.63000000    37.60000000
   O     56.38000000    14.98000000    38.50000000
   H     55.06000000    14.83000000    35.90000000
   H     53.97000000    13.94000000    37.71000000
   H     56.19000000    11.92000000    37.47000000
   H     55.41000000    12.58000000    38.97000000
   N     52.42000000    12.50000000    35.97000000
   C     51.42000000    11.50000000    35.67000000
   C     50.37000000    11.29000000    36.75000000
   O     50.08000000    12.20000000    37.53000000
   H     52.46000000    13.32000000    35.38000000
   H     51.88000000    10.51000000    35.61000000
   H     51.01000000    11.70000000    34.68000000
   N     49.73000000    10.12000000    36.72000000
   C     48.63000000     9.72000000    37.58000000
   C     47.44000000    10.65000000    37.59000000
   O     46.67000000    10.69000000    38.55000000
   C     49.18000000     9.42000000    38.97000000
   C     48.27000000     8.53000000    39.81000000
   N     48.48000000     8.38000000    41.12000000
   O     47.40000000     7.82000000    39.31000000
   H     49.94000000     9.40000000    36.04000000
   H     48.26000000     8.76000000    37.22000000
   H     49.32000000    10.36000000    39.50000000
   H     50.19000000     9.01000000    38.92000000
   H     49.19000000     8.89000000    41.62000000
   H     47.65000000     8.05000000    41.59000000
   N     47.16000000    11.38000000    36.50000000
   C     46.09000000    12.36000000    36.50000000
   C     46.56000000    13.81000000    36.56000000
   O     45.79000000    14.74000000    36.30000000
   H     47.55000000    11.11000000    35.61000000
   H     45.43000000    12.22000000    37.36000000
   H     45.55000000    12.33000000    35.55000000
   N     47.84000000    14.07000000    36.80000000
   C     48.36000000    15.42000000    36.90000000
   C     48.31000000    16.00000000    38.30000000
   O     48.39000000    15.26000000    39.28000000
   C     49.78000000    15.59000000    36.37000000
   C     50.01000000    14.69000000    35.16000000
   O     49.88000000    16.92000000    35.92000000
   H     48.44000000    13.30000000    37.04000000
   H     47.78000000    16.09000000    36.25000000
   H     50.53000000    15.36000000    37.13000000
   H     50.83000000    17.05000000    35.88000000
   H     49.37000000    14.91000000    34.31000000
   H     51.03000000    14.98000000    34.91000000
   H     49.95000000    13.65000000    35.48000000
   N     48.22000000    17.33000000    38.41000000
   C     48.31000000    18.12000000    39.62000000
   C     49.76000000    18.03000000    40.06000000
   O     50.64000000    17.78000000    39.23000000
   C     47.82000000    19.54000000    39.30000000
   C     47.43000000    20.34000000    40.53000000
   C     48.87000000    20.27000000    38.46000000
   C     46.76000000    21.70000000    40.33000000
   H     47.83000000    17.81000000    37.61000000
   H     47.74000000    17.58000000    40.37000000
   H     46.87000000    19.58000000    38.77000000
   H     48.30000000    20.40000000    41.18000000
   H     46.66000000    19.84000000    41.12000000
   H     49.16000000    19.65000000    37.61000000
   H     48.57000000    21.27000000    38.16000000
   H     49.74000000    20.43000000    39.10000000
   H     46.02000000    21.56000000    39.55000000
   H     46.21000000    21.98000000    41.23000000
   H     47.51000000    22.42000000    40.01000000
   N     50.09000000    18.26000000    41.33000000
   C     51.41000000    18.13000000    41.91000000
   C     51.35000000    17.20000000    43.11000000
   O     52.29000000    17.22000000    43.91000000
   C     52.12000000    19.47000000    42.06000000
   C     53.64000000    19.34000000    42.07000000
   O     54.20000000    18.49000000    41.34000000
   O     54.23000000    20.20000000    42.75000000
   H     49.35000000    18.63000000    41.92000000
   H     51.90000000    17.56000000    41.12000000
   H     51.88000000    20.02000000    42.97000000
   H     51.91000000    20.08000000    41.17000000
   N     50.42000000    16.25000000    43.22000000
   C     50.33000000    15.27000000    44.28000000
   C     49.02000000    15.08000000    45.04000000
   O     49.23000000    14.62000000    46.16000000
   C     50.78000000    13.91000000    43.73000000
   C     49.62000000    13.15000000    43.12000000
   C     48.92000000    12.33000000    44.01000000
   C     49.21000000    13.29000000    41.79000000
   C     47.84000000    11.56000000    43.57000000
   C     48.14000000    12.50000000    41.35000000
   C     47.42000000    11.71000000    42.24000000
   H     49.76000000    16.17000000    42.47000000
   H     51.00000000    15.54000000    45.10000000
   H     51.18000000    13.33000000    44.56000000
   H     51.54000000    14.08000000    42.97000000
   H     49.23000000    12.31000000    45.05000000
   H     49.72000000    14.00000000    41.16000000
   H     47.48000000    10.80000000    44.25000000
   H     47.96000000    12.49000000    40.28000000
   H     46.60000000    11.17000000    41.78000000
   N     47.80000000    15.37000000    44.57000000
   C     47.40000000    16.26000000    43.50000000
   C     47.55000000    17.71000000    43.93000000
   O     47.73000000    18.58000000    43.08000000
   C     45.96000000    15.89000000    43.14000000
   C     45.52000000    14.76000000    44.06000000
   C     46.62000000    14.74000000    45.13000000
   H     47.99000000    16.01000000    42.61000000
   H     45.25000000    16.71000000    43.17000000
   H     45.83000000    15.53000000    42.13000000
   H     44.54000000    14.93000000    44.49000000
   H     45.54000000    13.81000000    43.51000000
   H     46.23000000    15.42000000    45.89000000
   H     46.81000000    13.75000000    45.54000000
   N     47.49000000    18.13000000    45.19000000
   C     47.43000000    19.54000000    45.53000000
   C     48.71000000    20.29000000    45.20000000
   O     49.79000000    19.83000000    45.58000000
   C     47.14000000    19.79000000    47.01000000
   C     45.76000000    19.38000000    47.50000000
   C     45.52000000    19.68000000    48.98000000
   O     45.33000000    18.77000000    49.82000000
   O     45.18000000    20.82000000    49.34000000
   H     47.36000000    17.51000000    45.98000000
   H     46.61000000    19.98000000    44.97000000
   H     47.29000000    20.82000000    47.33000000
   H     47.84000000    19.17000000    47.57000000
   H     45.65000000    18.32000000    47.29000000
   H     45.04000000    19.86000000    46.84000000
   N     48.60000000    21.50000000    44.65000000
   C     49.70000000    22.31000000    44.17000000
   H     50.57200000    21.67700000    44.00600000
   H     49.41800000    22.78800000    43.23200000
   H     49.94000000    23.07400000    44.91000000
   H     47.65000000    21.75000000    44.42000000
  Ca     55.41000000    16.30000000    40.46000000
   O     53.32000000    14.55000000    40.48000000
   H     52.55000000    14.49000000    39.91000000
   H     53.19000000    13.86000000    41.12000000
   O     53.22000000    17.04000000    38.61000000
   H     53.27000000    17.43000000    37.74000000
   H     52.36000000    17.30000000    38.94000000
   O     56.14000000    13.95000000    41.54000000
   H     56.85000000    13.59000000    42.08000000
   H     55.35000000    13.49000000    41.84000000
   O     56.53000000    18.27000000    39.00000000
   H     57.19000000    18.42000000    38.32000000
   H     56.55000000    19.06000000    39.54000000
   O     57.95000000    16.88000000    41.11000000
   H     58.49000000    16.43000000    41.77000000
   H     58.58000000    17.36000000    40.58000000
   O     54.76000000    16.07000000    43.08000000
   H     55.23000000    15.83000000    43.88000000
   H     53.86000000    16.24000000    43.36000000

Ca 1.00



