%chk=loop2.apoCaM-CA-Ng.Init295.run55.water3.chk
%nprocshared=20
%mem=10GB
%nosave
#b3lyp/svp scf=(tight,noincore,xqc) Test 
#IOP(5/87=12) Density=Current Pop=(MK,readradii) iop(6/33=2) iop(6/42=6)

loop2.apoCaM-CA-Ng.Init295.run55.water3 

   -2  1 
   C     88.76000000    89.32000000    29.64000000
   C     90.03000000    89.52000000    30.44000000
   O     90.42000000    90.67000000    30.64000000
   H     88.00200000    90.02600000    29.98000000
   H     88.96500000    89.48900000    28.58300000
   H     88.39700000    88.30200000    29.78200000
   N     90.71000000    88.46000000    30.88000000
   C     91.98000000    88.44000000    31.58000000
   C     91.86000000    88.80000000    33.06000000
   O     92.64000000    88.37000000    33.90000000
   C     92.68000000    87.10000000    31.34000000
   C     94.10000000    87.25000000    31.86000000
   O     94.58000000    86.21000000    32.36000000
   O     94.81000000    88.21000000    31.52000000
   H     90.22000000    87.58000000    30.85000000
   H     92.65000000    89.20000000    31.19000000
   H     92.71000000    86.94000000    30.26000000
   H     92.17000000    86.35000000    31.94000000
   N     90.91000000    89.66000000    33.42000000
   C     90.57000000    90.07000000    34.77000000
   C     89.19000000    90.70000000    34.76000000
   O     88.71000000    91.09000000    33.69000000
   C     91.56000000    91.14000000    35.20000000
   H     90.40000000    90.10000000    32.67000000
   H     90.66000000    89.20000000    35.42000000
   H     92.51000000    90.95000000    34.69000000
   H     91.19000000    92.14000000    34.97000000
   H     91.72000000    91.04000000    36.28000000
   N     88.48000000    90.88000000    35.88000000
   C     88.83000000    90.79000000    37.28000000
   C     88.76000000    89.37000000    37.83000000
   O     87.99000000    88.57000000    37.31000000
   C     87.99000000    91.78000000    38.08000000
   C     88.26000000    93.18000000    37.55000000
   O     89.08000000    93.92000000    38.13000000
   O     87.60000000    93.64000000    36.59000000
   H     87.64000000    91.42000000    35.74000000
   H     89.82000000    91.26000000    37.31000000
   H     88.25000000    91.63000000    39.13000000
   H     86.94000000    91.50000000    37.99000000
   N     89.62000000    89.09000000    38.82000000
   C     89.81000000    87.77000000    39.39000000
   C     90.41000000    86.69000000    38.51000000
   O     91.23000000    86.99000000    37.65000000
   H     90.14000000    89.84000000    39.25000000
   H     88.87000000    87.47000000    39.86000000
   H     90.50000000    87.73000000    40.23000000
   N     90.00000000    85.42000000    38.64000000
   C     89.07000000    84.85000000    39.60000000
   C     87.61000000    85.25000000    39.47000000
   O     86.78000000    84.91000000    40.31000000
   C     89.16000000    83.33000000    39.51000000
   C     90.52000000    82.71000000    39.79000000
   N     90.65000000    81.90000000    40.84000000
   O     91.43000000    82.95000000    39.00000000
   H     90.46000000    84.77000000    38.02000000
   H     89.43000000    85.12000000    40.59000000
   H     89.06000000    83.01000000    38.47000000
   H     88.41000000    82.78000000    40.07000000
   H     89.86000000    81.68000000    41.43000000
   H     91.60000000    81.58000000    41.00000000
   N     87.17000000    85.79000000    38.33000000
   C     85.77000000    86.06000000    38.10000000
   C     85.07000000    87.14000000    38.91000000
   O     83.88000000    87.01000000    39.18000000
   H     87.85000000    85.96000000    37.60000000
   H     85.30000000    85.08000000    38.23000000
   H     85.58000000    86.24000000    37.04000000
   N     85.72000000    88.25000000    39.25000000
   C     85.17000000    89.35000000    40.01000000
   C     84.49000000    90.36000000    39.09000000
   O     84.43000000    91.55000000    39.37000000
   C     86.19000000    89.99000000    40.95000000
   C     85.68000000    90.78000000    42.15000000
   O     86.94000000    88.96000000    41.57000000
   H     86.60000000    88.49000000    38.81000000
   H     84.37000000    88.87000000    40.58000000
   H     86.82000000    90.74000000    40.48000000
   H     87.84000000    89.28000000    41.60000000
   H     85.31000000    91.77000000    41.89000000
   H     84.93000000    90.12000000    42.58000000
   H     86.43000000    90.93000000    42.93000000
   N     84.03000000    89.99000000    37.89000000
   C     83.51000000    90.81000000    36.82000000
   C     82.15000000    91.38000000    37.20000000
   O     81.27000000    90.66000000    37.67000000
   C     83.38000000    90.07000000    35.49000000
   C     84.71000000    89.90000000    34.76000000
   C     82.69000000    88.71000000    35.58000000
   C     85.75000000    89.05000000    35.48000000
   H     83.85000000    89.01000000    37.75000000
   H     84.20000000    91.62000000    36.58000000
   H     82.78000000    90.69000000    34.82000000
   H     85.15000000    90.90000000    34.71000000
   H     84.60000000    89.47000000    33.77000000
   H     81.68000000    88.85000000    35.95000000
   H     82.62000000    88.27000000    34.58000000
   H     83.18000000    88.02000000    36.28000000
   H     85.32000000    88.09000000    35.73000000
   H     86.62000000    88.96000000    34.83000000
   H     85.98000000    89.60000000    36.40000000
   N     82.02000000    92.70000000    37.06000000
   C     80.78000000    93.42000000    37.24000000
   C     79.76000000    93.16000000    36.14000000
   O     80.06000000    92.47000000    35.16000000
   C     81.13000000    94.90000000    37.44000000
   C     82.09000000    95.48000000    36.42000000
   O     83.24000000    95.03000000    36.23000000
   O     81.69000000    96.47000000    35.76000000
   H     82.89000000    93.20000000    36.91000000
   H     80.36000000    93.02000000    38.16000000
   H     81.66000000    94.88000000    38.39000000
   H     80.25000000    95.54000000    37.56000000
   N     78.59000000    93.79000000    36.17000000
   C     77.44000000    93.70000000    35.30000000
   C     77.74000000    93.77000000    33.81000000
   O     77.57000000    92.80000000    33.07000000
   C     76.59000000    92.47000000    35.59000000
   C     75.15000000    92.89000000    35.43000000
   C     74.50000000    92.66000000    34.21000000
   C     74.35000000    93.40000000    36.46000000
   C     73.12000000    92.77000000    34.01000000
   C     73.01000000    93.68000000    36.21000000
   C     72.36000000    93.41000000    34.99000000
   H     78.50000000    94.33000000    37.02000000
   H     76.88000000    94.56000000    35.68000000
   H     76.77000000    92.20000000    36.63000000
   H     76.93000000    91.61000000    35.02000000
   H     75.07000000    92.07000000    33.51000000
   H     74.80000000    93.71000000    37.40000000
   H     72.74000000    92.31000000    33.11000000
   H     72.41000000    94.15000000    36.97000000
   H     71.30000000    93.60000000    34.91000000
   N     78.36000000    94.83000000    33.29000000
   C     78.57000000    95.00000000    31.87000000
   C     79.89000000    94.39000000    31.44000000
   O     80.15000000    94.48000000    30.24000000
   C     78.31000000    96.47000000    31.54000000
   C     78.78000000    97.10000000    32.85000000
   C     78.65000000    96.08000000    33.98000000
   H     77.77000000    94.45000000    31.37000000
   H     78.86000000    96.71000000    30.63000000
   H     77.25000000    96.70000000    31.50000000
   H     79.81000000    97.40000000    32.66000000
   H     78.18000000    97.99000000    33.02000000
   H     79.62000000    96.07000000    34.47000000
   H     77.78000000    96.46000000    34.52000000
   N     80.71000000    93.85000000    32.34000000
   C     81.81000000    92.99000000    31.95000000
   C     81.46000000    91.51000000    31.81000000
   O     81.98000000    90.85000000    30.91000000
   C     83.02000000    93.16000000    32.86000000
   C     83.71000000    94.49000000    32.55000000
   C     84.78000000    94.90000000    33.54000000
   O     85.45000000    94.12000000    34.26000000
   O     85.11000000    96.10000000    33.68000000
   H     80.36000000    93.76000000    33.29000000
   H     82.13000000    93.33000000    30.97000000
   H     83.72000000    92.35000000    32.64000000
   H     82.69000000    93.16000000    33.89000000
   H     83.03000000    95.33000000    32.38000000
   H     84.22000000    94.38000000    31.59000000
   N     80.49000000    90.99000000    32.55000000
   C     80.05000000    89.61000000    32.60000000
   H     79.08900000    89.51700000    32.09500000
   H     80.78400000    88.97600000    32.10200000
   H     79.94500000    89.29900000    33.63900000
   H     80.09000000    91.63000000    33.23000000
  Ca     85.89000000    95.50000000    36.32000000
   O     85.50000000    94.11000000    38.72000000
   H     85.08000000    93.27000000    38.87000000
   H     85.03000000    94.72000000    39.29000000
   O     85.86000000    98.24000000    35.71000000
   H     86.54000000    98.72000000    35.22000000
   H     85.43000000    98.92000000    36.23000000
   O     88.00000000    96.24000000    37.81000000
   H     88.59000000    96.95000000    38.05000000
   H     88.55000000    95.46000000    37.80000000

Ca 1.00



