%chk=loop2.holoCaM.run95.water1.chk
%nprocshared=20
%mem=10GB
%nosave
#b3lyp/svp scf=(tight,noincore,xqc) Test 
#IOP(5/87=12) Density=Current Pop=(MK,readradii) iop(6/33=2) iop(6/42=6)

loop2.holoCaM.run95.water1 

   -2  1 
   C     31.44000000    56.17000000    24.84000000
   C     31.60000000    56.12000000    26.36000000
   O     32.60000000    55.58000000    26.80000000
   H     30.82500000    57.02800000    24.56800000
   H     32.42100000    56.26400000    24.37400000
   H     30.95900000    55.25500000    24.49400000
   N     30.59000000    56.58000000    27.10000000
   C     30.54000000    56.17000000    28.49000000
   C     30.62000000    54.66000000    28.69000000
   O     29.95000000    53.94000000    27.96000000
   C     29.18000000    56.70000000    28.93000000
   C     29.05000000    56.70000000    30.45000000
   O     30.02000000    56.41000000    31.18000000
   O     27.92000000    57.00000000    30.91000000
   H     29.83000000    57.06000000    26.64000000
   H     31.36000000    56.69000000    28.99000000
   H     28.40000000    56.11000000    28.47000000
   H     29.08000000    57.73000000    28.57000000
   N     31.35000000    54.16000000    29.69000000
   C     31.45000000    52.75000000    29.99000000
   C     30.67000000    52.24000000    31.19000000
   O     30.39000000    51.05000000    31.27000000
   C     32.93000000    52.43000000    30.21000000
   H     31.84000000    54.77000000    30.34000000
   H     31.10000000    52.12000000    29.17000000
   H     33.52000000    52.69000000    29.33000000
   H     33.36000000    52.98000000    31.05000000
   H     33.06000000    51.39000000    30.51000000
   N     30.21000000    53.14000000    32.07000000
   C     29.48000000    52.84000000    33.29000000
   C     27.96000000    52.96000000    33.18000000
   O     27.25000000    52.69000000    34.14000000
   C     29.92000000    53.76000000    34.42000000
   C     31.43000000    53.96000000    34.44000000
   O     31.81000000    55.14000000    34.32000000
   O     32.29000000    53.05000000    34.48000000
   H     30.39000000    54.09000000    31.79000000
   H     29.62000000    51.82000000    33.63000000
   H     29.57000000    53.41000000    35.39000000
   H     29.54000000    54.77000000    34.29000000
   N     27.55000000    53.49000000    32.03000000
   C     26.15000000    53.88000000    31.96000000
   C     25.65000000    55.09000000    32.73000000
   O     24.44000000    55.15000000    32.96000000
   H     28.14000000    53.71000000    31.24000000
   H     25.55000000    53.00000000    32.16000000
   H     25.97000000    54.04000000    30.90000000
   N     26.52000000    56.01000000    33.14000000
   C     26.21000000    57.03000000    34.12000000
   C     26.07000000    58.45000000    33.59000000
   O     25.70000000    59.35000000    34.33000000
   C     27.11000000    56.90000000    35.35000000
   C     28.46000000    57.58000000    35.22000000
   N     28.77000000    58.53000000    36.12000000
   O     29.32000000    57.26000000    34.41000000
   H     27.41000000    56.13000000    32.67000000
   H     25.18000000    56.78000000    34.38000000
   H     27.35000000    55.85000000    35.54000000
   H     26.55000000    57.24000000    36.22000000
   H     28.13000000    58.76000000    36.87000000
   H     29.60000000    59.08000000    35.97000000
   N     26.35000000    58.69000000    32.30000000
   C     26.13000000    59.94000000    31.60000000
   C     27.05000000    61.10000000    31.96000000
   O     26.96000000    62.21000000    31.45000000
   H     26.76000000    57.97000000    31.73000000
   H     25.12000000    60.32000000    31.75000000
   H     26.23000000    59.78000000    30.52000000
   N     28.06000000    60.78000000    32.77000000
   C     29.23000000    61.64000000    32.83000000
   C     30.48000000    60.99000000    32.25000000
   O     30.66000000    59.79000000    32.48000000
   C     29.56000000    62.12000000    34.24000000
   C     28.43000000    62.83000000    34.99000000
   O     30.02000000    61.09000000    35.08000000
   H     28.07000000    59.84000000    33.13000000
   H     29.06000000    62.53000000    32.22000000
   H     30.36000000    62.84000000    34.10000000
   H     30.16000000    61.34000000    35.99000000
   H     27.55000000    62.19000000    35.08000000
   H     28.88000000    63.09000000    35.95000000
   H     28.26000000    63.79000000    34.51000000
   N     31.37000000    61.75000000    31.62000000
   C     32.52000000    61.25000000    30.89000000
   C     33.72000000    61.47000000    31.80000000
   O     33.92000000    62.56000000    32.34000000
   C     32.56000000    62.06000000    29.59000000
   C     31.52000000    61.62000000    28.56000000
   C     33.96000000    62.11000000    28.99000000
   C     31.82000000    60.28000000    27.91000000
   H     31.26000000    62.75000000    31.63000000
   H     32.39000000    60.19000000    30.71000000
   H     32.23000000    63.08000000    29.78000000
   H     31.49000000    62.42000000    27.81000000
   H     30.57000000    61.70000000    29.09000000
   H     34.49000000    61.16000000    28.90000000
   H     33.89000000    62.50000000    27.98000000
   H     34.46000000    62.81000000    29.65000000
   H     31.01000000    60.12000000    27.19000000
   H     32.75000000    60.34000000    27.33000000
   H     32.00000000    59.45000000    28.60000000
   N     34.53000000    60.41000000    31.81000000
   C     35.84000000    60.42000000    32.44000000
   C     36.93000000    60.61000000    31.39000000
   O     36.69000000    60.39000000    30.20000000
   C     36.02000000    59.09000000    33.16000000
   C     34.93000000    58.70000000    34.15000000
   O     34.09000000    57.82000000    33.87000000
   O     35.00000000    59.27000000    35.26000000
   H     34.26000000    59.53000000    31.39000000
   H     36.03000000    61.19000000    33.19000000
   H     36.97000000    59.15000000    33.68000000
   H     36.06000000    58.31000000    32.39000000
   N     38.16000000    60.87000000    31.82000000
   C     39.31000000    60.93000000    30.93000000
   C     39.44000000    59.71000000    30.03000000
   O     39.46000000    59.97000000    28.83000000
   C     40.54000000    61.15000000    31.80000000
   C     41.82000000    61.07000000    31.00000000
   C     42.18000000    62.07000000    30.09000000
   C     42.57000000    59.88000000    31.01000000
   C     43.30000000    61.89000000    29.27000000
   C     43.62000000    59.70000000    30.11000000
   C     44.08000000    60.72000000    29.27000000
   H     38.33000000    61.17000000    32.77000000
   H     39.15000000    61.77000000    30.26000000
   H     40.56000000    60.37000000    32.56000000
   H     40.43000000    62.10000000    32.32000000
   H     41.60000000    62.98000000    30.11000000
   H     42.32000000    59.05000000    31.66000000
   H     43.51000000    62.64000000    28.52000000
   H     44.10000000    58.73000000    30.05000000
   H     44.89000000    60.59000000    28.57000000
   N     39.38000000    58.45000000    30.47000000
   C     39.48000000    57.31000000    29.58000000
   C     38.31000000    57.18000000    28.61000000
   O     38.40000000    56.39000000    27.68000000
   C     39.50000000    56.06000000    30.45000000
   C     38.99000000    56.52000000    31.82000000
   C     39.40000000    57.99000000    31.84000000
   H     40.38000000    57.48000000    28.98000000
   H     38.95000000    55.25000000    29.99000000
   H     40.57000000    55.82000000    30.49000000
   H     37.90000000    56.44000000    31.84000000
   H     39.48000000    56.00000000    32.64000000
   H     38.73000000    58.49000000    32.54000000
   H     40.41000000    57.97000000    32.24000000
   N     37.15000000    57.82000000    28.75000000
   C     36.01000000    57.84000000    27.85000000
   C     36.08000000    59.00000000    26.87000000
   O     35.53000000    58.98000000    25.77000000
   C     34.69000000    57.83000000    28.62000000
   C     34.49000000    56.62000000    29.52000000
   C     33.39000000    56.75000000    30.56000000
   O     32.98000000    57.91000000    30.80000000
   O     33.03000000    55.76000000    31.22000000
   H     37.13000000    58.43000000    29.56000000
   H     35.95000000    56.90000000    27.31000000
   H     33.86000000    57.91000000    27.92000000
   H     34.78000000    58.71000000    29.26000000
   H     35.42000000    56.36000000    30.02000000
   H     34.26000000    55.76000000    28.89000000
   N     36.61000000    60.09000000    27.43000000
   C     36.86000000    61.29000000    26.66000000
   H     37.87100000    61.25600000    26.25300000
   H     36.14200000    61.35400000    25.84200000
   H     36.75700000    62.16400000    27.30400000
   H     36.88000000    60.11000000    28.40000000
  Ca     31.67000000    57.39000000    33.06000000
   O     31.94000000    58.71000000    35.44000000
   H     32.79000000    59.14000000    35.35000000
   H     31.80000000    58.64000000    36.38000000

Ca 1.00



