%chk=loop2.holoCaM.run16.water1.chk
%nprocshared=20
%mem=10GB
%nosave
#b3lyp/svp scf=(tight,noincore,xqc) Test 
#IOP(5/87=12) Density=Current Pop=(MK,readradii) iop(6/33=2) iop(6/42=6)

loop2.holoCaM.run16.water1 

   -2  1 
   C     47.94000000    49.54000000     9.07000000
   C     47.57000000    50.93000000     8.59000000
   O     48.21000000    51.86000000     9.08000000
   H     48.85800000    49.59100000     9.65600000
   H     47.13600000    49.14300000     9.68900000
   H     48.09400000    48.88700000     8.21100000
   N     46.54000000    51.11000000     7.76000000
   C     46.08000000    52.41000000     7.31000000
   C     45.54000000    53.29000000     8.43000000
   O     44.39000000    53.11000000     8.83000000
   C     45.14000000    52.29000000     6.11000000
   C     44.66000000    53.59000000     5.50000000
   O     45.32000000    54.64000000     5.69000000
   O     43.67000000    53.59000000     4.73000000
   H     46.23000000    50.29000000     7.26000000
   H     46.97000000    52.81000000     6.83000000
   H     44.30000000    51.66000000     6.42000000
   H     45.65000000    51.72000000     5.33000000
   N     46.29000000    54.24000000     8.99000000
   C     46.04000000    54.72000000    10.33000000
   C     45.20000000    55.99000000    10.36000000
   O     44.39000000    56.15000000    11.27000000
   C     47.36000000    55.03000000    11.02000000
   H     47.12000000    54.54000000     8.50000000
   H     45.53000000    53.97000000    10.94000000
   H     47.29000000    54.74000000    12.07000000
   H     48.15000000    54.48000000    10.51000000
   H     47.69000000    56.07000000    10.97000000
   N     45.35000000    56.82000000     9.33000000
   C     44.43000000    57.90000000     9.03000000
   C     43.18000000    57.52000000     8.26000000
   O     42.18000000    58.23000000     8.27000000
   C     45.22000000    59.05000000     8.39000000
   C     46.17000000    58.67000000     7.27000000
   O     46.84000000    59.61000000     6.78000000
   O     46.35000000    57.48000000     6.91000000
   H     46.02000000    56.57000000     8.62000000
   H     44.03000000    58.31000000     9.96000000
   H     45.70000000    59.67000000     9.14000000
   H     44.54000000    59.73000000     7.87000000
   N     43.23000000    56.28000000     7.76000000
   C     42.19000000    55.59000000     7.02000000
   C     41.81000000    56.22000000     5.68000000
   O     40.65000000    56.57000000     5.47000000
   H     44.06000000    55.73000000     7.90000000
   H     41.24000000    55.53000000     7.55000000
   H     42.63000000    54.63000000     6.75000000
   N     42.84000000    56.42000000     4.85000000
   C     42.66000000    57.12000000     3.59000000
   C     42.95000000    56.26000000     2.37000000
   O     42.99000000    56.89000000     1.31000000
   C     43.48000000    58.41000000     3.56000000
   C     44.99000000    58.19000000     3.57000000
   N     45.80000000    59.20000000     3.24000000
   O     45.52000000    57.14000000     3.93000000
   H     43.75000000    56.11000000     5.17000000
   H     41.63000000    57.41000000     3.38000000
   H     43.17000000    58.96000000     4.45000000
   H     43.22000000    59.04000000     2.72000000
   H     45.54000000    60.12000000     2.94000000
   H     46.75000000    58.91000000     3.05000000
   N     42.84000000    54.93000000     2.47000000
   C     42.91000000    54.02000000     1.35000000
   C     44.29000000    53.50000000     0.96000000
   O     44.40000000    52.46000000     0.31000000
   H     42.82000000    54.56000000     3.41000000
   H     42.36000000    54.41000000     0.50000000
   H     42.38000000    53.16000000     1.77000000
   N     45.32000000    54.23000000     1.38000000
   C     46.67000000    54.11000000     0.86000000
   C     47.77000000    54.21000000     1.91000000
   O     47.46000000    54.61000000     3.03000000
   C     46.90000000    55.19000000    -0.19000000
   C     45.98000000    55.03000000    -1.40000000
   O     46.79000000    56.47000000     0.40000000
   H     45.13000000    54.88000000     2.13000000
   H     46.89000000    53.12000000     0.46000000
   H     47.92000000    55.16000000    -0.56000000
   H     45.95000000    56.86000000     0.14000000
   H     46.32000000    55.40000000    -2.36000000
   H     45.81000000    53.96000000    -1.49000000
   H     45.04000000    55.53000000    -1.16000000
   N     48.96000000    53.65000000     1.64000000
   C     49.96000000    53.43000000     2.66000000
   C     51.00000000    54.54000000     2.63000000
   O     51.55000000    54.93000000     1.60000000
   C     50.51000000    52.01000000     2.49000000
   C     49.45000000    50.95000000     2.75000000
   C     51.73000000    51.63000000     3.32000000
   C     48.64000000    51.08000000     4.04000000
   H     49.20000000    53.37000000     0.70000000
   H     49.46000000    53.43000000     3.63000000
   H     50.87000000    51.90000000     1.47000000
   H     49.94000000    49.99000000     2.59000000
   H     48.72000000    51.13000000     1.96000000
   H     51.44000000    51.72000000     4.37000000
   H     52.12000000    50.71000000     2.90000000
   H     52.54000000    52.35000000     3.21000000
   H     48.21000000    50.12000000     4.33000000
   H     49.31000000    51.26000000     4.88000000
   H     47.95000000    51.92000000     4.07000000
   N     51.36000000    55.03000000     3.82000000
   C     52.32000000    56.05000000     4.21000000
   C     53.59000000    55.39000000     4.74000000
   O     53.51000000    54.28000000     5.27000000
   C     51.79000000    57.09000000     5.19000000
   C     50.52000000    57.83000000     4.77000000
   O     49.50000000    57.54000000     5.43000000
   O     50.56000000    58.56000000     3.75000000
   H     50.88000000    54.62000000     4.60000000
   H     52.69000000    56.52000000     3.30000000
   H     52.66000000    57.67000000     5.49000000
   H     51.45000000    56.49000000     6.03000000
   N     54.75000000    56.04000000     4.63000000
   C     56.03000000    55.47000000     4.99000000
   C     56.13000000    54.71000000     6.30000000
   O     56.66000000    53.60000000     6.37000000
   C     57.15000000    56.47000000     4.73000000
   C     58.53000000    55.89000000     4.96000000
   C     58.85000000    54.78000000     4.17000000
   C     59.49000000    56.45000000     5.81000000
   C     60.15000000    54.26000000     4.27000000
   C     60.79000000    55.95000000     5.86000000
   C     61.14000000    54.84000000     5.07000000
   H     54.77000000    56.91000000     4.13000000
   H     56.11000000    54.74000000     4.18000000
   H     57.03000000    57.39000000     5.30000000
   H     57.10000000    56.81000000     3.69000000
   H     58.17000000    54.31000000     3.48000000
   H     59.28000000    57.29000000     6.46000000
   H     60.36000000    53.37000000     3.71000000
   H     61.45000000    56.44000000     6.56000000
   H     62.11000000    54.36000000     5.10000000
   N     55.56000000    55.23000000     7.39000000
   C     55.54000000    54.54000000     8.66000000
   C     54.64000000    53.32000000     8.68000000
   O     54.91000000    52.32000000     9.35000000
   C     55.29000000    55.59000000     9.74000000
   C     55.56000000    56.91000000     9.03000000
   C     55.18000000    56.62000000     7.58000000
   H     56.54000000    54.17000000     8.90000000
   H     54.28000000    55.64000000    10.15000000
   H     55.96000000    55.51000000    10.59000000
   H     54.96000000    57.75000000     9.39000000
   H     56.63000000    57.08000000     8.97000000
   H     54.09000000    56.71000000     7.50000000
   H     55.71000000    57.32000000     6.94000000
   N     53.53000000    53.41000000     7.95000000
   C     52.58000000    52.34000000     7.71000000
   C     53.26000000    51.20000000     6.97000000
   O     53.10000000    50.08000000     7.45000000
   C     51.24000000    52.75000000     7.11000000
   C     50.56000000    54.00000000     7.67000000
   C     49.39000000    54.51000000     6.84000000
   O     49.28000000    54.37000000     5.61000000
   O     48.49000000    55.18000000     7.41000000
   H     53.47000000    54.14000000     7.25000000
   H     52.29000000    51.89000000     8.66000000
   H     50.51000000    51.96000000     7.28000000
   H     51.39000000    52.96000000     6.05000000
   H     51.26000000    54.80000000     7.90000000
   H     50.17000000    53.65000000     8.63000000
   N     53.98000000    51.42000000     5.86000000
   C     54.68000000    50.38000000     5.13000000
   H     55.66300000    50.22300000     5.57500000
   H     54.10800000    49.45400000     5.17800000
   H     54.79700000    50.68200000     4.08900000
   H     54.16000000    52.39000000     5.66000000
  Ca     47.41000000    56.10000000     5.17000000
   O     48.30000000    57.38000000     2.72000000
   H     48.25000000    57.45000000     1.76000000
   H     49.09000000    57.86000000     2.96000000

Ca 1.00



