%chk=loop2.apoCaM-CA-Ng.Init293.run40.water7.chk
%nprocshared=20
%mem=10GB
%nosave
#b3lyp/svp scf=(tight,noincore,xqc) Test 
#IOP(5/87=12) Density=Current Pop=(MK,readradii) iop(6/33=2) iop(6/42=6)

loop2.apoCaM-CA-Ng.Init293.run40.water7 

   -2  1 
   C     43.77000000    77.62000000    20.56000000
   C     43.96000000    77.13000000    21.98000000
   O     43.08000000    76.77000000    22.76000000
   H     43.08400000    78.46700000    20.55700000
   H     44.73100000    77.93100000    20.15100000
   H     43.35700000    76.81700000    19.95000000
   N     45.24000000    76.99000000    22.36000000
   C     45.60000000    76.43000000    23.64000000
   C     46.99000000    76.91000000    24.04000000
   O     47.16000000    77.54000000    25.07000000
   C     45.56000000    74.90000000    23.66000000
   C     46.20000000    74.24000000    24.88000000
   O     45.71000000    74.25000000    26.03000000
   O     47.31000000    73.71000000    24.68000000
   H     45.95000000    77.23000000    21.68000000
   H     44.87000000    76.78000000    24.37000000
   H     46.07000000    74.54000000    22.76000000
   H     44.52000000    74.59000000    23.64000000
   N     48.04000000    76.72000000    23.24000000
   C     49.35000000    77.26000000    23.54000000
   C     49.45000000    78.70000000    24.01000000
   O     50.32000000    79.08000000    24.80000000
   C     50.02000000    76.18000000    24.38000000
   H     47.87000000    76.17000000    22.40000000
   H     49.90000000    77.24000000    22.59000000
   H     50.02000000    75.17000000    23.97000000
   H     51.06000000    76.42000000    24.59000000
   H     49.49000000    76.00000000    25.32000000
   N     48.55000000    79.55000000    23.52000000
   C     48.50000000    80.95000000    23.89000000
   C     48.30000000    81.20000000    25.38000000
   O     48.90000000    82.15000000    25.88000000
   C     49.58000000    81.72000000    23.14000000
   C     49.85000000    81.40000000    21.67000000
   O     48.86000000    81.35000000    20.92000000
   O     50.97000000    81.41000000    21.12000000
   H     47.75000000    79.20000000    23.01000000
   H     47.53000000    81.24000000    23.50000000
   H     50.49000000    81.54000000    23.70000000
   H     49.33000000    82.78000000    23.23000000
   N     47.51000000    80.33000000    26.02000000
   C     47.33000000    80.28000000    27.45000000
   C     46.44000000    81.40000000    27.97000000
   O     45.52000000    81.81000000    27.27000000
   H     47.07000000    79.58000000    25.51000000
   H     48.36000000    80.45000000    27.80000000
   H     46.97000000    79.29000000    27.72000000
   N     46.77000000    81.93000000    29.15000000
   C     46.05000000    83.00000000    29.82000000
   C     44.53000000    83.06000000    29.77000000
   O     44.02000000    84.18000000    29.80000000
   C     46.76000000    84.23000000    29.26000000
   C     48.27000000    84.19000000    29.44000000
   N     49.04000000    84.27000000    28.35000000
   O     48.82000000    84.08000000    30.53000000
   H     47.57000000    81.51000000    29.59000000
   H     46.23000000    82.80000000    30.87000000
   H     46.45000000    85.15000000    29.75000000
   H     46.57000000    84.32000000    28.19000000
   H     48.63000000    84.16000000    27.44000000
   H     50.03000000    84.12000000    28.46000000
   N     43.76000000    82.00000000    29.53000000
   C     42.32000000    81.94000000    29.46000000
   C     41.70000000    81.57000000    28.12000000
   O     40.59000000    81.05000000    27.95000000
   H     44.34000000    81.23000000    29.23000000
   H     41.99000000    82.93000000    29.77000000
   H     42.02000000    81.32000000    30.31000000
   N     42.49000000    81.75000000    27.06000000
   C     42.23000000    81.20000000    25.75000000
   C     42.29000000    82.28000000    24.67000000
   O     42.21000000    83.48000000    24.91000000
   C     43.11000000    79.98000000    25.51000000
   C     43.15000000    78.92000000    26.61000000
   O     42.73000000    79.33000000    24.32000000
   H     43.34000000    82.28000000    27.21000000
   H     41.21000000    80.81000000    25.80000000
   H     44.10000000    80.39000000    25.32000000
   H     42.12000000    78.69000000    24.69000000
   H     42.16000000    78.55000000    26.84000000
   H     43.64000000    78.00000000    26.29000000
   H     43.73000000    79.17000000    27.51000000
   N     42.12000000    81.84000000    23.42000000
   C     41.94000000    82.62000000    22.21000000
   C     42.95000000    82.26000000    21.13000000
   O     43.37000000    81.11000000    21.25000000
   C     40.53000000    82.49000000    21.65000000
   C     40.11000000    81.09000000    21.22000000
   C     39.57000000    82.98000000    22.73000000
   C     38.60000000    80.93000000    21.03000000
   H     42.09000000    80.84000000    23.29000000
   H     42.18000000    83.66000000    22.39000000
   H     40.43000000    83.16000000    20.79000000
   H     40.39000000    80.28000000    21.90000000
   H     40.62000000    80.77000000    20.31000000
   H     39.65000000    82.23000000    23.52000000
   H     39.88000000    83.96000000    23.08000000
   H     38.53000000    83.03000000    22.39000000
   H     38.41000000    80.11000000    20.35000000
   H     38.19000000    80.60000000    21.99000000
   H     38.09000000    81.85000000    20.75000000
   N     43.24000000    83.14000000    20.17000000
   C     44.18000000    82.98000000    19.08000000
   C     45.16000000    84.13000000    18.94000000
   O     45.47000000    84.47000000    17.80000000
   C     43.35000000    82.60000000    17.85000000
   C     44.20000000    82.17000000    16.66000000
   O     43.79000000    82.41000000    15.51000000
   O     45.26000000    81.53000000    16.79000000
   H     42.67000000    83.97000000    20.23000000
   H     44.83000000    82.11000000    19.17000000
   H     42.81000000    83.47000000    17.47000000
   H     42.59000000    81.90000000    18.19000000
   N     45.68000000    84.66000000    20.05000000
   C     46.73000000    85.65000000    20.18000000
   C     46.42000000    87.07000000    20.63000000
   O     47.21000000    87.92000000    20.23000000
   C     47.80000000    85.10000000    21.11000000
   C     47.32000000    84.82000000    22.52000000
   C     46.48000000    83.71000000    22.68000000
   C     47.63000000    85.67000000    23.59000000
   C     45.87000000    83.54000000    23.93000000
   C     46.99000000    85.53000000    24.83000000
   C     46.10000000    84.45000000    24.97000000
   H     45.37000000    84.14000000    20.86000000
   H     47.19000000    85.61000000    19.19000000
   H     48.68000000    85.74000000    21.11000000
   H     48.23000000    84.17000000    20.72000000
   H     46.21000000    83.06000000    21.87000000
   H     48.27000000    86.52000000    23.44000000
   H     45.29000000    82.64000000    24.06000000
   H     47.25000000    86.19000000    25.64000000
   H     45.62000000    84.21000000    25.90000000
   N     45.42000000    87.39000000    21.45000000
   C     44.33000000    86.70000000    22.11000000
   C     43.08000000    86.66000000    21.24000000
   O     42.15000000    85.91000000    21.54000000
   C     44.19000000    87.36000000    23.48000000
   C     44.31000000    88.84000000    23.13000000
   C     45.28000000    88.74000000    21.95000000
   H     44.60000000    85.65000000    22.21000000
   H     43.28000000    87.10000000    24.01000000
   H     45.05000000    87.02000000    24.06000000
   H     43.37000000    89.19000000    22.71000000
   H     44.78000000    89.38000000    23.95000000
   H     45.14000000    89.41000000    21.09000000
   H     46.24000000    88.95000000    22.41000000
   N     42.85000000    87.54000000    20.27000000
   C     41.63000000    87.72000000    19.50000000
   C     41.30000000    86.54000000    18.60000000
   O     42.24000000    85.87000000    18.18000000
   C     41.79000000    88.98000000    18.66000000
   C     42.05000000    90.32000000    19.35000000
   C     42.34000000    91.43000000    18.35000000
   O     43.26000000    91.42000000    17.51000000
   O     41.55000000    92.40000000    18.39000000
   H     43.65000000    88.07000000    19.96000000
   H     40.88000000    87.95000000    20.26000000
   H     40.96000000    89.14000000    17.97000000
   H     42.67000000    88.67000000    18.10000000
   H     42.91000000    90.16000000    20.01000000
   H     41.20000000    90.60000000    19.97000000
   N     40.00000000    86.34000000    18.33000000
   C     39.56000000    85.23000000    17.52000000
   H     38.65300000    85.50900000    16.98400000
   H     40.33900000    84.97100000    16.80300000
   H     39.35400000    84.37200000    18.16000000
   H     39.32000000    86.92000000    18.80000000
  Ca     49.91000000    80.74000000    18.66000000
   O     50.68000000    83.45000000    18.58000000
   H     51.05000000    84.17000000    19.08000000
   H     50.01000000    83.85000000    18.02000000
   O     49.44000000    81.34000000    15.97000000
   H     49.89000000    81.08000000    15.17000000
   H     48.56000000    81.56000000    15.68000000
   O     50.86000000    78.89000000    16.96000000
   H     50.81000000    77.93000000    16.89000000
   H     51.47000000    79.15000000    16.27000000
   O     47.61000000    81.98000000    18.03000000
   H     46.85000000    81.68000000    17.54000000
   H     47.72000000    82.89000000    17.78000000
   O     50.80000000    78.84000000    20.32000000
   H     51.52000000    78.29000000    19.99000000
   H     51.06000000    79.06000000    21.21000000
   O     52.67000000    80.82000000    18.41000000
   H     53.40000000    80.51000000    17.87000000
   H     53.08000000    81.42000000    19.03000000
   O     48.10000000    78.92000000    18.18000000
   H     47.15000000    79.02000000    18.14000000
   H     48.25000000    77.98000000    18.14000000

Ca 1.00



