%chk=loop2.apoCaM-CA-Ng.Init295.run4.water2.chk
%nprocshared=20
%mem=10GB
%nosave
#b3lyp/svp scf=(tight,noincore,xqc) Test 
#IOP(5/87=12) Density=Current Pop=(MK,readradii) iop(6/33=2) iop(6/42=6)

loop2.apoCaM-CA-Ng.Init295.run4.water2 

   -2  1 
   C     43.21000000    45.65000000    29.57000000
   C     43.04000000    46.59000000    28.39000000
   O     43.36000000    46.12000000    27.30000000
   H     43.92400000    46.07700000    30.27400000
   H     42.24900000    45.51100000    30.06600000
   H     43.58000000    44.68700000    29.21800000
   N     42.79000000    47.87000000    28.64000000
   C     42.77000000    48.83000000    27.55000000
   C     41.76000000    48.58000000    26.44000000
   O     40.65000000    48.15000000    26.76000000
   C     42.82000000    50.25000000    28.09000000
   C     43.42000000    51.30000000    27.16000000
   O     44.17000000    50.96000000    26.22000000
   O     43.18000000    52.50000000    27.39000000
   H     42.55000000    48.14000000    29.58000000
   H     43.74000000    48.66000000    27.07000000
   H     43.45000000    50.23000000    28.98000000
   H     41.78000000    50.53000000    28.28000000
   N     42.13000000    48.70000000    25.16000000
   C     41.35000000    48.34000000    24.00000000
   C     41.92000000    47.11000000    23.32000000
   O     43.11000000    46.85000000    23.47000000
   C     41.30000000    49.59000000    23.12000000
   H     43.09000000    48.93000000    24.95000000
   H     40.34000000    48.12000000    24.34000000
   H     41.36000000    50.52000000    23.68000000
   H     42.09000000    49.58000000    22.37000000
   H     40.36000000    49.63000000    22.57000000
   N     41.17000000    46.31000000    22.55000000
   C     39.81000000    46.52000000    22.08000000
   C     38.76000000    46.33000000    23.16000000
   O     39.16000000    45.79000000    24.19000000
   C     39.51000000    45.56000000    20.93000000
   C     39.61000000    44.06000000    21.19000000
   O     40.75000000    43.58000000    21.40000000
   O     38.59000000    43.36000000    21.32000000
   H     41.70000000    45.49000000    22.29000000
   H     39.69000000    47.51000000    21.65000000
   H     40.21000000    45.78000000    20.13000000
   H     38.52000000    45.76000000    20.52000000
   N     37.52000000    46.73000000    22.87000000
   C     36.37000000    46.77000000    23.75000000
   C     36.61000000    47.75000000    24.89000000
   O     37.31000000    48.74000000    24.67000000
   H     37.32000000    47.23000000    22.01000000
   H     36.19000000    45.80000000    24.23000000
   H     35.46000000    47.14000000    23.29000000
   N     35.92000000    47.61000000    26.02000000
   C     35.26000000    46.43000000    26.53000000
   C     35.70000000    46.17000000    27.96000000
   O     35.58000000    47.02000000    28.84000000
   C     33.75000000    46.59000000    26.35000000
   C     33.29000000    46.58000000    24.90000000
   N     33.14000000    45.39000000    24.31000000
   O     33.10000000    47.63000000    24.29000000
   H     36.04000000    48.32000000    26.72000000
   H     35.60000000    45.52000000    26.02000000
   H     33.33000000    47.45000000    26.87000000
   H     33.29000000    45.75000000    26.88000000
   H     33.36000000    44.53000000    24.78000000
   H     32.83000000    45.35000000    23.35000000
   N     36.18000000    44.96000000    28.24000000
   C     36.46000000    44.53000000    29.60000000
   C     36.84000000    43.06000000    29.70000000
   O     37.13000000    42.57000000    30.79000000
   H     36.70000000    44.49000000    27.51000000
   H     35.57000000    44.62000000    30.22000000
   H     37.20000000    45.16000000    30.09000000
   N     36.93000000    42.30000000    28.61000000
   C     37.42000000    40.93000000    28.55000000
   C     38.67000000    40.78000000    27.70000000
   O     38.72000000    41.53000000    26.73000000
   C     36.34000000    39.94000000    28.15000000
   C     35.38000000    39.61000000    29.30000000
   O     35.51000000    40.43000000    27.12000000
   H     36.72000000    42.73000000    27.72000000
   H     37.62000000    40.61000000    29.57000000
   H     36.79000000    39.01000000    27.79000000
   H     36.01000000    40.45000000    26.30000000
   H     34.46000000    39.10000000    29.03000000
   H     35.91000000    39.02000000    30.05000000
   H     34.97000000    40.51000000    29.75000000
   N     39.44000000    39.74000000    28.05000000
   C     40.59000000    39.35000000    27.26000000
   C     40.29000000    37.98000000    26.65000000
   O     39.60000000    37.14000000    27.22000000
   C     41.88000000    39.26000000    28.06000000
   C     42.27000000    40.57000000    28.74000000
   C     41.89000000    38.17000000    29.13000000
   C     42.36000000    41.84000000    27.90000000
   H     39.22000000    39.14000000    28.82000000
   H     40.71000000    40.13000000    26.51000000
   H     42.73000000    38.97000000    27.44000000
   H     43.27000000    40.34000000    29.10000000
   H     41.60000000    40.74000000    29.59000000
   H     42.81000000    38.12000000    29.71000000
   H     41.02000000    38.16000000    29.79000000
   H     41.96000000    37.19000000    28.66000000
   H     42.95000000    42.55000000    28.47000000
   H     42.76000000    41.60000000    26.91000000
   H     41.36000000    42.26000000    27.77000000
   N     40.71000000    37.85000000    25.39000000
   C     40.36000000    36.70000000    24.57000000
   C     41.50000000    36.31000000    23.64000000
   O     42.43000000    37.11000000    23.55000000
   C     39.08000000    37.09000000    23.84000000
   C     39.26000000    38.46000000    23.20000000
   O     38.86000000    39.46000000    23.84000000
   O     39.61000000    38.54000000    22.01000000
   H     41.45000000    38.47000000    25.07000000
   H     40.18000000    35.82000000    25.19000000
   H     38.27000000    37.13000000    24.57000000
   H     38.79000000    36.33000000    23.11000000
   N     41.52000000    35.11000000    23.07000000
   C     42.63000000    34.64000000    22.27000000
   C     43.91000000    34.72000000    23.10000000
   O     43.87000000    34.44000000    24.30000000
   C     42.31000000    33.28000000    21.64000000
   C     43.35000000    32.74000000    20.70000000
   C     44.52000000    32.20000000    21.27000000
   C     43.30000000    32.82000000    19.31000000
   C     45.52000000    31.66000000    20.46000000
   C     44.36000000    32.40000000    18.50000000
   C     45.48000000    31.77000000    19.06000000
   H     40.76000000    34.47000000    23.26000000
   H     42.69000000    35.27000000    21.39000000
   H     41.36000000    33.37000000    21.11000000
   H     42.18000000    32.46000000    22.34000000
   H     44.62000000    32.16000000    22.34000000
   H     42.43000000    33.23000000    18.81000000
   H     46.32000000    31.13000000    20.95000000
   H     44.32000000    32.43000000    17.42000000
   H     46.24000000    31.43000000    18.37000000
   N     44.99000000    35.16000000    22.44000000
   C     46.33000000    35.22000000    22.99000000
   C     46.62000000    36.44000000    23.84000000
   O     47.71000000    36.53000000    24.41000000
   C     47.30000000    35.11000000    21.82000000
   C     46.50000000    35.43000000    20.56000000
   C     45.15000000    35.83000000    21.17000000
   H     46.51000000    34.35000000    23.62000000
   H     48.21000000    35.71000000    21.85000000
   H     47.51000000    34.04000000    21.73000000
   H     46.99000000    36.19000000    19.95000000
   H     46.41000000    34.52000000    19.97000000
   H     45.21000000    36.88000000    21.42000000
   H     44.34000000    35.66000000    20.45000000
   N     45.61000000    37.27000000    24.13000000
   C     45.68000000    38.55000000    24.81000000
   C     45.77000000    38.42000000    26.32000000
   O     46.19000000    39.39000000    26.96000000
   C     44.41000000    39.36000000    24.53000000
   C     44.14000000    39.81000000    23.10000000
   C     42.73000000    40.33000000    22.85000000
   O     41.84000000    40.53000000    23.70000000
   O     42.46000000    40.69000000    21.69000000
   H     44.75000000    37.03000000    23.66000000
   H     46.60000000    39.06000000    24.54000000
   H     44.44000000    40.36000000    24.97000000
   H     43.66000000    38.67000000    24.91000000
   H     44.40000000    39.01000000    22.41000000
   H     44.91000000    40.55000000    22.87000000
   N     45.52000000    37.25000000    26.91000000
   C     45.51000000    37.05000000    28.34000000
   H     44.87500000    37.80300000    28.80700000
   H     45.12200000    36.05700000    28.56600000
   H     46.52500000    37.14100000    28.72700000
   H     45.38000000    36.45000000    26.30000000
  Ca     39.91000000    41.15000000    22.02000000
   O     39.92000000    42.28000000    24.50000000
   H     39.39000000    42.09000000    25.27000000
   H     40.77000000    41.88000000    24.69000000
   O     40.17000000    41.33000000    19.32000000
   H     40.28000000    40.80000000    18.54000000
   H     40.25000000    42.24000000    19.01000000

Ca 1.00



