%chk=loop2.holoCaM.run17.water1.chk
%nprocshared=20
%mem=10GB
%nosave
#b3lyp/svp scf=(tight,noincore,xqc) Test 
#IOP(5/87=12) Density=Current Pop=(MK,readradii) iop(6/33=2) iop(6/42=6)

loop2.holoCaM.run17.water1 

   -2  1 
   C     45.39000000    53.69000000     1.79000000
   C     44.38000000    54.54000000     1.03000000
   O     44.06000000    55.61000000     1.54000000
   H     46.27100000    54.29000000     2.01700000
   H     44.94300000    53.33700000     2.71900000
   H     45.68000000    52.83600000     1.17800000
   N     43.76000000    54.12000000    -0.08000000
   C     42.82000000    54.89000000    -0.87000000
   C     41.52000000    55.17000000    -0.12000000
   O     40.75000000    54.24000000     0.13000000
   C     42.58000000    54.19000000    -2.20000000
   C     41.43000000    54.77000000    -3.01000000
   O     40.85000000    55.80000000    -2.61000000
   O     41.02000000    54.11000000    -4.00000000
   H     43.93000000    53.14000000    -0.27000000
   H     43.32000000    55.82000000    -1.11000000
   H     42.45000000    53.14000000    -1.94000000
   H     43.47000000    54.39000000    -2.79000000
   N     41.19000000    56.39000000     0.29000000
   C     40.12000000    56.71000000     1.22000000
   C     38.80000000    57.13000000     0.58000000
   O     37.88000000    57.59000000     1.26000000
   C     40.73000000    57.78000000     2.12000000
   H     41.77000000    57.18000000     0.03000000
   H     39.87000000    55.94000000     1.95000000
   H     41.13000000    58.63000000     1.56000000
   H     39.88000000    58.15000000     2.70000000
   H     41.44000000    57.21000000     2.71000000
   N     38.64000000    56.86000000    -0.71000000
   C     37.40000000    56.96000000    -1.45000000
   C     36.95000000    55.64000000    -2.07000000
   O     35.75000000    55.51000000    -2.33000000
   C     37.50000000    57.98000000    -2.58000000
   C     38.48000000    59.10000000    -2.29000000
   O     39.67000000    59.02000000    -2.67000000
   O     38.12000000    60.10000000    -1.63000000
   H     39.43000000    56.46000000    -1.20000000
   H     36.62000000    57.28000000    -0.76000000
   H     36.54000000    58.41000000    -2.83000000
   H     37.84000000    57.47000000    -3.48000000
   N     37.87000000    54.72000000    -2.35000000
   C     37.57000000    53.45000000    -2.99000000
   C     37.40000000    53.56000000    -4.50000000
   O     36.54000000    52.98000000    -5.16000000
   H     38.85000000    54.93000000    -2.25000000
   H     36.62000000    53.07000000    -2.61000000
   H     38.32000000    52.68000000    -2.79000000
   N     38.22000000    54.45000000    -5.06000000
   C     38.21000000    54.94000000    -6.42000000
   C     39.33000000    54.29000000    -7.23000000
   O     39.40000000    54.41000000    -8.45000000
   C     38.14000000    56.46000000    -6.53000000
   C     39.52000000    57.10000000    -6.45000000
   N     40.15000000    57.48000000    -7.57000000
   O     40.10000000    57.29000000    -5.39000000
   H     38.94000000    54.94000000    -4.54000000
   H     37.31000000    54.56000000    -6.92000000
   H     37.57000000    56.91000000    -5.72000000
   H     37.55000000    56.72000000    -7.41000000
   H     39.75000000    57.30000000    -8.48000000
   H     41.10000000    57.80000000    -7.44000000
   N     40.23000000    53.62000000    -6.50000000
   C     41.25000000    52.72000000    -7.00000000
   C     42.58000000    53.38000000    -7.36000000
   O     43.41000000    52.79000000    -8.05000000
   H     40.11000000    53.75000000    -5.51000000
   H     40.91000000    52.23000000    -7.91000000
   H     41.32000000    52.02000000    -6.18000000
   N     42.84000000    54.62000000    -6.96000000
   C     44.10000000    55.32000000    -7.07000000
   C     44.32000000    56.16000000    -5.81000000
   O     43.50000000    56.42000000    -4.94000000
   C     44.09000000    56.25000000    -8.28000000
   C     44.24000000    55.55000000    -9.62000000
   O     43.11000000    57.27000000    -8.34000000
   H     42.10000000    54.93000000    -6.34000000
   H     44.90000000    54.60000000    -7.24000000
   H     44.96000000    56.91000000    -8.36000000
   H     43.00000000    57.42000000    -9.28000000
   H     44.46000000    56.27000000   -10.41000000
   H     44.91000000    54.68000000    -9.61000000
   H     43.20000000    55.32000000    -9.85000000
   N     45.55000000    56.67000000    -5.76000000
   C     46.17000000    57.37000000    -4.65000000
   C     46.23000000    58.86000000    -4.98000000
   O     46.62000000    59.28000000    -6.07000000
   C     47.47000000    56.68000000    -4.25000000
   C     47.24000000    55.33000000    -3.59000000
   C     48.31000000    57.55000000    -3.32000000
   C     48.49000000    54.57000000    -3.15000000
   H     46.15000000    56.43000000    -6.54000000
   H     45.46000000    57.20000000    -3.84000000
   H     47.94000000    56.57000000    -5.23000000
   H     46.78000000    54.67000000    -4.33000000
   H     46.51000000    55.49000000    -2.80000000
   H     47.74000000    57.60000000    -2.40000000
   H     49.32000000    57.14000000    -3.26000000
   H     48.49000000    58.47000000    -3.88000000
   H     49.20000000    54.45000000    -3.97000000
   H     49.06000000    55.03000000    -2.35000000
   H     48.10000000    53.65000000    -2.71000000
   N     45.77000000    59.62000000    -3.99000000
   C     45.94000000    61.04000000    -3.76000000
   C     47.11000000    61.41000000    -2.86000000
   O     47.65000000    60.55000000    -2.17000000
   C     44.58000000    61.61000000    -3.36000000
   C     43.40000000    61.20000000    -4.22000000
   O     42.45000000    60.55000000    -3.72000000
   O     43.45000000    61.50000000    -5.44000000
   H     45.36000000    59.13000000    -3.20000000
   H     46.17000000    61.51000000    -4.71000000
   H     44.61000000    62.70000000    -3.37000000
   H     44.42000000    61.29000000    -2.33000000
   N     47.54000000    62.67000000    -2.77000000
   C     48.64000000    63.08000000    -1.93000000
   C     48.54000000    62.74000000    -0.45000000
   O     49.48000000    62.21000000     0.14000000
   C     49.05000000    64.53000000    -2.17000000
   C     50.06000000    65.05000000    -1.17000000
   C     51.28000000    64.37000000    -1.06000000
   C     49.85000000    66.14000000    -0.32000000
   C     52.25000000    64.75000000    -0.12000000
   C     50.90000000    66.63000000     0.46000000
   C     52.12000000    65.96000000     0.57000000
   H     47.05000000    63.34000000    -3.34000000
   H     49.49000000    62.52000000    -2.31000000
   H     48.15000000    65.14000000    -2.02000000
   H     49.41000000    64.71000000    -3.18000000
   H     51.41000000    63.40000000    -1.50000000
   H     48.85000000    66.52000000    -0.16000000
   H     53.14000000    64.15000000    -0.01000000
   H     50.73000000    67.54000000     1.02000000
   H     52.85000000    66.38000000     1.25000000
   N     47.42000000    63.00000000     0.23000000
   C     47.19000000    62.66000000     1.62000000
   C     46.93000000    61.18000000     1.82000000
   O     47.05000000    60.70000000     2.95000000
   C     46.09000000    63.59000000     2.13000000
   C     45.15000000    63.51000000     0.93000000
   C     46.16000000    63.56000000    -0.21000000
   H     48.13000000    62.91000000     2.10000000
   H     45.52000000    63.27000000     3.00000000
   H     46.57000000    64.54000000     2.36000000
   H     44.71000000    62.53000000     0.80000000
   H     44.46000000    64.36000000     0.83000000
   H     45.78000000    62.95000000    -1.03000000
   H     46.40000000    64.55000000    -0.61000000
   N     46.73000000    60.39000000     0.76000000
   C     46.70000000    58.95000000     0.83000000
   C     48.09000000    58.35000000     0.73000000
   O     48.41000000    57.40000000     1.45000000
   C     45.80000000    58.42000000    -0.28000000
   C     44.37000000    58.86000000     0.04000000
   C     43.43000000    58.48000000    -1.09000000
   O     43.96000000    58.18000000    -2.19000000
   O     42.19000000    58.63000000    -1.05000000
   H     46.57000000    60.80000000    -0.15000000
   H     46.27000000    58.65000000     1.79000000
   H     45.84000000    57.34000000    -0.21000000
   H     46.11000000    58.83000000    -1.25000000
   H     44.34000000    59.93000000     0.24000000
   H     44.03000000    58.37000000     0.95000000
   N     49.04000000    59.01000000     0.06000000
   C     50.45000000    58.70000000     0.04000000
   H     50.99700000    59.46400000     0.59300000
   H     50.61500000    57.72800000     0.50400000
   H     50.80300000    58.67600000    -0.99100000
   H     48.82000000    59.86000000    -0.45000000
  Ca     41.79000000    58.06000000    -3.51300000
   O     42.42000000    59.01000000    -6.08300000
   H     42.71000000    59.92000000    -6.11300000
   H     42.67000000    58.64000000    -6.92300000

Ca 1.00



