%chk=loop2.holoCaM.run41.water1.chk
%nprocshared=20
%mem=10GB
%nosave
#b3lyp/svp scf=(tight,noincore,xqc) Test 
#IOP(5/87=12) Density=Current Pop=(MK,readradii) iop(6/33=2) iop(6/42=6)

loop2.holoCaM.run41.water1 

   -2  1 
   C     63.91000000    90.06000000    24.58000000
   C     64.69000000    91.16000000    25.29000000
   O     65.85000000    91.40000000    24.96000000
   H     62.98700000    90.47400000    24.17500000
   H     64.51200000    89.65300000    23.76800000
   H     63.67200000    89.26700000    25.28900000
   N     64.00000000    91.90000000    26.16000000
   C     64.64000000    92.94000000    26.94000000
   C     65.66000000    92.41000000    27.94000000
   O     65.30000000    91.65000000    28.84000000
   C     63.57000000    93.69000000    27.73000000
   C     63.98000000    94.88000000    28.58000000
   O     65.15000000    95.31000000    28.69000000
   O     63.06000000    95.51000000    29.13000000
   H     63.00000000    91.80000000    26.30000000
   H     65.10000000    93.66000000    26.26000000
   H     63.02000000    92.98000000    28.34000000
   H     62.81000000    94.13000000    27.07000000
   N     66.91000000    92.77000000    27.67000000
   C     68.10000000    92.42000000    28.42000000
   C     68.31000000    93.33000000    29.62000000
   O     69.22000000    93.07000000    30.40000000
   C     69.24000000    92.42000000    27.41000000
   H     67.09000000    93.30000000    26.82000000
   H     67.91000000    91.44000000    28.86000000
   H     68.92000000    92.22000000    26.38000000
   H     69.69000000    93.41000000    27.34000000
   H     70.02000000    91.71000000    27.70000000
   N     67.51000000    94.39000000    29.78000000
   C     67.58000000    95.20000000    30.98000000
   C     66.57000000    94.88000000    32.07000000
   O     66.66000000    95.24000000    33.24000000
   C     67.61000000    96.71000000    30.80000000
   C     68.53000000    97.20000000    29.68000000
   O     69.76000000    97.19000000    29.88000000
   O     68.04000000    97.46000000    28.57000000
   H     66.82000000    94.63000000    29.09000000
   H     68.55000000    95.12000000    31.47000000
   H     68.07000000    97.14000000    31.68000000
   H     66.62000000    97.14000000    30.59000000
   N     65.39000000    94.44000000    31.61000000
   C     64.16000000    94.40000000    32.37000000
   C     63.65000000    95.80000000    32.68000000
   O     63.28000000    95.98000000    33.84000000
   H     65.35000000    94.02000000    30.69000000
   H     64.36000000    93.85000000    33.29000000
   H     63.38000000    93.87000000    31.82000000
   N     63.75000000    96.69000000    31.68000000
   C     63.22000000    98.03000000    31.76000000
   C     62.05000000    98.40000000    30.86000000
   O     61.68000000    99.55000000    30.67000000
   C     64.39000000    98.99000000    31.55000000
   C     65.10000000    99.06000000    30.21000000
   N     66.21000000    99.79000000    30.05000000
   O     64.67000000    98.43000000    29.25000000
   H     64.10000000    96.31000000    30.82000000
   H     62.77000000    98.14000000    32.75000000
   H     65.22000000    98.75000000    32.22000000
   H     64.09000000   100.01000000    31.80000000
   H     66.51000000   100.32000000    30.85000000
   H     66.76000000    99.76000000    29.20000000
   N     61.36000000    97.33000000    30.44000000
   C     60.18000000    97.45000000    29.61000000
   C     60.17000000    98.35000000    28.39000000
   O     59.13000000    98.80000000    27.91000000
   H     61.82000000    96.45000000    30.60000000
   H     59.35000000    97.78000000    30.24000000
   H     60.05000000    96.46000000    29.17000000
   N     61.31000000    98.43000000    27.70000000
   C     61.45000000    98.93000000    26.34000000
   C     62.50000000    98.15000000    25.56000000
   O     63.37000000    97.52000000    26.16000000
   C     61.80000000   100.40000000    26.20000000
   C     60.79000000   101.51000000    26.48000000
   O     62.88000000   100.77000000    27.04000000
   H     62.14000000    98.08000000    28.15000000
   H     60.52000000    98.69000000    25.84000000
   H     62.20000000   100.50000000    25.19000000
   H     62.47000000   101.26000000    27.75000000
   H     61.31000000   102.46000000    26.34000000
   H     59.90000000   101.41000000    25.86000000
   H     60.50000000   101.36000000    27.52000000
   N     62.30000000    98.15000000    24.24000000
   C     63.19000000    97.58000000    23.24000000
   C     64.22000000    98.55000000    22.69000000
   O     63.82000000    99.60000000    22.21000000
   C     62.38000000    96.93000000    22.12000000
   C     61.20000000    96.04000000    22.52000000
   C     63.23000000    96.04000000    21.22000000
   C     60.11000000    95.97000000    21.46000000
   H     61.58000000    98.78000000    23.92000000
   H     63.66000000    96.80000000    23.83000000
   H     61.97000000    97.64000000    21.41000000
   H     60.68000000    96.48000000    23.38000000
   H     61.58000000    95.04000000    22.73000000
   H     64.00000000    96.59000000    20.67000000
   H     63.71000000    95.37000000    21.93000000
   H     62.67000000    95.43000000    20.52000000
   H     59.18000000    95.54000000    21.85000000
   H     59.83000000    96.94000000    21.04000000
   H     60.47000000    95.51000000    20.54000000
   N     65.50000000    98.26000000    22.97000000
   C     66.62000000    98.92000000    22.33000000
   C     66.87000000    98.40000000    20.92000000
   O     66.38000000    97.34000000    20.53000000
   C     67.87000000    98.73000000    23.19000000
   C     67.55000000    99.16000000    24.62000000
   O     67.69000000    98.28000000    25.49000000
   O     67.35000000   100.35000000    24.94000000
   H     65.62000000    97.31000000    23.30000000
   H     66.40000000    99.99000000    22.28000000
   H     68.74000000    99.23000000    22.78000000
   H     68.08000000    97.66000000    23.22000000
   N     67.80000000    99.06000000    20.23000000
   C     68.09000000    98.66000000    18.86000000
   C     68.56000000    97.22000000    18.67000000
   O     67.96000000    96.54000000    17.84000000
   C     68.83000000    99.75000000    18.10000000
   C     69.56000000    99.37000000    16.84000000
   C     68.88000000    98.95000000    15.70000000
   C     70.96000000    99.33000000    16.85000000
   C     69.54000000    98.57000000    14.52000000
   C     71.61000000    98.94000000    15.67000000
   C     70.94000000    98.57000000    14.50000000
   H     68.25000000    99.83000000    20.69000000
   H     67.13000000    98.60000000    18.36000000
   H     69.58000000   100.17000000    18.77000000
   H     68.09000000   100.50000000    17.81000000
   H     67.81000000    99.10000000    15.62000000
   H     71.52000000    99.60000000    17.74000000
   H     69.01000000    98.19000000    13.66000000
   H     72.68000000    98.79000000    15.66000000
   H     71.53000000    98.37000000    13.61000000
   N     69.63000000    96.76000000    19.33000000
   C     70.00000000    95.36000000    19.37000000
   C     69.04000000    94.38000000    20.03000000
   O     68.92000000    93.24000000    19.58000000
   C     71.40000000    95.42000000    19.98000000
   C     71.44000000    96.64000000    20.89000000
   C     70.54000000    97.58000000    20.11000000
   H     70.15000000    95.10000000    18.33000000
   H     71.61000000    94.52000000    20.56000000
   H     72.14000000    95.55000000    19.19000000
   H     71.01000000    96.52000000    21.88000000
   H     72.47000000    96.99000000    20.92000000
   H     70.01000000    98.22000000    20.81000000
   H     71.20000000    98.14000000    19.45000000
   N     68.30000000    94.85000000    21.04000000
   C     67.10000000    94.09000000    21.30000000
   C     65.96000000    94.00000000    20.30000000
   O     65.35000000    92.94000000    20.17000000
   C     66.52000000    94.73000000    22.56000000
   C     67.33000000    94.53000000    23.84000000
   C     66.69000000    95.27000000    25.01000000
   O     65.66000000    95.95000000    24.83000000
   O     67.14000000    95.15000000    26.17000000
   H     68.33000000    95.78000000    21.44000000
   H     67.46000000    93.09000000    21.55000000
   H     65.63000000    94.18000000    22.85000000
   H     66.24000000    95.77000000    22.40000000
   H     68.33000000    94.92000000    23.66000000
   H     67.32000000    93.47000000    24.07000000
   N     65.80000000    94.97000000    19.40000000
   C     64.97000000    94.81000000    18.22000000
   H     64.08000000    95.43200000    18.31600000
   H     65.53100000    95.11400000    17.33600000
   H     64.67400000    93.76600000    18.12200000
   H     66.39000000    95.77000000    19.58000000
  Ca     65.87000000    97.18000000    27.14000000
   O     65.87000000    99.71500000    27.12000000
   H     65.33000000   100.40500000    27.52000000
   H     66.27000000   100.14500000    26.36000000

Ca 1.00



