%chk=loop2.apoCaM-CA-Ng.Init293.run79.water7.chk
%nprocshared=20
%mem=10GB
%nosave
#b3lyp/svp scf=(tight,noincore,xqc) Test 
#IOP(5/87=12) Density=Current Pop=(MK,readradii) iop(6/33=2) iop(6/42=6)

loop2.apoCaM-CA-Ng.Init293.run79.water7 

   -2  1 
   C     82.55000000    83.81000000    32.26000000
   C     83.35000000    85.05000000    31.89000000
   O     82.77000000    86.11000000    31.68000000
   H     81.58900000    83.83200000    31.74600000
   H     83.10100000    82.91900000    31.96100000
   H     82.38500000    83.79100000    33.33700000
   N     84.67000000    84.89000000    31.77000000
   C     85.64000000    85.81000000    31.24000000
   C     85.41000000    86.29000000    29.81000000
   O     85.35000000    87.48000000    29.51000000
   C     87.08000000    85.36000000    31.48000000
   C     88.16000000    86.29000000    30.95000000
   O     88.26000000    87.38000000    31.54000000
   O     88.88000000    85.95000000    29.98000000
   H     85.06000000    83.98000000    31.97000000
   H     85.52000000    86.77000000    31.76000000
   H     87.18000000    84.37000000    31.03000000
   H     87.17000000    85.30000000    32.57000000
   N     85.13000000    85.30000000    28.96000000
   C     84.92000000    85.42000000    27.53000000
   C     83.95000000    86.52000000    27.10000000
   O     84.02000000    87.09000000    26.01000000
   C     86.31000000    85.37000000    26.91000000
   H     85.18000000    84.36000000    29.30000000
   H     84.36000000    84.53000000    27.25000000
   H     86.38000000    85.46000000    25.83000000
   H     86.92000000    86.14000000    27.38000000
   H     86.81000000    84.44000000    27.18000000
   N     82.95000000    86.71000000    27.96000000
   C     81.83000000    87.62000000    27.84000000
   C     82.12000000    89.11000000    27.68000000
   O     81.13000000    89.77000000    27.40000000
   C     80.91000000    87.15000000    26.72000000
   C     80.42000000    85.72000000    26.85000000
   O     80.18000000    85.18000000    27.95000000
   O     80.08000000    85.00000000    25.89000000
   H     82.96000000    86.22000000    28.84000000
   H     81.18000000    87.65000000    28.71000000
   H     81.48000000    87.34000000    25.81000000
   H     80.03000000    87.80000000    26.79000000
   N     83.25000000    89.65000000    28.16000000
   C     83.60000000    91.05000000    28.20000000
   C     82.53000000    91.95000000    28.80000000
   O     81.86000000    91.52000000    29.74000000
   H     83.94000000    89.03000000    28.56000000
   H     83.73000000    91.29000000    27.15000000
   H     84.58000000    91.26000000    28.64000000
   N     82.40000000    93.21000000    28.38000000
   C     81.64000000    94.19000000    29.13000000
   C     82.19000000    94.41000000    30.54000000
   O     81.48000000    94.88000000    31.42000000
   C     80.12000000    94.09000000    29.06000000
   C     79.40000000    94.16000000    27.72000000
   N     78.06000000    94.14000000    27.75000000
   O     79.93000000    94.28000000    26.62000000
   H     83.01000000    93.53000000    27.64000000
   H     81.89000000    95.11000000    28.61000000
   H     79.68000000    94.97000000    29.52000000
   H     79.83000000    93.13000000    29.50000000
   H     77.71000000    93.78000000    28.63000000
   H     77.57000000    94.14000000    26.87000000
   N     83.43000000    94.01000000    30.85000000
   C     83.97000000    94.06000000    32.19000000
   C     83.63000000    92.91000000    33.12000000
   O     84.23000000    92.75000000    34.18000000
   H     84.03000000    93.70000000    30.10000000
   H     83.84000000    95.01000000    32.70000000
   H     85.02000000    93.90000000    31.96000000
   N     82.81000000    91.91000000    32.77000000
   C     82.64000000    90.64000000    33.46000000
   C     81.19000000    90.36000000    33.81000000
   O     80.36000000    90.98000000    33.14000000
   C     83.15000000    89.49000000    32.59000000
   C     84.58000000    89.79000000    32.17000000
   O     83.19000000    88.31000000    33.36000000
   H     82.26000000    92.13000000    31.96000000
   H     83.25000000    90.52000000    34.36000000
   H     82.55000000    89.26000000    31.71000000
   H     82.75000000    87.69000000    32.78000000
   H     84.68000000    90.46000000    31.31000000
   H     85.13000000    90.08000000    33.06000000
   H     85.04000000    88.90000000    31.75000000
   N     80.90000000    89.46000000    34.75000000
   C     79.60000000    88.87000000    35.01000000
   C     79.02000000    88.35000000    33.70000000
   O     79.71000000    87.66000000    32.96000000
   C     79.73000000    87.89000000    36.17000000
   C     80.16000000    88.59000000    37.45000000
   C     78.42000000    87.11000000    36.31000000
   C     80.40000000    87.68000000    38.65000000
   H     81.73000000    89.11000000    35.19000000
   H     79.04000000    89.75000000    35.32000000
   H     80.50000000    87.13000000    36.06000000
   H     79.32000000    89.23000000    37.72000000
   H     81.07000000    89.14000000    37.21000000
   H     78.52000000    86.43000000    37.15000000
   H     77.56000000    87.77000000    36.46000000
   H     78.33000000    86.43000000    35.47000000
   H     79.52000000    87.18000000    39.07000000
   H     81.22000000    87.00000000    38.39000000
   H     80.70000000    88.41000000    39.40000000
   N     77.71000000    88.54000000    33.48000000
   C     77.04000000    87.83000000    32.41000000
   C     76.17000000    88.75000000    31.56000000
   O     74.99000000    88.46000000    31.39000000
   C     76.28000000    86.61000000    32.92000000
   C     75.82000000    85.73000000    31.77000000
   O     76.56000000    85.53000000    30.79000000
   O     74.76000000    85.08000000    31.95000000
   H     77.17000000    89.16000000    34.06000000
   H     77.77000000    87.54000000    31.65000000
   H     75.51000000    86.92000000    33.62000000
   H     77.02000000    86.08000000    33.51000000
   N     76.69000000    89.92000000    31.17000000
   C     75.81000000    90.97000000    30.71000000
   C     76.36000000    92.39000000    30.81000000
   O     76.57000000    93.06000000    29.81000000
   C     75.50000000    90.61000000    29.26000000
   C     74.37000000    91.41000000    28.66000000
   C     74.68000000    92.24000000    27.57000000
   C     73.06000000    91.20000000    29.08000000
   C     73.70000000    93.06000000    27.01000000
   C     72.11000000    92.14000000    28.64000000
   C     72.41000000    92.95000000    27.54000000
   H     77.68000000    90.09000000    31.21000000
   H     74.93000000    90.97000000    31.36000000
   H     75.25000000    89.56000000    29.16000000
   H     76.38000000    90.83000000    28.65000000
   H     75.69000000    92.30000000    27.18000000
   H     72.91000000    90.54000000    29.93000000
   H     74.03000000    93.73000000    26.23000000
   H     71.16000000    92.17000000    29.15000000
   H     71.65000000    93.57000000    27.09000000
   N     76.81000000    92.80000000    32.00000000
   C     77.20000000    92.04000000    33.17000000
   C     76.04000000    91.61000000    34.06000000
   O     76.11000000    90.57000000    34.71000000
   C     78.04000000    92.98000000    34.03000000
   C     78.67000000    93.85000000    32.95000000
   C     77.43000000    94.10000000    32.10000000
   H     77.80000000    91.18000000    32.87000000
   H     77.47000000    93.59000000    34.73000000
   H     78.73000000    92.38000000    34.63000000
   H     78.99000000    94.83000000    33.32000000
   H     79.44000000    93.26000000    32.46000000
   H     76.71000000    94.80000000    32.54000000
   H     77.83000000    94.45000000    31.15000000
   N     75.02000000    92.46000000    34.15000000
   C     73.81000000    92.33000000    34.95000000
   C     74.03000000    91.70000000    36.32000000
   O     73.43000000    90.70000000    36.72000000
   C     72.85000000    91.48000000    34.13000000
   C     72.31000000    92.18000000    32.88000000
   C     71.24000000    91.33000000    32.23000000
   O     70.29000000    91.85000000    31.60000000
   O     71.35000000    90.08000000    32.27000000
   H     75.00000000    93.38000000    33.74000000
   H     73.39000000    93.32000000    35.12000000
   H     71.97000000    91.24000000    34.73000000
   H     73.36000000    90.59000000    33.74000000
   H     73.13000000    92.41000000    32.19000000
   H     71.76000000    93.06000000    33.21000000
   N     74.92000000    92.23000000    37.16000000
   C     75.34000000    91.78000000    38.47000000
   H     76.20500000    92.36000000    38.79300000
   H     74.52500000    91.91800000    39.18100000
   H     75.60800000    90.72400000    38.42400000
   H     75.22000000    93.13000000    36.79000000
  Ca     78.13000000    84.46000000    29.21000000
   O     79.80000000    86.01000000    30.74000000
   H     79.71000000    86.51000000    31.56000000
   H     80.74000000    85.94000000    30.61000000
   O     77.68000000    87.03000000    28.33000000
   H     76.76000000    86.89000000    28.08000000
   H     77.77000000    87.98000000    28.40000000
   O     75.82000000    84.60000000    27.74000000
   H     74.94000000    84.72000000    28.11000000
   H     75.69000000    84.61000000    26.80000000
   O     78.78000000    83.28000000    31.63000000
   H     79.26000000    82.50000000    31.34000000
   H     78.34000000    83.01000000    32.43000000
   O     78.33000000    83.34000000    26.79000000
   H     79.14000000    83.69000000    26.41000000
   H     77.94000000    82.83000000    26.08000000
   O     77.17000000    81.93000000    29.51000000
   H     77.62000000    81.08000000    29.47000000
   H     76.58000000    81.85000000    30.26000000
   O     80.32000000    82.35000000    29.52000000
   H     80.43000000    81.43000000    29.77000000
   H     81.07000000    82.54000000    28.96000000

Ca 1.00



