%chk=loop2.apoCaM-CA-Ng.Init293.run55.water6.chk
%nprocshared=20
%mem=10GB
%nosave
#b3lyp/svp scf=(tight,noincore,xqc) Test 
#IOP(5/87=12) Density=Current Pop=(MK,readradii) iop(6/33=2) iop(6/42=6)

loop2.apoCaM-CA-Ng.Init293.run55.water6 

   -2  1 
   C     64.68000000    95.48000000   100.80000000
   C     65.46000000    95.33000000   102.10000000
   O     65.03000000    94.60000000   102.98000000
   H     63.78400000    96.07400000   100.98100000
   H     65.30200000    95.98000000   100.05800000
   H     64.39400000    94.49500000   100.43100000
   N     66.65000000    95.91000000   102.25000000
   C     67.53000000    95.72000000   103.39000000
   C     67.08000000    96.54000000   104.59000000
   O     67.31000000    96.18000000   105.75000000
   C     68.94000000    96.15000000   102.98000000
   C     69.88000000    95.51000000   104.00000000
   O     70.94000000    96.13000000   104.18000000
   O     69.62000000    94.42000000   104.57000000
   H     66.96000000    96.37000000   101.41000000
   H     67.47000000    94.66000000   103.63000000
   H     69.01000000    97.24000000   102.95000000
   H     69.14000000    95.70000000   102.01000000
   N     66.49000000    97.71000000   104.34000000
   C     65.98000000    98.60000000   105.36000000
   C     64.77000000    98.03000000   106.09000000
   O     64.50000000    98.38000000   107.24000000
   C     67.16000000    99.25000000   106.06000000
   H     66.53000000    98.07000000   103.39000000
   H     65.58000000    99.38000000   104.71000000
   H     66.87000000   100.29000000   106.22000000
   H     67.49000000    98.64000000   106.91000000
   H     68.05000000    99.34000000   105.44000000
   N     64.12000000    97.03000000   105.48000000
   C     63.00000000    96.37000000   106.10000000
   C     63.36000000    95.68000000   107.41000000
   O     62.56000000    95.41000000   108.30000000
   C     61.70000000    97.16000000   106.25000000
   C     61.28000000    97.64000000   104.87000000
   O     61.18000000    96.85000000   103.90000000
   O     61.02000000    98.85000000   104.73000000
   H     64.31000000    96.93000000   104.49000000
   H     62.74000000    95.53000000   105.46000000
   H     61.77000000    98.08000000   106.82000000
   H     60.96000000    96.49000000   106.69000000
   N     64.62000000    95.26000000   107.53000000
   C     65.27000000    94.69000000   108.70000000
   C     64.74000000    93.29000000   108.98000000
   O     64.34000000    92.64000000   108.02000000
   H     65.29000000    95.53000000   106.82000000
   H     65.07000000    95.30000000   109.58000000
   H     66.35000000    94.74000000   108.59000000
   N     64.77000000    92.86000000   110.25000000
   C     64.25000000    91.60000000   110.76000000
   C     64.56000000    90.41000000   109.86000000
   O     63.66000000    89.67000000   109.48000000
   C     62.82000000    91.74000000   111.26000000
   C     62.63000000    92.69000000   112.43000000
   N     62.89000000    92.12000000   113.61000000
   O     62.12000000    93.81000000   112.32000000
   H     65.14000000    93.44000000   110.98000000
   H     64.86000000    91.42000000   111.64000000
   H     62.38000000    90.77000000   111.49000000
   H     62.24000000    92.08000000   110.40000000
   H     63.41000000    91.27000000   113.78000000
   H     62.32000000    92.40000000   114.39000000
   N     65.82000000    90.19000000   109.49000000
   C     66.29000000    89.04000000   108.73000000
   C     65.90000000    89.06000000   107.26000000
   O     66.25000000    88.15000000   106.51000000
   H     66.57000000    90.76000000   109.85000000
   H     65.95000000    88.10000000   109.17000000
   H     67.37000000    88.92000000   108.83000000
   N     65.35000000    90.14000000   106.70000000
   C     65.06000000    90.35000000   105.29000000
   C     63.68000000    89.81000000   104.94000000
   O     62.71000000    89.92000000   105.68000000
   C     65.21000000    91.79000000   104.83000000
   C     66.56000000    92.44000000   105.13000000
   O     64.95000000    91.89000000   103.45000000
   H     65.17000000    90.89000000   107.35000000
   H     65.83000000    89.81000000   104.72000000
   H     64.44000000    92.34000000   105.37000000
   H     64.99000000    92.80000000   103.16000000
   H     66.70000000    92.35000000   106.20000000
   H     67.40000000    91.93000000   104.66000000
   H     66.53000000    93.51000000   104.92000000
   N     63.52000000    89.32000000   103.71000000
   C     62.28000000    89.13000000   102.98000000
   C     61.31000000    90.31000000   103.00000000
   O     61.82000000    91.42000000   102.85000000
   C     62.63000000    88.70000000   101.56000000
   C     63.58000000    89.60000000   100.78000000
   C     63.05000000    87.23000000   101.47000000
   C     63.54000000    89.63000000    99.26000000
   H     64.36000000    89.22000000   103.16000000
   H     61.76000000    88.27000000   103.41000000
   H     61.68000000    88.76000000   101.04000000
   H     64.61000000    89.32000000   101.03000000
   H     63.39000000    90.63000000   101.08000000
   H     63.03000000    86.95000000   100.42000000
   H     63.97000000    87.03000000   102.02000000
   H     62.31000000    86.64000000   102.03000000
   H     62.68000000    90.26000000    99.06000000
   H     64.45000000    89.93000000    98.74000000
   H     63.30000000    88.67000000    98.79000000
   N     60.02000000    90.03000000   103.14000000
   C     59.05000000    91.02000000   103.60000000
   C     58.44000000    90.65000000   104.95000000
   O     57.23000000    90.52000000   105.03000000
   C     57.99000000    91.19000000   102.51000000
   C     57.32000000    92.55000000   102.54000000
   O     57.90000000    93.54000000   103.05000000
   O     56.23000000    92.64000000   101.93000000
   H     59.65000000    89.10000000   102.98000000
   H     59.59000000    91.96000000   103.68000000
   H     57.37000000    90.30000000   102.52000000
   H     58.51000000    91.19000000   101.55000000
   N     59.28000000    90.37000000   105.95000000
   C     58.79000000    90.21000000   107.31000000
   C     58.51000000    88.80000000   107.81000000
   O     57.39000000    88.53000000   108.25000000
   C     59.73000000    90.89000000   108.30000000
   C     59.31000000    90.81000000   109.75000000
   C     60.03000000    90.02000000   110.65000000
   C     58.44000000    91.79000000   110.25000000
   C     59.65000000    90.03000000   112.00000000
   C     58.12000000    91.85000000   111.62000000
   C     58.73000000    90.96000000   112.51000000
   H     60.27000000    90.45000000   105.76000000
   H     57.88000000    90.79000000   107.39000000
   H     59.81000000    91.92000000   107.96000000
   H     60.73000000    90.48000000   108.13000000
   H     60.76000000    89.32000000   110.27000000
   H     57.95000000    92.50000000   109.61000000
   H     60.09000000    89.33000000   112.69000000
   H     57.41000000    92.56000000   112.01000000
   H     58.49000000    90.90000000   113.56000000
   N     59.39000000    87.80000000   107.72000000
   C     60.60000000    87.71000000   106.93000000
   C     60.45000000    86.82000000   105.71000000
   O     61.42000000    86.34000000   105.12000000
   C     61.64000000    87.14000000   107.89000000
   C     60.78000000    86.05000000   108.54000000
   C     59.33000000    86.50000000   108.36000000
   H     60.88000000    88.73000000   106.66000000
   H     62.52000000    86.67000000   107.46000000
   H     61.87000000    87.92000000   108.62000000
   H     60.97000000    85.08000000   108.07000000
   H     60.97000000    86.05000000   109.61000000
   H     58.78000000    85.70000000   107.85000000
   H     58.74000000    86.57000000   109.27000000
   N     59.25000000    86.61000000   105.16000000
   C     59.00000000    85.80000000   103.98000000
   C     59.03000000    86.49000000   102.63000000
   O     58.70000000    87.66000000   102.48000000
   C     57.63000000    85.13000000   104.13000000
   C     57.45000000    84.32000000   105.41000000
   C     56.07000000    83.71000000   105.61000000
   O     55.91000000    82.47000000   105.61000000
   O     55.09000000    84.44000000   105.83000000
   H     58.46000000    86.98000000   105.67000000
   H     59.75000000    85.01000000   103.93000000
   H     57.51000000    84.44000000   103.30000000
   H     56.89000000    85.90000000   103.90000000
   H     57.67000000    84.87000000   106.33000000
   H     58.16000000    83.49000000   105.44000000
   N     59.29000000    85.68000000   101.59000000
   C     59.18000000    85.93000000   100.17000000
   H     58.69000000    86.89000000   100.00800000
   H     60.17500000    85.95100000    99.72600000
   H     58.59100000    85.13900000    99.70600000
   H     59.50000000    84.71000000   101.79000000
  Ca     59.84000000    95.05000000   102.69400000
   O     59.75000000    93.95000000   100.33400000
   H     58.87000000    93.92000000    99.97400000
   H     60.31000000    94.17000000    99.59400000
   O     58.05000000    96.37000000   104.31400000
   H     58.03000000    96.44000000   105.27400000
   H     57.95000000    97.28000000   104.00400000
   O     60.00000000    94.02000000   105.28400000
   H     59.38000000    94.10000000   106.01400000
   H     60.63000000    93.37000000   105.57400000
   O     58.08000000    96.03000000   100.98400000
   H     57.82000000    95.62000000   100.15400000
   H     57.98000000    96.97000000   100.83400000
   O     62.26000000    93.94000000   102.98400000
   H     62.34000000    92.98000000   102.96400000
   H     63.15000000    94.25000000   102.82400000
   O     60.98000000    96.64000000   100.80400000
   H     61.52000000    97.44000000   100.75400000
   H     60.69000000    96.50000000    99.90400000

Ca 1.00



