%chk=loop2.apoCaM-CA-Ng.Init295.run37.water5.chk
%nprocshared=20
%mem=10GB
%nosave
#b3lyp/svp scf=(tight,noincore,xqc) Test 
#IOP(5/87=12) Density=Current Pop=(MK,readradii) iop(6/33=2) iop(6/42=6)

loop2.apoCaM-CA-Ng.Init295.run37.water5 

   -2  1 
   C     96.59000000    54.08000000    46.54000000
   C     97.97000000    54.57000000    46.13000000
   O     98.15000000    55.13000000    45.06000000
   H     95.87100000    54.32400000    45.75800000
   H     96.61600000    53.00000000    46.68500000
   H     96.29300000    54.56500000    47.47000000
   N     99.02000000    54.33000000    46.93000000
   C    100.41000000    54.44000000    46.54000000
   C    101.06000000    55.80000000    46.72000000
   O    101.80000000    55.98000000    47.69000000
   C    101.23000000    53.30000000    47.17000000
   C    102.59000000    53.00000000    46.57000000
   O    103.41000000    52.42000000    47.31000000
   O    102.86000000    53.30000000    45.38000000
   H     98.84000000    53.98000000    47.86000000
   H    100.38000000    54.22000000    45.48000000
   H    100.72000000    52.34000000    47.14000000
   H    101.32000000    53.44000000    48.24000000
   N    100.53000000    56.75000000    45.95000000
   C    100.96000000    58.14000000    45.94000000
   C     99.83000000    59.15000000    45.93000000
   O     98.69000000    58.81000000    45.64000000
   C    101.91000000    58.25000000    44.75000000
   H     99.73000000    56.50000000    45.38000000
   H    101.54000000    58.26000000    46.85000000
   H    102.04000000    57.29000000    44.26000000
   H    101.44000000    58.85000000    43.97000000
   H    102.89000000    58.57000000    45.10000000
   N    100.03000000    60.45000000    46.19000000
   C    101.23000000    60.95000000    46.83000000
   C    101.39000000    60.54000000    48.29000000
   O    100.55000000    59.92000000    48.92000000
   C    101.30000000    62.47000000    46.70000000
   C    101.13000000    62.82000000    45.23000000
   O    102.03000000    62.48000000    44.43000000
   O    100.03000000    63.30000000    44.89000000
   H     99.25000000    61.08000000    46.11000000
   H    102.09000000    60.58000000    46.26000000
   H    102.29000000    62.78000000    47.03000000
   H    100.48000000    62.88000000    47.30000000
   N    102.57000000    60.79000000    48.86000000
   C    103.01000000    60.35000000    50.17000000
   C    103.18000000    58.84000000    50.20000000
   O    103.42000000    58.26000000    49.14000000
   H    103.30000000    61.14000000    48.26000000
   H    102.29000000    60.69000000    50.91000000
   H    103.98000000    60.77000000    50.46000000
   N    103.18000000    58.10000000    51.31000000
   C    103.07000000    58.67000000    52.64000000
   C    101.68000000    59.17000000    53.02000000
   O    101.50000000    59.68000000    54.13000000
   C    103.71000000    57.69000000    53.62000000
   C    105.18000000    57.44000000    53.30000000
   N    105.55000000    56.21000000    52.95000000
   O    106.00000000    58.35000000    53.35000000
   H    103.25000000    57.10000000    51.18000000
   H    103.77000000    59.49000000    52.81000000
   H    103.27000000    56.70000000    53.46000000
   H    103.55000000    58.04000000    54.64000000
   H    104.99000000    55.40000000    53.18000000
   H    106.40000000    56.12000000    52.40000000
   N    100.66000000    58.88000000    52.22000000
   C     99.30000000    59.24000000    52.58000000
   C     98.96000000    60.70000000    52.32000000
   O     98.14000000    61.21000000    53.08000000
   H    100.83000000    58.44000000    51.33000000
   H     99.10000000    59.22000000    53.65000000
   H     98.55000000    58.68000000    52.02000000
   N     99.50000000    61.35000000    51.29000000
   C     99.22000000    62.73000000    50.96000000
   C     98.16000000    62.81000000    49.88000000
   O     98.42000000    63.01000000    48.69000000
   C    100.53000000    63.44000000    50.62000000
   C    100.35000000    64.90000000    50.24000000
   O    101.57000000    63.24000000    51.56000000
   H    100.19000000    60.88000000    50.72000000
   H     98.87000000    63.32000000    51.81000000
   H    100.76000000    62.99000000    49.65000000
   H    102.30000000    63.84000000    51.40000000
   H     99.34000000    65.06000000    49.88000000
   H    100.56000000    65.53000000    51.12000000
   H    101.15000000    65.08000000    49.52000000
   N     96.98000000    62.45000000    50.40000000
   C     95.77000000    62.31000000    49.62000000
   C     94.71000000    63.37000000    49.87000000
   O     94.80000000    64.06000000    50.89000000
   C     95.11000000    60.94000000    49.73000000
   C     95.98000000    59.71000000    49.43000000
   C     94.52000000    60.72000000    51.11000000
   C     96.59000000    59.75000000    48.04000000
   H     96.86000000    62.36000000    51.40000000
   H     96.06000000    62.44000000    48.58000000
   H     94.29000000    60.87000000    49.01000000
   H     95.43000000    58.77000000    49.52000000
   H     96.78000000    59.75000000    50.17000000
   H     95.34000000    60.97000000    51.78000000
   H     93.70000000    61.39000000    51.38000000
   H     94.09000000    59.73000000    51.30000000
   H     97.06000000    60.73000000    47.93000000
   H     97.21000000    58.86000000    47.89000000
   H     95.80000000    59.67000000    47.30000000
   N     93.73000000    63.52000000    48.98000000
   C     92.60000000    64.42000000    49.10000000
   C     91.32000000    63.83000000    48.53000000
   O     91.37000000    63.13000000    47.52000000
   C     92.98000000    65.72000000    48.40000000
   C     93.75000000    65.59000000    47.09000000
   O     94.99000000    65.43000000    47.01000000
   O     93.18000000    65.57000000    45.98000000
   H     93.74000000    62.98000000    48.13000000
   H     92.40000000    64.66000000    50.15000000
   H     93.53000000    66.30000000    49.14000000
   H     92.07000000    66.28000000    48.16000000
   N     90.20000000    64.36000000    49.03000000
   C     88.86000000    64.05000000    48.57000000
   C     88.62000000    62.56000000    48.40000000
   O     88.90000000    61.80000000    49.32000000
   C     87.73000000    64.76000000    49.31000000
   C     86.32000000    64.67000000    48.79000000
   C     85.43000000    63.61000000    49.01000000
   C     85.93000000    65.75000000    47.99000000
   C     84.14000000    63.57000000    48.46000000
   C     84.67000000    65.72000000    47.39000000
   C     83.77000000    64.69000000    47.71000000
   H     90.30000000    65.10000000    49.72000000
   H     88.88000000    64.50000000    47.58000000
   H     88.10000000    65.78000000    49.45000000
   H     87.76000000    64.45000000    50.36000000
   H     85.82000000    62.78000000    49.59000000
   H     86.63000000    66.55000000    47.80000000
   H     83.55000000    62.68000000    48.62000000
   H     84.36000000    66.48000000    46.70000000
   H     82.81000000    64.70000000    47.22000000
   N     88.05000000    62.12000000    47.27000000
   C     87.79000000    60.70000000    47.09000000
   C     88.97000000    59.75000000    47.23000000
   O     88.75000000    58.54000000    47.30000000
   C     87.15000000    60.48000000    45.72000000
   C     86.56000000    61.84000000    45.38000000
   C     87.57000000    62.76000000    46.07000000
   H     87.01000000    60.50000000    47.83000000
   H     87.95000000    60.13000000    45.07000000
   H     86.29000000    59.81000000    45.77000000
   H     86.42000000    61.96000000    44.31000000
   H     85.66000000    61.94000000    45.99000000
   H     88.35000000    62.91000000    45.33000000
   H     87.15000000    63.73000000    46.32000000
   N     90.22000000    60.21000000    47.17000000
   C     91.35000000    59.30000000    47.21000000
   C     91.39000000    58.59000000    48.55000000
   O     91.79000000    57.43000000    48.64000000
   C     92.65000000    60.04000000    46.92000000
   C     92.78000000    60.59000000    45.51000000
   C     94.05000000    61.42000000    45.37000000
   O     94.06000000    62.63000000    45.70000000
   O     95.11000000    60.87000000    45.01000000
   H     90.40000000    61.21000000    47.18000000
   H     91.18000000    58.50000000    46.49000000
   H     93.56000000    59.46000000    47.08000000
   H     92.84000000    60.89000000    47.58000000
   H     91.91000000    61.20000000    45.29000000
   H     92.78000000    59.78000000    44.78000000
   N     91.02000000    59.28000000    49.63000000
   C     90.97000000    58.66000000    50.94000000
   H     90.00600000    58.86900000    51.40400000
   H     91.09700000    57.58200000    50.83800000
   H     91.76800000    59.06300000    51.56400000
   H     90.71000000    60.23000000    49.51000000
  Ca     95.34000000    64.54000000    44.67000000
   O     98.12000000    64.99000000    44.16000000
   H     98.50000000    65.83000000    43.92000000
   H     98.86000000    64.49000000    44.51000000
   O     97.13000000    63.18000000    46.11000000
   H     96.84000000    62.36000000    46.53000000
   H     98.09000000    63.11000000    46.10000000
   O     92.92000000    64.08000000    43.35000000
   H     92.41000000    63.99000000    44.15000000
   H     92.28000000    64.32000000    42.68000000
   O     95.93000000    65.41000000    42.24000000
   H     96.19000000    66.13000000    42.81000000
   H     95.73000000    65.84000000    41.40000000
   O     96.49000000    62.37000000    43.35000000
   H     96.19000000    61.78000000    44.03000000
   H     97.39000000    62.09000000    43.17000000

Ca 1.00



