%chk=loop2.holoCaM.run67.water1.chk
%nprocshared=20
%mem=10GB
%nosave
#b3lyp/svp scf=(tight,noincore,xqc) Test 
#IOP(5/87=12) Density=Current Pop=(MK,readradii) iop(6/33=2) iop(6/42=6)

loop2.holoCaM.run67.water1 

   -2  1 
   C     58.70000000    59.57000000    14.22000000
   C     57.97000000    58.68000000    15.21000000
   O     58.43000000    58.52000000    16.34000000
   H     59.69300000    59.16300000    14.03000000
   H     58.14000000    59.61100000    13.28600000
   H     58.79300000    60.57400000    14.63300000
   N     56.81000000    58.11000000    14.85000000
   C     55.92000000    57.35000000    15.71000000
   C     56.50000000    55.96000000    15.90000000
   O     56.47000000    55.09000000    15.03000000
   C     54.56000000    57.32000000    15.00000000
   C     53.43000000    56.77000000    15.86000000
   O     52.38000000    56.47000000    15.26000000
   O     53.70000000    56.62000000    17.08000000
   H     56.51000000    58.33000000    13.92000000
   H     55.71000000    57.77000000    16.69000000
   H     54.58000000    56.66000000    14.14000000
   H     54.30000000    58.31000000    14.62000000
   N     56.99000000    55.66000000    17.11000000
   C     57.71000000    54.43000000    17.36000000
   C     56.82000000    53.38000000    18.01000000
   O     57.32000000    52.40000000    18.57000000
   C     58.92000000    54.81000000    18.20000000
   H     57.01000000    56.36000000    17.84000000
   H     58.01000000    54.02000000    16.39000000
   H     59.52000000    55.54000000    17.65000000
   H     58.59000000    55.19000000    19.17000000
   H     59.54000000    53.93000000    18.38000000
   N     55.49000000    53.51000000    18.05000000
   C     54.52000000    52.54000000    18.53000000
   C     53.28000000    52.48000000    17.66000000
   O     52.70000000    51.40000000    17.52000000
   C     54.13000000    52.89000000    19.96000000
   C     53.68000000    54.33000000    20.09000000
   O     52.72000000    54.79000000    19.42000000
   O     54.37000000    55.11000000    20.78000000
   H     55.12000000    54.27000000    17.51000000
   H     54.87000000    51.51000000    18.52000000
   H     55.03000000    52.70000000    20.54000000
   H     53.40000000    52.17000000    20.34000000
   N     52.96000000    53.50000000    16.86000000
   C     52.05000000    53.47000000    15.73000000
   C     50.65000000    54.06000000    15.89000000
   O     49.86000000    53.82000000    14.97000000
   H     53.51000000    54.32000000    17.06000000
   H     52.02000000    52.46000000    15.34000000
   H     52.44000000    54.06000000    14.90000000
   N     50.35000000    54.65000000    17.05000000
   C     48.98000000    55.04000000    17.29000000
   C     48.54000000    56.30000000    16.56000000
   O     47.41000000    56.76000000    16.74000000
   C     48.81000000    55.09000000    18.80000000
   C     49.01000000    53.78000000    19.55000000
   N     50.24000000    53.39000000    19.90000000
   O     48.06000000    53.08000000    19.88000000
   H     51.06000000    54.62000000    17.76000000
   H     48.35000000    54.21000000    16.97000000
   H     47.75000000    55.29000000    18.88000000
   H     49.47000000    55.84000000    19.24000000
   H     51.03000000    53.93000000    19.57000000
   H     50.36000000    52.63000000    20.55000000
   N     49.40000000    56.91000000    15.74000000
   C     49.09000000    58.08000000    14.95000000
   C     49.21000000    59.39000000    15.71000000
   O     48.99000000    60.51000000    15.25000000
   H     50.28000000    56.44000000    15.61000000
   H     48.05000000    57.97000000    14.64000000
   H     49.75000000    58.11000000    14.08000000
   N     49.58000000    59.28000000    16.99000000
   C     49.77000000    60.28000000    18.02000000
   C     51.21000000    60.34000000    18.53000000
   O     51.90000000    59.33000000    18.63000000
   C     48.77000000    60.00000000    19.14000000
   C     47.29000000    60.19000000    18.83000000
   O     48.94000000    58.66000000    19.57000000
   H     49.67000000    58.35000000    17.37000000
   H     49.54000000    61.24000000    17.58000000
   H     49.06000000    60.67000000    19.95000000
   H     48.20000000    58.45000000    20.14000000
   H     46.67000000    59.76000000    19.61000000
   H     47.07000000    61.25000000    18.76000000
   H     47.18000000    59.71000000    17.85000000
   N     51.54000000    61.58000000    18.90000000
   C     52.88000000    61.95000000    19.31000000
   C     52.85000000    61.99000000    20.83000000
   O     52.24000000    62.84000000    21.48000000
   C     53.25000000    63.31000000    18.71000000
   C     53.60000000    63.24000000    17.23000000
   C     54.47000000    63.92000000    19.40000000
   C     54.84000000    62.44000000    16.84000000
   H     50.84000000    62.26000000    18.64000000
   H     53.56000000    61.18000000    18.96000000
   H     52.39000000    63.95000000    18.88000000
   H     53.62000000    64.26000000    16.84000000
   H     52.75000000    62.77000000    16.72000000
   H     54.31000000    64.09000000    20.47000000
   H     55.38000000    63.32000000    19.33000000
   H     54.74000000    64.82000000    18.86000000
   H     55.75000000    62.84000000    17.28000000
   H     54.83000000    61.41000000    17.17000000
   H     54.93000000    62.45000000    15.75000000
   N     53.65000000    61.12000000    21.45000000
   C     54.16000000    61.27000000    22.79000000
   C     55.30000000    62.26000000    22.99000000
   O     56.01000000    62.56000000    22.03000000
   C     54.51000000    59.90000000    23.37000000
   C     53.56000000    58.75000000    23.08000000
   O     53.52000000    58.08000000    22.03000000
   O     52.77000000    58.43000000    24.00000000
   H     54.13000000    60.47000000    20.84000000
   H     53.34000000    61.64000000    23.41000000
   H     54.69000000    60.01000000    24.44000000
   H     55.40000000    59.60000000    22.82000000
   N     55.62000000    62.78000000    24.18000000
   C     56.64000000    63.77000000    24.41000000
   C     58.01000000    63.38000000    23.88000000
   O     58.59000000    64.17000000    23.13000000
   C     56.77000000    64.32000000    25.83000000
   C     57.66000000    65.53000000    26.01000000
   C     57.51000000    66.60000000    25.13000000
   C     58.54000000    65.59000000    27.09000000
   C     58.25000000    67.77000000    25.36000000
   C     59.33000000    66.74000000    27.23000000
   C     59.18000000    67.86000000    26.41000000
   H     55.06000000    62.53000000    24.98000000
   H     56.40000000    64.57000000    23.71000000
   H     57.11000000    63.49000000    26.45000000
   H     55.73000000    64.52000000    26.09000000
   H     56.86000000    66.64000000    24.27000000
   H     58.47000000    64.99000000    27.99000000
   H     58.04000000    68.55000000    24.64000000
   H     60.00000000    66.80000000    28.07000000
   H     59.77000000    68.76000000    26.46000000
   N     58.57000000    62.20000000    24.19000000
   C     59.82000000    61.71000000    23.66000000
   C     59.88000000    61.55000000    22.15000000
   O     61.00000000    61.59000000    21.64000000
   C     60.13000000    60.45000000    24.47000000
   C     59.21000000    60.52000000    25.68000000
   C     57.99000000    61.20000000    25.05000000
   H     60.61000000    62.41000000    23.97000000
   H     59.84000000    59.61000000    23.85000000
   H     61.18000000    60.35000000    24.76000000
   H     59.08000000    59.49000000    26.00000000
   H     59.63000000    61.18000000    26.44000000
   H     57.43000000    60.43000000    24.51000000
   H     57.29000000    61.49000000    25.83000000
   N     58.77000000    61.47000000    21.42000000
   C     58.74000000    61.58000000    19.97000000
   C     58.71000000    63.03000000    19.50000000
   O     59.29000000    63.33000000    18.45000000
   C     57.48000000    60.82000000    19.57000000
   C     57.51000000    59.29000000    19.65000000
   C     56.19000000    58.57000000    19.46000000
   O     55.10000000    59.18000000    19.61000000
   O     56.14000000    57.32000000    19.38000000
   H     57.89000000    61.25000000    21.87000000
   H     59.56000000    61.00000000    19.55000000
   H     57.29000000    61.00000000    18.52000000
   H     56.60000000    61.25000000    20.04000000
   H     58.05000000    59.01000000    20.55000000
   H     58.16000000    58.81000000    18.91000000
   N     58.08000000    63.94000000    20.23000000
   C     58.27000000    65.37000000    20.02000000
   H     59.22900000    65.54000000    19.53000000
   H     57.46800000    65.75500000    19.39100000
   H     58.25700000    65.88400000    20.98100000
   H     57.74000000    63.56000000    21.10000000
  Ca     53.38000000    57.35000000    19.61000000
   O     50.96000000    57.07000000    20.72000000
   H     50.92000000    56.96000000    21.67000000
   H     50.10000000    57.39000000    20.48000000

Ca 1.00



