%chk=loop2.holoCaM.run70.water2.chk
%nprocshared=20
%mem=10GB
%nosave
#b3lyp/svp scf=(tight,noincore,xqc) Test 
#IOP(5/87=12) Density=Current Pop=(MK,readradii) iop(6/33=2) iop(6/42=6)

loop2.holoCaM.run70.water2 

   -2  1 
   C     55.20000000    50.34000000     5.29000000
   C     53.78000000    50.13000000     5.79000000
   O     53.54000000    50.10000000     6.99000000
   H     55.88000000    49.69500000     5.84700000
   H     55.25300000    50.09300000     4.23000000
   H     55.48700000    51.38100000     5.43600000
   N     52.86000000    49.93000000     4.84000000
   C     51.44000000    49.76000000     5.09000000
   C     51.23000000    48.75000000     6.20000000
   O     51.71000000    47.64000000     5.99000000
   C     50.72000000    49.42000000     3.78000000
   C     49.25000000    49.66000000     4.09000000
   O     48.44000000    49.33000000     3.19000000
   O     48.79000000    50.02000000     5.19000000
   H     53.01000000    50.01000000     3.85000000
   H     51.14000000    50.78000000     5.36000000
   H     50.95000000    48.38000000     3.57000000
   H     51.04000000    50.12000000     3.01000000
   N     50.66000000    49.06000000     7.37000000
   C     50.45000000    48.13000000     8.46000000
   C     49.32000000    47.13000000     8.30000000
   O     49.39000000    45.97000000     8.70000000
   C     50.33000000    48.90000000     9.77000000
   H     50.43000000    50.03000000     7.52000000
   H     51.43000000    47.65000000     8.51000000
   H     50.06000000    48.26000000    10.61000000
   H     51.28000000    49.40000000     9.97000000
   H     49.57000000    49.67000000     9.65000000
   N     48.23000000    47.58000000     7.66000000
   C     47.02000000    46.84000000     7.38000000
   C     46.95000000    46.29000000     5.97000000
   O     46.10000000    45.46000000     5.63000000
   C     45.75000000    47.62000000     7.73000000
   C     45.65000000    48.94000000     6.98000000
   O     45.12000000    48.94000000     5.85000000
   O     46.24000000    49.99000000     7.34000000
   H     48.26000000    48.55000000     7.41000000
   H     47.05000000    46.01000000     8.09000000
   H     45.77000000    47.75000000     8.82000000
   H     44.89000000    46.99000000     7.56000000
   N     47.75000000    46.79000000     5.02000000
   C     47.94000000    46.07000000     3.77000000
   C     47.15000000    46.53000000     2.56000000
   O     47.54000000    46.12000000     1.47000000
   H     48.50000000    47.42000000     5.25000000
   H     47.72000000    45.02000000     3.93000000
   H     49.02000000    46.09000000     3.63000000
   N     46.12000000    47.36000000     2.79000000
   C     45.12000000    47.74000000     1.82000000
   C     45.69000000    48.71000000     0.79000000
   O     44.89000000    49.11000000    -0.05000000
   C     43.80000000    48.08000000     2.51000000
   C     43.14000000    47.00000000     3.36000000
   N     42.99000000    47.06000000     4.69000000
   O     42.61000000    46.00000000     2.88000000
   H     46.01000000    47.71000000     3.74000000
   H     44.91000000    46.90000000     1.17000000
   H     43.17000000    48.23000000     1.63000000
   H     43.89000000    48.98000000     3.10000000
   H     43.47000000    47.82000000     5.17000000
   H     42.43000000    46.41000000     5.21000000
   N     46.98000000    49.06000000     0.80000000
   C     47.62000000    49.87000000    -0.22000000
   C     47.54000000    51.38000000    -0.10000000
   O     47.50000000    52.12000000    -1.09000000
   H     47.49000000    48.68000000     1.59000000
   H     47.16000000    49.62000000    -1.17000000
   H     48.67000000    49.59000000    -0.22000000
   N     47.44000000    51.86000000     1.14000000
   C     47.18000000    53.25000000     1.46000000
   C     47.86000000    53.71000000     2.74000000
   O     48.09000000    52.81000000     3.55000000
   C     45.74000000    53.74000000     1.55000000
   C     45.03000000    53.53000000     0.21000000
   O     45.00000000    53.05000000     2.54000000
   H     47.40000000    51.23000000     1.93000000
   H     47.66000000    53.82000000     0.67000000
   H     45.73000000    54.80000000     1.77000000
   H     45.26000000    52.13000000     2.43000000
   H     44.12000000    54.12000000     0.08000000
   H     45.69000000    53.91000000    -0.57000000
   H     44.78000000    52.47000000     0.18000000
   N     48.17000000    54.99000000     2.95000000
   C     48.97000000    55.51000000     4.04000000
   C     48.13000000    56.40000000     4.96000000
   O     47.62000000    57.39000000     4.44000000
   C     50.03000000    56.38000000     3.38000000
   C     51.08000000    55.66000000     2.54000000
   C     50.79000000    57.35000000     4.29000000
   C     51.97000000    54.65000000     3.25000000
   H     47.94000000    55.67000000     2.24000000
   H     49.55000000    54.73000000     4.54000000
   H     49.48000000    57.02000000     2.68000000
   H     51.79000000    56.30000000     2.01000000
   H     50.54000000    55.13000000     1.75000000
   H     50.19000000    57.90000000     5.02000000
   H     51.44000000    56.72000000     4.89000000
   H     51.31000000    58.06000000     3.65000000
   H     51.41000000    53.86000000     3.75000000
   H     52.64000000    54.30000000     2.46000000
   H     52.59000000    55.11000000     4.03000000
   N     48.11000000    56.01000000     6.24000000
   C     47.67000000    56.70000000     7.44000000
   C     48.77000000    57.58000000     8.01000000
   O     49.91000000    57.40000000     7.60000000
   C     47.13000000    55.82000000     8.56000000
   C     46.14000000    54.78000000     8.06000000
   O     46.47000000    53.63000000     7.71000000
   O     44.94000000    55.14000000     7.97000000
   H     48.69000000    55.20000000     6.36000000
   H     46.85000000    57.39000000     7.28000000
   H     46.65000000    56.44000000     9.32000000
   H     47.98000000    55.27000000     8.96000000
   N     48.47000000    58.57000000     8.86000000
   C     49.45000000    59.42000000     9.50000000
   C     50.65000000    58.70000000    10.11000000
   O     51.76000000    59.11000000     9.77000000
   C     48.80000000    60.36000000    10.51000000
   C     49.67000000    61.44000000    11.09000000
   C     50.39000000    62.27000000    10.22000000
   C     49.80000000    61.66000000    12.47000000
   C     51.22000000    63.29000000    10.69000000
   C     50.64000000    62.66000000    12.97000000
   C     51.30000000    63.50000000    12.07000000
   H     47.55000000    58.62000000     9.29000000
   H     49.89000000    60.08000000     8.75000000
   H     48.36000000    59.77000000    11.32000000
   H     47.89000000    60.82000000    10.12000000
   H     50.39000000    62.11000000     9.15000000
   H     49.18000000    61.10000000    13.16000000
   H     51.82000000    63.93000000    10.07000000
   H     50.70000000    62.78000000    14.04000000
   H     51.77000000    64.36000000    12.52000000
   N     50.54000000    57.62000000    10.88000000
   C     51.66000000    56.98000000    11.55000000
   C     52.60000000    56.32000000    10.55000000
   O     53.82000000    56.40000000    10.62000000
   C     51.04000000    56.10000000    12.63000000
   C     49.64000000    56.65000000    12.86000000
   C     49.33000000    57.03000000    11.42000000
   H     52.23000000    57.72000000    12.11000000
   H     51.10000000    55.05000000    12.35000000
   H     51.54000000    56.18000000    13.60000000
   H     49.07000000    55.82000000    13.29000000
   H     49.71000000    57.52000000    13.50000000
   H     49.06000000    56.12000000    10.88000000
   H     48.46000000    57.69000000    11.41000000
   N     52.05000000    55.74000000     9.48000000
   C     52.78000000    55.29000000     8.31000000
   C     53.28000000    56.39000000     7.39000000
   O     54.32000000    56.28000000     6.74000000
   C     51.88000000    54.42000000     7.43000000
   C     51.27000000    53.12000000     7.93000000
   C     49.89000000    52.79000000     7.38000000
   O     49.36000000    53.55000000     6.54000000
   O     49.35000000    51.70000000     7.69000000
   H     51.04000000    55.64000000     9.55000000
   H     53.53000000    54.65000000     8.78000000
   H     52.43000000    54.07000000     6.56000000
   H     51.13000000    55.14000000     7.10000000
   H     51.04000000    53.10000000     9.00000000
   H     51.94000000    52.32000000     7.61000000
   N     52.75000000    57.62000000     7.38000000
   C     53.38000000    58.80000000     6.83000000
   H     54.36400000    58.53800000     6.44200000
   H     52.76600000    59.19700000     6.02200000
   H     53.48600000    59.55300000     7.61100000
   H     51.88000000    57.76000000     7.87000000
  Ca     47.38000000    52.01000000     5.92000000
   O     46.28000000    50.55000000     3.97000000
   H     45.77000000    49.95000000     4.52000000
   H     47.05000000    50.05000000     3.72000000
   O     45.32000000    53.69000000     5.05000000
   H     45.01000000    53.51000000     4.17000000
   H     44.55000000    54.06000000     5.50000000

Ca 1.00



