%chk=loop2.holoCaM.run18.water1.chk
%nprocshared=20
%mem=10GB
%nosave
#b3lyp/svp scf=(tight,noincore,xqc) Test 
#IOP(5/87=12) Density=Current Pop=(MK,readradii) iop(6/33=2) iop(6/42=6)

loop2.holoCaM.run18.water1 

   -2  1 
   C     52.41000000    55.87000000    -7.45000000
   C     51.49000000    56.58000000    -8.44000000
   O     50.71000000    57.39000000    -7.95000000
   H     53.30400000    56.47300000    -7.28900000
   H     51.88900000    55.73300000    -6.50300000
   H     52.69600000    54.89800000    -7.85200000
   N     51.52000000    56.20000000    -9.72000000
   C     50.93000000    57.03000000   -10.76000000
   C     49.45000000    56.68000000   -10.77000000
   O     49.00000000    55.54000000   -10.87000000
   C     51.51000000    56.80000000   -12.15000000
   C     50.85000000    57.58000000   -13.27000000
   O     50.00000000    58.47000000   -13.04000000
   O     51.27000000    57.45000000   -14.44000000
   H     52.16000000    55.48000000   -10.02000000
   H     51.05000000    58.08000000   -10.52000000
   H     51.34000000    55.74000000   -12.34000000
   H     52.59000000    57.00000000   -12.14000000
   N     48.70000000    57.74000000   -10.49000000
   C     47.33000000    57.67000000   -10.02000000
   C     46.34000000    58.08000000   -11.10000000
   O     45.14000000    57.86000000   -10.89000000
   C     47.21000000    58.39000000    -8.69000000
   H     49.05000000    58.69000000   -10.53000000
   H     47.10000000    56.62000000    -9.85000000
   H     47.89000000    59.25000000    -8.64000000
   H     46.22000000    58.60000000    -8.28000000
   H     47.58000000    57.72000000    -7.91000000
   N     46.81000000    58.57000000   -12.25000000
   C     46.07000000    58.39000000   -13.48000000
   C     46.64000000    57.44000000   -14.52000000
   O     46.05000000    57.17000000   -15.57000000
   C     45.71000000    59.74000000   -14.11000000
   C     46.86000000    60.70000000   -14.38000000
   O     46.93000000    61.30000000   -15.47000000
   O     47.75000000    60.94000000   -13.54000000
   H     47.77000000    58.89000000   -12.30000000
   H     45.14000000    57.91000000   -13.16000000
   H     45.06000000    60.24000000   -13.39000000
   H     45.18000000    59.46000000   -15.01000000
   N     47.83000000    56.89000000   -14.29000000
   C     48.46000000    55.83000000   -15.06000000
   C     49.00000000    56.36000000   -16.38000000
   O     48.97000000    55.60000000   -17.34000000
   H     48.40000000    57.26000000   -13.54000000
   H     47.74000000    55.07000000   -15.34000000
   H     49.26000000    55.41000000   -14.45000000
   N     49.35000000    57.65000000   -16.45000000
   C     49.59000000    58.35000000   -17.69000000
   C     51.05000000    58.37000000   -18.10000000
   O     51.32000000    58.67000000   -19.26000000
   C     48.99000000    59.75000000   -17.71000000
   C     49.88000000    60.82000000   -17.08000000
   N     50.49000000    61.68000000   -17.90000000
   O     50.21000000    60.86000000   -15.90000000
   H     49.53000000    58.26000000   -15.67000000
   H     49.05000000    57.75000000   -18.44000000
   H     48.08000000    59.64000000   -17.12000000
   H     48.82000000    59.93000000   -18.77000000
   H     50.09000000    61.74000000   -18.83000000
   H     51.11000000    62.38000000   -17.54000000
   N     52.04000000    58.04000000   -17.26000000
   C     53.45000000    57.86000000   -17.52000000
   C     54.40000000    58.79000000   -16.80000000
   O     55.60000000    58.52000000   -16.88000000
   H     51.74000000    58.07000000   -16.30000000
   H     53.65000000    57.92000000   -18.59000000
   H     53.81000000    56.87000000   -17.25000000
   N     53.91000000    59.79000000   -16.05000000
   C     54.64000000    60.85000000   -15.39000000
   C     54.15000000    60.96000000   -13.95000000
   O     52.96000000    60.72000000   -13.72000000
   C     54.54000000    62.20000000   -16.09000000
   C     55.73000000    62.57000000   -16.98000000
   O     53.38000000    62.46000000   -16.85000000
   H     52.91000000    59.93000000   -15.99000000
   H     55.69000000    60.57000000   -15.30000000
   H     54.42000000    62.94000000   -15.30000000
   H     53.28000000    61.79000000   -17.53000000
   H     55.49000000    63.39000000   -17.65000000
   H     56.56000000    62.96000000   -16.38000000
   H     56.06000000    61.70000000   -17.55000000
   N     55.08000000    61.36000000   -13.08000000
   C     54.95000000    61.56000000   -11.65000000
   C     54.67000000    63.04000000   -11.44000000
   O     55.45000000    63.88000000   -11.87000000
   C     56.22000000    61.10000000   -10.94000000
   C     56.16000000    59.60000000   -10.65000000
   C     56.57000000    61.88000000    -9.67000000
   C     57.34000000    59.01000000    -9.89000000
   H     55.95000000    61.67000000   -13.49000000
   H     54.09000000    61.10000000   -11.16000000
   H     57.03000000    61.36000000   -11.61000000
   H     55.99000000    59.02000000   -11.56000000
   H     55.24000000    59.35000000   -10.12000000
   H     56.75000000    62.93000000    -9.89000000
   H     55.71000000    61.87000000    -9.00000000
   H     57.47000000    61.47000000    -9.20000000
   H     58.28000000    59.45000000   -10.22000000
   H     57.22000000    59.15000000    -8.81000000
   H     57.39000000    57.96000000   -10.18000000
   N     53.50000000    63.37000000   -10.88000000
   C     52.99000000    64.65000000   -10.44000000
   C     53.35000000    64.94000000    -9.00000000
   O     53.76000000    63.98000000    -8.34000000
   C     51.47000000    64.63000000   -10.52000000
   C     50.92000000    64.37000000   -11.92000000
   O     50.12000000    63.42000000   -12.05000000
   O     51.16000000    65.19000000   -12.84000000
   H     52.94000000    62.55000000   -10.68000000
   H     53.42000000    65.42000000   -11.08000000
   H     51.13000000    65.59000000   -10.13000000
   H     51.10000000    63.83000000    -9.88000000
   N     53.15000000    66.13000000    -8.43000000
   C     53.48000000    66.47000000    -7.06000000
   C     52.86000000    65.55000000    -6.02000000
   O     53.71000000    65.08000000    -5.27000000
   C     53.04000000    67.92000000    -6.86000000
   C     53.08000000    68.35000000    -5.42000000
   C     54.34000000    68.39000000    -4.82000000
   C     51.89000000    68.52000000    -4.70000000
   C     54.43000000    68.87000000    -3.52000000
   C     52.01000000    68.93000000    -3.37000000
   C     53.27000000    69.16000000    -2.79000000
   H     52.91000000    66.91000000    -9.04000000
   H     54.56000000    66.50000000    -6.94000000
   H     52.08000000    68.08000000    -7.37000000
   H     53.72000000    68.49000000    -7.50000000
   H     55.24000000    68.21000000    -5.40000000
   H     50.96000000    68.45000000    -5.26000000
   H     55.40000000    69.19000000    -3.13000000
   H     51.15000000    69.18000000    -2.77000000
   H     53.19000000    69.70000000    -1.86000000
   N     51.63000000    65.02000000    -6.04000000
   C     51.19000000    64.17000000    -4.95000000
   C     51.69000000    62.74000000    -5.10000000
   O     52.02000000    62.06000000    -4.14000000
   C     49.68000000    64.32000000    -5.13000000
   C     49.32000000    65.57000000    -5.93000000
   C     50.55000000    65.58000000    -6.83000000
   H     51.49000000    64.52000000    -3.97000000
   H     49.33000000    63.44000000    -5.67000000
   H     49.20000000    64.35000000    -4.15000000
   H     48.40000000    65.38000000    -6.49000000
   H     49.24000000    66.39000000    -5.22000000
   H     50.39000000    64.99000000    -7.73000000
   H     50.65000000    66.61000000    -7.18000000
   N     52.04000000    62.37000000    -6.34000000
   C     52.63000000    61.08000000    -6.64000000
   C     54.10000000    61.14000000    -6.25000000
   O     54.70000000    60.20000000    -5.72000000
   C     52.53000000    60.90000000    -8.16000000
   C     51.15000000    60.98000000    -8.79000000
   C     51.02000000    60.71000000   -10.28000000
   O     51.83000000    61.14000000   -11.14000000
   O     49.96000000    60.29000000   -10.78000000
   H     51.83000000    63.07000000    -7.03000000
   H     52.12000000    60.23000000    -6.19000000
   H     52.94000000    59.94000000    -8.48000000
   H     53.13000000    61.69000000    -8.62000000
   H     50.81000000    62.01000000    -8.69000000
   H     50.48000000    60.27000000    -8.31000000
   N     54.80000000    62.26000000    -6.35000000
   C     56.16000000    62.38000000    -5.84000000
   H     56.78800000    62.86100000    -6.59000000
   H     56.15600000    62.98200000    -4.93100000
   H     56.55400000    61.38800000    -5.61800000
   H     54.56000000    62.93000000    -7.06000000
  Ca     50.32000000    61.15000000   -13.19000000
   O     51.58000000    63.05000000   -14.60000000
   H     51.72000000    63.88000000   -14.15000000
   H     52.05000000    63.13000000   -15.43000000

Ca 1.00



