%chk=loop2.apoCaM-CA-Ng.Init293.run74.water6.chk
%nprocshared=20
%mem=10GB
%nosave
#b3lyp/svp scf=(tight,noincore,xqc) Test 
#IOP(5/87=12) Density=Current Pop=(MK,readradii) iop(6/33=2) iop(6/42=6)

loop2.apoCaM-CA-Ng.Init293.run74.water6 

   -2  1 
   C     94.82000000   100.68000000    26.30000000
   C     96.13000000   101.13000000    26.92000000
   O     96.00000000   102.01000000    27.76000000
   H     94.08200000   101.47600000    26.39400000
   H     94.97600000   100.45200000    25.24500000
   H     94.46100000    99.78900000    26.81500000
   N     97.28000000   100.63000000    26.46000000
   C     98.53000000   100.97000000    27.13000000
   C     98.90000000   102.43000000    26.96000000
   O     98.98000000   103.11000000    27.99000000
   C     99.72000000   100.12000000    26.70000000
   C    101.05000000   100.44000000    27.36000000
   O    101.44000000    99.76000000    28.34000000
   O    101.82000000   101.28000000    26.85000000
   H     97.31000000   100.01000000    25.67000000
   H     98.34000000   100.81000000    28.19000000
   H     99.91000000   100.33000000    25.64000000
   H     99.39000000    99.09000000    26.85000000
   N     98.91000000   102.95000000    25.73000000
   C     99.04000000   104.33000000    25.29000000
   C     98.19000000   105.33000000    26.07000000
   O     98.54000000   106.50000000    26.16000000
   C    100.50000000   104.75000000    25.24000000
   H     98.83000000   102.28000000    24.98000000
   H     98.63000000   104.56000000    24.31000000
   H    100.91000000   104.83000000    26.25000000
   H    101.06000000   104.03000000    24.64000000
   H    100.57000000   105.72000000    24.74000000
   N     97.09000000   104.84000000    26.63000000
   C     96.14000000   105.62000000    27.41000000
   C     96.70000000   106.40000000    28.59000000
   O     96.07000000   107.35000000    29.06000000
   C     95.19000000   106.37000000    26.49000000
   C     94.51000000   105.47000000    25.47000000
   O     94.61000000   105.83000000    24.28000000
   O     93.72000000   104.54000000    25.74000000
   H     96.91000000   103.85000000    26.65000000
   H     95.57000000   104.85000000    27.93000000
   H     95.77000000   107.17000000    26.03000000
   H     94.37000000   106.77000000    27.09000000
   N     97.92000000   106.10000000    29.04000000
   C     98.69000000   106.94000000    29.94000000
   C     98.11000000   106.97000000    31.34000000
   O     97.23000000   106.19000000    31.68000000
   H     98.27000000   105.24000000    28.62000000
   H     98.78000000   107.87000000    29.39000000
   H     99.69000000   106.50000000    29.96000000
   N     98.51000000   107.98000000    32.13000000
   C     97.93000000   108.39000000    33.39000000
   C     97.76000000   107.27000000    34.40000000
   O     96.95000000   107.43000000    35.31000000
   C     96.59000000   109.08000000    33.17000000
   C     96.76000000   110.12000000    32.07000000
   N     96.54000000   109.89000000    30.77000000
   O     97.15000000   111.24000000    32.41000000
   H     99.20000000   108.62000000    31.77000000
   H     98.59000000   109.01000000    33.99000000
   H     96.27000000   109.64000000    34.05000000
   H     95.84000000   108.36000000    32.84000000
   H     96.12000000   109.03000000    30.44000000
   H     96.84000000   110.63000000    30.16000000
   N     98.56000000   106.20000000    34.30000000
   C     98.50000000   105.04000000    35.18000000
   C     97.67000000   103.89000000    34.63000000
   O     97.78000000   102.81000000    35.20000000
   H     99.18000000   106.10000000    33.52000000
   H     98.08000000   105.17000000    36.18000000
   H     99.54000000   104.72000000    35.24000000
   N     96.99000000   104.05000000    33.49000000
   C     96.25000000   103.08000000    32.70000000
   C     94.74000000   103.21000000    32.69000000
   O     94.19000000   104.30000000    32.86000000
   C     96.83000000   102.86000000    31.30000000
   C     98.29000000   102.44000000    31.28000000
   O     96.12000000   101.92000000    30.52000000
   H     97.04000000   104.96000000    33.04000000
   H     96.28000000   102.10000000    33.18000000
   H     96.89000000   103.79000000    30.74000000
   H     96.28000000   102.09000000    29.59000000
   H     98.45000000   101.47000000    31.75000000
   H     98.52000000   102.33000000    30.22000000
   H     99.00000000   103.19000000    31.63000000
   N     94.06000000   102.08000000    32.49000000
   C     92.61000000   102.08000000    32.36000000
   C     92.11000000   103.07000000    31.32000000
   O     92.61000000   103.21000000    30.21000000
   C     92.07000000   100.66000000    32.25000000
   C     92.25000000    99.87000000    33.55000000
   C     90.60000000   100.55000000    31.83000000
   C     92.43000000    98.38000000    33.26000000
   H     94.56000000   101.23000000    32.28000000
   H     92.22000000   102.46000000    33.31000000
   H     92.67000000   100.19000000    31.47000000
   H     91.42000000   100.05000000    34.22000000
   H     93.18000000   100.18000000    34.03000000
   H     90.48000000   100.96000000    30.83000000
   H     90.38000000    99.48000000    31.73000000
   H     89.99000000   101.11000000    32.54000000
   H     91.46000000    97.90000000    33.13000000
   H     93.01000000    98.24000000    32.34000000
   H     92.97000000    97.82000000    34.02000000
   N     91.07000000   103.82000000    31.68000000
   C     90.56000000   104.87000000    30.83000000
   C     90.17000000   106.04000000    31.72000000
   O     88.98000000   106.16000000    32.03000000
   C     89.51000000   104.29000000    29.89000000
   C     89.03000000   105.26000000    28.82000000
   O     89.75000000   106.19000000    28.41000000
   O     87.96000000   105.10000000    28.20000000
   H     90.67000000   103.74000000    32.61000000
   H     91.35000000   105.19000000    30.15000000
   H     88.71000000   103.91000000    30.52000000
   H     89.99000000   103.49000000    29.31000000
   N     91.20000000   106.76000000    32.16000000
   C     91.03000000   107.80000000    33.16000000
   C     92.25000000   107.80000000    34.07000000
   O     93.03000000   108.74000000    34.13000000
   C     90.76000000   109.17000000    32.54000000
   C     89.52000000   109.48000000    31.75000000
   C     88.45000000   110.08000000    32.43000000
   C     89.31000000   109.27000000    30.38000000
   C     87.21000000   110.43000000    31.86000000
   C     88.09000000   109.62000000    29.79000000
   C     87.05000000   110.23000000    30.49000000
   H     92.14000000   106.62000000    31.82000000
   H     90.14000000   107.64000000    33.77000000
   H     91.62000000   109.36000000    31.89000000
   H     90.83000000   109.93000000    33.32000000
   H     88.50000000   110.23000000    33.50000000
   H     90.09000000   108.81000000    29.79000000
   H     86.53000000   110.97000000    32.50000000
   H     87.94000000   109.25000000    28.78000000
   H     86.15000000   110.56000000    29.98000000
   N     92.54000000   106.79000000    34.89000000
   C     91.97000000   105.45000000    34.94000000
   C     90.50000000   105.28000000    35.30000000
   O     89.91000000   104.45000000    34.61000000
   C     92.82000000   104.60000000    35.88000000
   C     94.15000000   105.34000000    35.96000000
   C     93.78000000   106.78000000    35.64000000
   H     92.07000000   105.03000000    33.94000000
   H     92.27000000   104.61000000    36.82000000
   H     92.87000000   103.60000000    35.45000000
   H     94.51000000   105.14000000    36.97000000
   H     94.90000000   104.97000000    35.27000000
   H     93.52000000   107.34000000    36.54000000
   H     94.54000000   107.23000000    35.00000000
   N     89.96000000   106.07000000    36.23000000
   C     88.56000000   106.10000000    36.61000000
   C     87.90000000   104.74000000    36.79000000
   O     86.79000000   104.49000000    36.33000000
   C     87.83000000   107.04000000    35.67000000
   C     88.27000000   108.50000000    35.65000000
   C     88.09000000   109.22000000    36.98000000
   O     88.82000000   110.20000000    37.26000000
   O     87.27000000   108.79000000    37.82000000
   H     90.60000000   106.66000000    36.74000000
   H     88.56000000   106.62000000    37.57000000
   H     86.76000000   107.01000000    35.89000000
   H     87.98000000   106.70000000    34.64000000
   H     87.65000000   109.08000000    34.97000000
   H     89.32000000   108.68000000    35.42000000
   N     88.62000000   103.90000000    37.55000000
   C     88.28000000   102.53000000    37.86000000
   H     87.30700000   102.29200000    37.43000000
   H     89.03500000   101.86400000    37.44100000
   H     88.24000000   102.40100000    38.94200000
   H     89.52000000   104.30000000    37.81000000
  Ca     93.27000000   103.61800000    23.07000000
   O     91.87000000   102.11800000    24.71000000
   H     91.20000000   101.61800000    24.24000000
   H     91.63000000   102.02800000    25.63000000
   O     90.96000000   103.12800000    21.55000000
   H     90.70000000   102.41800000    20.96000000
   H     90.16000000   103.63800000    21.69000000
   O     94.39000000   103.46800000    20.29000000
   H     94.78000000   103.63800000    19.43000000
   H     93.87000000   102.66800000    20.16000000
   O     92.80000000   105.65800000    21.48000000
   H     91.91000000   105.63800000    21.11000000
   H     93.30000000   106.18800000    20.86000000
   O     91.14000000   104.87800000    24.19000000
   H     90.62000000   105.61800000    23.87000000
   H     90.59000000   104.46800000    24.86000000
   O     96.10000000   103.22800000    23.17000000
   H     96.44000000   104.09800000    22.95000000
   H     96.84000000   102.63800000    23.06000000

Ca 1.00



