%chk=loop2.holoCaM-CaMKII.run14.water2.chk
%nprocshared=20
%mem=10GB
%nosave
#b3lyp/svp scf=(tight,noincore,xqc) Test 
#IOP(5/87=12) Density=Current Pop=(MK,readradii) iop(6/33=2) iop(6/42=6)

loop2.holoCaM-CaMKII.run14.water2 

   -2  1 
   C     63.96000000    68.54000000    12.68000000
   C     63.99000000    68.91000000    11.21000000
   O     64.98000000    69.53000000    10.82000000
   H     63.13900000    69.06400000    13.16900000
   H     63.81600000    67.46400000    12.78200000
   H     64.90200000    68.82700000    13.14700000
   N     62.97000000    68.58000000    10.41000000
   C     62.97000000    68.74000000     8.97000000
   C     63.32000000    70.14000000     8.49000000
   O     62.68000000    71.12000000     8.88000000
   C     61.66000000    68.30000000     8.31000000
   C     61.95000000    67.57000000     7.01000000
   O     63.09000000    67.52000000     6.48000000
   O     61.00000000    66.93000000     6.52000000
   H     62.23000000    68.00000000    10.78000000
   H     63.74000000    68.01000000     8.74000000
   H     60.94000000    69.09000000     8.13000000
   H     61.17000000    67.60000000     8.99000000
   N     64.20000000    70.27000000     7.50000000
   C     64.64000000    71.48000000     6.84000000
   C     64.79000000    71.38000000     5.32000000
   O     65.22000000    72.28000000     4.60000000
   C     65.95000000    71.87000000     7.53000000
   H     64.71000000    69.43000000     7.26000000
   H     63.96000000    72.30000000     7.05000000
   H     66.31000000    72.79000000     7.08000000
   H     65.72000000    72.13000000     8.57000000
   H     66.72000000    71.10000000     7.48000000
   N     64.37000000    70.25000000     4.74000000
   C     64.31000000    69.93000000     3.33000000
   C     63.08000000    69.24000000     2.78000000
   O     62.79000000    69.29000000     1.58000000
   C     65.58000000    69.24000000     2.82000000
   C     65.95000000    67.89000000     3.41000000
   O     64.97000000    67.28000000     3.90000000
   O     67.13000000    67.48000000     3.43000000
   H     64.16000000    69.49000000     5.37000000
   H     64.26000000    70.84000000     2.73000000
   H     66.45000000    69.84000000     3.10000000
   H     65.76000000    69.32000000     1.75000000
   N     62.38000000    68.55000000     3.69000000
   C     61.28000000    67.65000000     3.38000000
   C     61.44000000    66.39000000     2.54000000
   O     60.53000000    65.94000000     1.86000000
   H     62.68000000    68.66000000     4.64000000
   H     60.37000000    68.17000000     3.08000000
   H     60.99000000    67.21000000     4.33000000
   N     62.67000000    65.86000000     2.50000000
   C     63.11000000    64.78000000     1.65000000
   C     62.74000000    63.39000000     2.16000000
   O     62.87000000    62.36000000     1.50000000
   C     64.62000000    64.94000000     1.47000000
   C     65.39000000    64.68000000     2.75000000
   N     66.72000000    64.70000000     2.68000000
   O     64.81000000    64.49000000     3.82000000
   H     63.37000000    66.27000000     3.11000000
   H     62.60000000    64.78000000     0.69000000
   H     64.94000000    65.92000000     1.12000000
   H     65.02000000    64.20000000     0.77000000
   H     67.15000000    65.11000000     1.86000000
   H     67.26000000    64.64000000     3.54000000
   N     62.24000000    63.24000000     3.39000000
   C     61.74000000    61.97000000     3.88000000
   C     62.66000000    61.37000000     4.93000000
   O     62.29000000    60.30000000     5.41000000
   H     62.35000000    64.07000000     3.96000000
   H     61.61000000    61.17000000     3.16000000
   H     60.74000000    62.18000000     4.26000000
   N     63.75000000    62.03000000     5.31000000
   C     64.74000000    61.42000000     6.17000000
   C     65.40000000    62.34000000     7.19000000
   O     65.15000000    63.54000000     7.06000000
   C     65.88000000    60.80000000     5.36000000
   C     65.44000000    59.71000000     4.39000000
   O     66.59000000    61.78000000     4.64000000
   H     63.98000000    62.96000000     4.99000000
   H     64.21000000    60.63000000     6.71000000
   H     66.63000000    60.32000000     6.00000000
   H     66.87000000    62.48000000     5.24000000
   H     66.28000000    59.09000000     4.08000000
   H     64.83000000    58.97000000     4.92000000
   H     65.00000000    60.19000000     3.52000000
   N     66.02000000    61.86000000     8.27000000
   C     66.86000000    62.70000000     9.11000000
   C     68.22000000    62.78000000     8.43000000
   O     68.92000000    61.79000000     8.24000000
   C     66.95000000    62.08000000    10.50000000
   C     65.60000000    62.23000000    11.21000000
   C     67.97000000    62.88000000    11.31000000
   C     65.47000000    61.64000000    12.61000000
   H     65.88000000    60.87000000     8.43000000
   H     66.43000000    63.70000000     9.19000000
   H     67.30000000    61.06000000    10.45000000
   H     64.96000000    61.66000000    10.54000000
   H     65.42000000    63.30000000    11.22000000
   H     67.65000000    63.91000000    11.45000000
   H     68.04000000    62.36000000    12.27000000
   H     68.94000000    62.96000000    10.83000000
   H     66.17000000    62.15000000    13.26000000
   H     64.47000000    61.76000000    13.04000000
   H     65.74000000    60.58000000    12.59000000
   N     68.56000000    63.99000000     7.99000000
   C     69.90000000    64.27000000     7.49000000
   C     70.89000000    64.72000000     8.56000000
   O     70.46000000    65.10000000     9.64000000
   C     69.65000000    65.29000000     6.39000000
   C     68.66000000    64.91000000     5.30000000
   O     67.43000000    64.92000000     5.50000000
   O     69.08000000    64.48000000     4.20000000
   H     67.87000000    64.69000000     7.76000000
   H     70.25000000    63.37000000     6.98000000
   H     70.63000000    65.33000000     5.90000000
   H     69.33000000    66.27000000     6.75000000
   N     72.21000000    64.65000000     8.37000000
   C     73.15000000    65.04000000     9.41000000
   C     73.05000000    66.48000000     9.91000000
   O     72.95000000    66.63000000    11.12000000
   C     74.51000000    64.52000000     8.95000000
   C     75.51000000    64.51000000    10.07000000
   C     76.26000000    65.68000000    10.27000000
   C     75.45000000    63.58000000    11.12000000
   C     77.05000000    65.82000000    11.42000000
   C     76.26000000    63.71000000    12.26000000
   C     77.11000000    64.81000000    12.39000000
   H     72.57000000    64.40000000     7.47000000
   H     72.83000000    64.45000000    10.27000000
   H     74.83000000    65.14000000     8.11000000
   H     74.33000000    63.49000000     8.66000000
   H     76.31000000    66.39000000     9.47000000
   H     74.78000000    62.73000000    11.09000000
   H     77.74000000    66.65000000    11.53000000
   H     76.23000000    62.96000000    13.03000000
   H     77.76000000    64.87000000    13.25000000
   N     72.82000000    67.43000000     9.00000000
   C     72.48000000    68.79000000     9.38000000
   C     71.21000000    69.00000000    10.19000000
   O     70.97000000    70.16000000    10.53000000
   C     72.32000000    69.52000000     8.05000000
   C     73.39000000    68.82000000     7.21000000
   C     73.08000000    67.37000000     7.58000000
   H     73.35000000    69.13000000     9.94000000
   H     71.33000000    69.48000000     7.58000000
   H     72.48000000    70.59000000     8.18000000
   H     73.32000000    69.02000000     6.14000000
   H     74.40000000    68.94000000     7.60000000
   H     72.24000000    66.94000000     7.03000000
   H     74.01000000    66.85000000     7.32000000
   N     70.41000000    67.97000000    10.45000000
   C     69.13000000    67.92000000    11.13000000
   C     69.26000000    67.11000000    12.41000000
   O     68.75000000    67.51000000    13.45000000
   C     67.96000000    67.38000000    10.31000000
   C     67.88000000    68.03000000     8.93000000
   C     66.86000000    67.33000000     8.04000000
   O     66.40000000    67.98000000     7.08000000
   O     66.54000000    66.12000000     8.12000000
   H     70.68000000    67.10000000    10.01000000
   H     68.90000000    68.94000000    11.42000000
   H     66.97000000    67.47000000    10.76000000
   H     68.14000000    66.31000000    10.29000000
   H     68.75000000    67.97000000     8.28000000
   H     67.55000000    69.04000000     9.18000000
   N     69.99000000    65.99000000    12.35000000
   C     70.24000000    65.33000000    13.61000000
   H     71.02900000    65.85800000    14.14600000
   H     69.32900000    65.33300000    14.20900000
   H     70.55200000    64.30200000    13.42700000
   H     70.31000000    65.62000000    11.47000000
  Ca     65.08000000    66.00000000     6.05000000
   O     63.99000000    65.49000000     8.85000000
   H     64.63000000    64.78000000     8.88000000
   H     63.28000000    65.20000000     9.42000000
   O     62.58000000    64.87000000     5.64000000
   H     62.41000000    65.78000000     5.90000000
   H     62.09000000    64.35000000     6.27000000

Ca 1.00



