%chk=loop2.holoCaM-CaMKII.run46.water2.chk
%nprocshared=20
%mem=10GB
%nosave
#b3lyp/svp scf=(tight,noincore,xqc) Test 
#IOP(5/87=12) Density=Current Pop=(MK,readradii) iop(6/33=2) iop(6/42=6)

loop2.holoCaM-CaMKII.run46.water2 

   -2  1 
   C    -10.45000000    38.74000000    10.47000000
   C    -10.94000000    37.45000000     9.82000000
   O    -10.71000000    37.20000000     8.64000000
   H     -9.53000000    39.06500000     9.98300000
   H    -11.21000000    39.51400000    10.36200000
   H    -10.25800000    38.56400000    11.52800000
   N    -11.63000000    36.64000000    10.62000000
   C    -12.01000000    35.30000000    10.21000000
   C    -12.71000000    35.18000000     8.87000000
   O    -13.73000000    35.81000000     8.60000000
   C    -12.83000000    34.70000000    11.35000000
   C    -13.03000000    33.21000000    11.16000000
   O    -14.03000000    32.69000000    11.70000000
   O    -12.29000000    32.53000000    10.41000000
   H    -11.58000000    36.81000000    11.62000000
   H    -11.13000000    34.66000000    10.24000000
   H    -13.83000000    35.13000000    11.45000000
   H    -12.36000000    34.89000000    12.32000000
   N    -12.35000000    34.18000000     8.05000000
   C    -13.02000000    33.87000000     6.80000000
   C    -13.47000000    32.42000000     6.80000000
   O    -14.00000000    31.94000000     5.80000000
   C    -12.27000000    34.34000000     5.56000000
   H    -11.51000000    33.67000000     8.27000000
   H    -13.93000000    34.48000000     6.81000000
   H    -11.43000000    33.64000000     5.50000000
   H    -12.83000000    34.22000000     4.64000000
   H    -11.95000000    35.37000000     5.75000000
   N    -13.33000000    31.60000000     7.84000000
   C    -13.63000000    30.19000000     7.78000000
   C    -13.98000000    29.52000000     9.10000000
   O    -14.34000000    28.35000000     9.00000000
   C    -12.54000000    29.40000000     7.05000000
   C    -11.15000000    29.65000000     7.61000000
   O    -11.00000000    30.23000000     8.70000000
   O    -10.17000000    29.32000000     6.91000000
   H    -12.85000000    31.94000000     8.67000000
   H    -14.55000000    29.98000000     7.24000000
   H    -12.62000000    29.60000000     5.98000000
   H    -12.75000000    28.35000000     7.27000000
   N    -14.03000000    30.19000000    10.26000000
   C    -14.48000000    29.69000000    11.54000000
   C    -13.64000000    28.59000000    12.18000000
   O    -14.15000000    27.89000000    13.05000000
   H    -13.65000000    31.12000000    10.23000000
   H    -15.49000000    29.28000000    11.42000000
   H    -14.38000000    30.49000000    12.27000000
   N    -12.39000000    28.42000000    11.75000000
   C    -11.50000000    27.31000000    12.03000000
   C    -10.78000000    27.42000000    13.36000000
   O     -9.89000000    26.62000000    13.65000000
   C    -10.61000000    27.06000000    10.81000000
   C     -9.44000000    28.03000000    10.72000000
   N     -8.57000000    27.73000000     9.75000000
   O     -9.37000000    29.06000000    11.40000000
   H    -12.24000000    28.99000000    10.93000000
   H    -12.25000000    26.53000000    12.19000000
   H    -11.11000000    27.34000000     9.89000000
   H    -10.29000000    26.03000000    10.89000000
   H     -8.44000000    26.83000000     9.30000000
   H     -7.94000000    28.49000000     9.57000000
   N    -11.12000000    28.39000000    14.21000000
   C    -10.43000000    28.58000000    15.47000000
   C     -9.01000000    29.14000000    15.44000000
   O     -8.48000000    29.25000000    16.54000000
   H    -11.85000000    29.02000000    13.91000000
   H    -10.32000000    27.68000000    16.07000000
   H    -10.98000000    29.30000000    16.07000000
   N     -8.45000000    29.65000000    14.35000000
   C     -7.12000000    30.23000000    14.29000000
   C     -7.07000000    31.39000000    13.30000000
   O     -7.82000000    31.32000000    12.33000000
   C     -6.17000000    29.19000000    13.71000000
   C     -6.10000000    27.95000000    14.60000000
   O     -6.57000000    28.75000000    12.43000000
   H     -8.86000000    29.62000000    13.43000000
   H     -6.72000000    30.56000000    15.25000000
   H     -5.14000000    29.54000000    13.61000000
   H     -7.18000000    29.38000000    12.05000000
   H     -5.41000000    27.21000000    14.19000000
   H     -5.75000000    28.09000000    15.62000000
   H     -7.07000000    27.44000000    14.67000000
   N     -6.11000000    32.30000000    13.47000000
   C     -5.73000000    33.21000000    12.41000000
   C     -4.91000000    32.48000000    11.36000000
   O     -3.80000000    32.02000000    11.61000000
   C     -4.99000000    34.44000000    12.94000000
   C     -5.88000000    35.37000000    13.77000000
   C     -4.53000000    35.31000000    11.77000000
   C     -5.22000000    36.09000000    14.93000000
   H     -5.54000000    32.27000000    14.30000000
   H     -6.63000000    33.69000000    12.02000000
   H     -4.17000000    34.11000000    13.57000000
   H     -6.71000000    34.84000000    14.25000000
   H     -6.33000000    36.14000000    13.15000000
   H     -4.10000000    36.20000000    12.23000000
   H     -3.80000000    34.84000000    11.12000000
   H     -5.41000000    35.48000000    11.15000000
   H     -4.38000000    36.69000000    14.59000000
   H     -5.90000000    36.75000000    15.48000000
   H     -4.90000000    35.27000000    15.57000000
   N     -5.40000000    32.47000000    10.11000000
   C     -4.69000000    32.02000000     8.93000000
   C     -3.93000000    33.21000000     8.37000000
   O     -4.32000000    34.36000000     8.50000000
   C     -5.61000000    31.35000000     7.91000000
   C     -6.57000000    30.32000000     8.50000000
   O     -7.54000000    30.77000000     9.15000000
   O     -6.38000000    29.10000000     8.30000000
   H     -6.37000000    32.71000000     9.98000000
   H     -4.02000000    31.20000000     9.21000000
   H     -5.14000000    30.83000000     7.07000000
   H     -6.15000000    32.16000000     7.43000000
   N     -2.84000000    32.96000000     7.64000000
   C     -1.99000000    34.01000000     7.11000000
   C     -2.73000000    34.96000000     6.18000000
   O     -2.62000000    36.18000000     6.32000000
   C     -0.73000000    33.38000000     6.54000000
   C      0.36000000    34.33000000     6.11000000
   C      0.91000000    34.18000000     4.83000000
   C      0.82000000    35.34000000     6.96000000
   C      1.84000000    35.16000000     4.47000000
   C      1.68000000    36.37000000     6.55000000
   C      2.24000000    36.23000000     5.28000000
   H     -2.59000000    31.99000000     7.57000000
   H     -1.73000000    34.67000000     7.95000000
   H     -1.01000000    32.77000000     5.68000000
   H     -0.28000000    32.58000000     7.13000000
   H      0.52000000    33.40000000     4.19000000
   H      0.35000000    35.44000000     7.93000000
   H      2.20000000    35.20000000     3.45000000
   H      2.04000000    37.15000000     7.20000000
   H      2.98000000    36.94000000     4.93000000
   N     -3.57000000    34.50000000     5.25000000
   C     -4.32000000    35.46000000     4.46000000
   C     -5.33000000    36.29000000     5.23000000
   O     -5.58000000    37.43000000     4.85000000
   C     -5.06000000    34.59000000     3.44000000
   C     -4.24000000    33.31000000     3.34000000
   C     -3.77000000    33.15000000     4.78000000
   H     -3.62000000    36.13000000     3.97000000
   H     -6.03000000    34.40000000     3.90000000
   H     -5.10000000    35.16000000     2.51000000
   H     -4.73000000    32.38000000     3.04000000
   H     -3.38000000    33.51000000     2.70000000
   H     -4.48000000    32.60000000     5.41000000
   H     -2.79000000    32.68000000     4.71000000
   N     -5.77000000    35.92000000     6.44000000
   C     -6.51000000    36.74000000     7.37000000
   C     -5.58000000    37.71000000     8.09000000
   O     -5.96000000    38.81000000     8.49000000
   C     -7.24000000    35.78000000     8.31000000
   C     -7.92000000    34.63000000     7.58000000
   C     -8.62000000    33.77000000     8.63000000
   O     -9.70000000    33.22000000     8.30000000
   O     -8.10000000    33.52000000     9.74000000
   H     -5.53000000    34.98000000     6.72000000
   H     -7.28000000    37.29000000     6.83000000
   H     -8.05000000    36.37000000     8.75000000
   H     -6.55000000    35.33000000     9.02000000
   H     -7.19000000    33.93000000     7.16000000
   H     -8.65000000    34.97000000     6.85000000
   N     -4.34000000    37.29000000     8.34000000
   C     -3.33000000    38.13000000     8.95000000
   H     -2.46300000    38.19000000     8.29200000
   H     -3.73500000    39.12900000     9.10900000
   H     -3.03000000    37.70200000     9.90700000
   H     -4.15000000    36.35000000     8.02000000
  Ca     -9.78000000    31.57000000    10.39000000
   O     -9.64000000    33.74000000    12.54000000
   H     -9.01000000    34.23000000    12.02000000
   H    -10.15000000    34.40000000    12.99000000
   O    -10.96000000    31.15000000    12.75000000
   H    -11.82000000    30.98000000    13.12000000
   H    -10.78000000    32.07000000    12.97000000

Ca 1.00



