%chk=loop2.holoCaM-CaMKII.run67.water2.chk
%nprocshared=20
%mem=10GB
%nosave
#b3lyp/svp scf=(tight,noincore,xqc) Test 
#IOP(5/87=12) Density=Current Pop=(MK,readradii) iop(6/33=2) iop(6/42=6)

loop2.holoCaM-CaMKII.run67.water2 

   -2  1 
   C     20.12000000    63.78000000   107.90200000
   C     20.33000000    65.27000000   107.66200000
   O     21.46000000    65.73000000   107.79200000
   H     19.16100000    63.47600000   107.48200000
   H     20.92100000    63.21800000   107.42200000
   H     20.12600000    63.58000000   108.97300000
   N     19.26000000    65.98000000   107.31200000
   C     19.33000000    67.32000000   106.76200000
   C     19.59000000    68.53000000   107.64200000
   O     18.80000000    68.72000000   108.56200000
   C     18.04000000    67.55000000   105.96200000
   C     18.15000000    68.66000000   104.93200000
   O     19.22000000    69.12000000   104.48200000
   O     17.10000000    69.08000000   104.39200000
   H     18.36000000    65.53000000   107.25200000
   H     20.16000000    67.28000000   106.06200000
   H     17.18000000    67.78000000   106.58200000
   H     17.74000000    66.65000000   105.42200000
   N     20.50000000    69.40000000   107.21200000
   C     20.69000000    70.67000000   107.88200000
   C     20.20000000    71.90000000   107.14200000
   O     20.02000000    72.97000000   107.71200000
   C     22.17000000    70.79000000   108.23200000
   H     21.10000000    69.21000000   106.41200000
   H     20.12000000    70.69000000   108.81200000
   H     22.77000000    70.70000000   107.33200000
   H     22.33000000    71.73000000   108.75200000
   H     22.46000000    69.92000000   108.82200000
   N     19.79000000    71.77000000   105.87200000
   C     19.59000000    72.96000000   105.07200000
   C     18.59000000    73.02000000   103.93200000
   O     18.45000000    74.08000000   103.32200000
   C     20.97000000    73.32000000   104.52200000
   C     21.79000000    72.36000000   103.67200000
   O     21.22000000    71.30000000   103.33200000
   O     22.97000000    72.69000000   103.41200000
   H     19.85000000    70.86000000   105.45200000
   H     19.26000000    73.78000000   105.71200000
   H     21.59000000    73.59000000   105.38200000
   H     20.76000000    74.19000000   103.90200000
   N     17.86000000    71.96000000   103.55200000
   C     16.88000000    72.00000000   102.49200000
   C     17.32000000    72.05000000   101.04200000
   O     16.51000000    72.12000000   100.12200000
   H     17.96000000    71.08000000   104.04200000
   H     16.18000000    72.82000000   102.67200000
   H     16.40000000    71.03000000   102.63200000
   N     18.63000000    72.00000000   100.79200000
   C     19.18000000    72.04000000    99.45200000
   C     18.90000000    70.82000000    98.58200000
   O     19.07000000    70.89000000    97.36200000
   C     20.65000000    72.43000000    99.57200000
   C     21.59000000    71.32000000   100.05200000
   N     22.89000000    71.56000000   100.20200000
   O     21.16000000    70.25000000   100.48200000
   H     19.20000000    72.05000000   101.62200000
   H     18.61000000    72.67000000    98.77200000
   H     20.63000000    73.23000000   100.31200000
   H     21.01000000    72.76000000    98.59200000
   H     23.34000000    72.39000000    99.86200000
   H     23.47000000    70.87000000   100.67200000
   N     18.32000000    69.78000000    99.18200000
   C     17.76000000    68.62000000    98.52200000
   C     18.71000000    67.45000000    98.34200000
   O     18.33000000    66.41000000    97.80200000
   H     18.28000000    69.90000000   100.18200000
   H     17.34000000    68.98000000    97.58200000
   H     16.98000000    68.21000000    99.16200000
   N     19.95000000    67.65000000    98.80200000
   C     21.07000000    66.77000000    98.53200000
   C     21.76000000    66.25000000    99.79200000
   O     21.89000000    67.01000000   100.74200000
   C     22.17000000    67.47000000    97.75200000
   C     21.76000000    67.61000000    96.28200000
   O     22.43000000    68.78000000    98.18200000
   H     20.18000000    68.57000000    99.14200000
   H     20.65000000    65.90000000    98.02200000
   H     23.10000000    66.92000000    97.95200000
   H     22.67000000    68.75000000    99.11200000
   H     22.68000000    67.69000000    95.71200000
   H     21.28000000    66.74000000    95.83200000
   H     21.08000000    68.44000000    96.11200000
   N     22.37000000    65.07000000    99.86200000
   C     23.31000000    64.74000000   100.91200000
   C     24.49000000    65.68000000   100.74200000
   O     25.09000000    65.75000000    99.66200000
   C     23.69000000    63.27000000   101.06200000
   C     22.44000000    62.40000000   101.05200000
   C     24.43000000    62.98000000   102.36200000
   C     22.83000000    60.92000000   101.03200000
   H     22.39000000    64.49000000    99.04200000
   H     22.80000000    64.98000000   101.84200000
   H     24.38000000    62.97000000   100.27200000
   H     21.88000000    62.58000000   100.13200000
   H     21.84000000    62.56000000   101.94200000
   H     25.17000000    63.78000000   102.40200000
   H     23.71000000    62.96000000   103.18200000
   H     24.94000000    62.03000000   102.16200000
   H     22.93000000    60.63000000   102.08200000
   H     21.98000000    60.35000000   100.66200000
   H     23.76000000    60.68000000   100.53200000
   N     24.82000000    66.44000000   101.79200000
   C     26.10000000    67.11000000   101.92200000
   C     27.12000000    66.37000000   102.77200000
   O     26.79000000    65.53000000   103.60200000
   C     25.87000000    68.46000000   102.59200000
   C     24.79000000    69.22000000   101.82200000
   O     23.56000000    69.15000000   102.02200000
   O     25.24000000    70.08000000   101.04200000
   H     24.11000000    66.53000000   102.50200000
   H     26.45000000    67.32000000   100.91200000
   H     26.82000000    68.99000000   102.58200000
   H     25.53000000    68.30000000   103.61200000
   N     28.38000000    66.61000000   102.42200000
   C     29.42000000    65.77000000   102.96200000
   C     29.44000000    65.51000000   104.46200000
   O     29.64000000    64.36000000   104.84200000
   C     30.77000000    66.28000000   102.45200000
   C     31.91000000    65.30000000   102.60200000
   C     32.82000000    65.34000000   103.66200000
   C     32.04000000    64.23000000   101.71200000
   C     33.86000000    64.41000000   103.76200000
   C     33.08000000    63.30000000   101.77200000
   C     33.99000000    63.37000000   102.83200000
   H     28.61000000    67.23000000   101.65200000
   H     29.30000000    64.76000000   102.56200000
   H     31.02000000    67.23000000   102.91200000
   H     30.68000000    66.53000000   101.39200000
   H     32.82000000    66.23000000   104.26200000
   H     31.34000000    64.04000000   100.91200000
   H     34.60000000    64.57000000   104.54200000
   H     33.07000000    62.45000000   101.11200000
   H     34.76000000    62.63000000   102.99200000
   N     29.10000000    66.45000000   105.36200000
   C     28.92000000    66.11000000   106.76200000
   C     27.68000000    65.30000000   107.07200000
   O     27.54000000    64.64000000   108.10200000
   C     28.82000000    67.40000000   107.57200000
   C     29.48000000    68.43000000   106.65200000
   C     29.22000000    67.89000000   105.25200000
   H     29.73000000    65.47000000   107.11200000
   H     27.78000000    67.68000000   107.72200000
   H     29.32000000    67.39000000   108.54200000
   H     29.16000000    69.45000000   106.86200000
   H     30.56000000    68.39000000   106.81200000
   H     28.26000000    68.27000000   104.90200000
   H     29.93000000    68.28000000   104.53200000
   N     26.63000000    65.38000000   106.25200000
   C     25.40000000    64.66000000   106.47200000
   C     25.59000000    63.21000000   106.03200000
   O     24.93000000    62.31000000   106.55200000
   C     24.27000000    65.28000000   105.65200000
   C     24.15000000    66.80000000   105.70200000
   C     23.09000000    67.41000000   104.79200000
   O     22.45000000    68.45000000   105.04200000
   O     22.80000000    66.87000000   103.70200000
   H     26.72000000    65.95000000   105.42200000
   H     25.12000000    64.64000000   107.53200000
   H     23.26000000    64.95000000   105.89200000
   H     24.44000000    65.10000000   104.59200000
   H     25.10000000    67.24000000   105.39200000
   H     23.86000000    67.11000000   106.70200000
   N     26.45000000    62.94000000   105.05200000
   C     26.82000000    61.59000000   104.70200000
   H     27.79700000    61.36000000   105.12800000
   H     26.07900000    60.89500000   105.09800000
   H     26.86500000    61.49500000   103.61700000
   H     26.86000000    63.70000000   104.52200000
  Ca     21.20000000    68.76000000   102.81200000
   O     20.23000000    66.22000000   103.20200000
   H     21.07000000    65.90000000   103.51200000
   H     19.59000000    65.62000000   103.59200000
   O     18.58000000    68.56000000   101.94200000
   H     18.05000000    67.82000000   101.66200000
   H     18.16000000    68.85000000   102.76200000

Ca 1.00



