%chk=loop2.holoCaM-CaMKII.run73.water2.chk
%nprocshared=20
%mem=10GB
%nosave
#b3lyp/svp scf=(tight,noincore,xqc) Test 
#IOP(5/87=12) Density=Current Pop=(MK,readradii) iop(6/33=2) iop(6/42=6)

loop2.holoCaM-CaMKII.run73.water2 

   -2  1 
   C     13.19000000    53.36000000   115.46900000
   C     13.66000000    54.79000000   115.67900000
   O     14.75000000    55.05000000   116.17900000
   H     12.24300000    53.36500000   114.93000000
   H     13.93400000    52.81400000   114.89000000
   H     13.05500000    52.87600000   116.43600000
   N     12.83000000    55.72000000   115.21900000
   C     13.23000000    57.11000000   115.23900000
   C     13.40000000    57.75000000   116.60900000
   O     12.56000000    57.59000000   117.49900000
   C     12.15000000    57.95000000   114.55900000
   C     12.56000000    59.41000000   114.49900000
   O     13.75000000    59.73000000   114.28900000
   O     11.70000000    60.30000000   114.69900000
   H     12.01000000    55.41000000   114.71900000
   H     14.22000000    57.22000000   114.78900000
   H     11.25000000    57.88000000   115.15900000
   H     11.96000000    57.59000000   113.54900000
   N     14.44000000    58.57000000   116.76900000
   C     14.90000000    59.31000000   117.92900000
   C     14.76000000    60.82000000   117.78900000
   O     14.76000000    61.42000000   118.85900000
   C     16.29000000    58.85000000   118.32900000
   H     15.05000000    58.64000000   115.96900000
   H     14.30000000    59.00000000   118.78900000
   H     16.47000000    59.12000000   119.37900000
   H     16.42000000    57.78000000   118.17900000
   H     17.01000000    59.38000000   117.69900000
   N     14.53000000    61.41000000   116.60900000
   C     14.76000000    62.82000000   116.34900000
   C     13.83000000    63.45000000   115.32900000
   O     13.73000000    64.66000000   115.15900000
   C     16.21000000    63.02000000   115.91900000
   C     16.62000000    61.97000000   114.89900000
   O     15.84000000    61.77000000   113.93900000
   O     17.70000000    61.34000000   114.88900000
   H     14.63000000    60.85000000   115.76900000
   H     14.63000000    63.41000000   117.25900000
   H     16.82000000    62.97000000   116.81900000
   H     16.36000000    64.02000000   115.53900000
   N     13.09000000    62.66000000   114.52900000
   C     12.23000000    63.10000000   113.44900000
   C     12.92000000    63.73000000   112.24900000
   O     12.30000000    64.58000000   111.61900000
   H     13.08000000    61.71000000   114.85900000
   H     11.50000000    63.86000000   113.72900000
   H     11.71000000    62.32000000   112.89900000
   N     14.19000000    63.38000000   111.98900000
   C     15.00000000    63.87000000   110.89900000
   C     14.62000000    63.23000000   109.56900000
   O     15.23000000    63.68000000   108.59900000
   C     16.48000000    63.82000000   111.24900000
   C     16.98000000    62.39000000   111.19900000
   N     18.20000000    62.13000000   111.66900000
   O     16.31000000    61.41000000   110.86900000
   H     14.65000000    62.79000000   112.66900000
   H     14.77000000    64.92000000   110.70900000
   H     16.79000000    64.33000000   112.16900000
   H     17.04000000    64.42000000   110.52900000
   H     18.67000000    62.80000000   112.25900000
   H     18.56000000    61.19000000   111.79900000
   N     13.65000000    62.32000000   109.47900000
   C     13.15000000    61.77000000   108.22900000
   C     13.93000000    60.62000000   107.61900000
   O     13.81000000    60.31000000   106.42900000
   H     13.21000000    62.02000000   110.33900000
   H     13.10000000    62.59000000   107.51900000
   H     12.16000000    61.32000000   108.38900000
   N     14.74000000    59.92000000   108.40900000
   C     15.63000000    58.86000000   107.98900000
   C     15.83000000    57.84000000   109.10900000
   O     15.89000000    58.25000000   110.25900000
   C     16.99000000    59.34000000   107.50900000
   C     16.98000000    59.83000000   106.05900000
   O     17.41000000    60.44000000   108.26900000
   H     14.74000000    60.13000000   109.39900000
   H     15.12000000    58.30000000   107.19900000
   H     17.67000000    58.48000000   107.51900000
   H     16.96000000    60.24000000   109.08900000
   H     16.35000000    59.14000000   105.49900000
   H     16.47000000    60.79000000   105.93900000
   H     18.00000000    59.80000000   105.68900000
   N     16.23000000    56.61000000   108.78900000
   C     16.98000000    55.89000000   109.79900000
   C     18.37000000    56.50000000   109.91900000
   O     18.91000000    56.86000000   108.86900000
   C     17.03000000    54.40000000   109.48900000
   C     15.67000000    53.82000000   109.88900000
   C     18.13000000    53.69000000   110.25900000
   C     15.37000000    52.36000000   109.54900000
   H     16.35000000    56.46000000   107.79900000
   H     16.61000000    56.07000000   110.80900000
   H     17.13000000    54.36000000   108.40900000
   H     14.89000000    54.49000000   109.51900000
   H     15.73000000    53.94000000   110.96900000
   H     18.06000000    52.63000000   110.01900000
   H     19.17000000    54.03000000   110.18900000
   H     18.02000000    53.63000000   111.34900000
   H     16.16000000    51.62000000   109.71900000
   H     14.52000000    51.94000000   110.08900000
   H     15.23000000    52.32000000   108.46900000
   N     18.99000000    56.45000000   111.09900000
   C     20.35000000    56.79000000   111.45900000
   C     21.02000000    55.61000000   112.14900000
   O     20.35000000    54.65000000   112.52900000
   C     20.42000000    57.95000000   112.44900000
   C     19.67000000    59.15000000   111.87900000
   O     18.44000000    59.18000000   112.06900000
   O     20.33000000    60.15000000   111.52900000
   H     18.37000000    56.25000000   111.86900000
   H     20.96000000    56.94000000   110.56900000
   H     21.46000000    58.23000000   112.59900000
   H     20.03000000    57.67000000   113.42900000
   N     22.35000000    55.62000000   112.28900000
   C     23.07000000    54.46000000   112.77900000
   C     22.66000000    53.95000000   114.14900000
   O     22.47000000    52.74000000   114.31900000
   C     24.58000000    54.68000000   112.67900000
   C     25.39000000    53.49000000   113.14900000
   C     25.98000000    53.55000000   114.41900000
   C     25.52000000    52.34000000   112.35900000
   C     26.84000000    52.52000000   114.81900000
   C     26.24000000    51.23000000   112.82900000
   C     26.83000000    51.32000000   114.08900000
   H     22.89000000    56.36000000   111.88900000
   H     22.79000000    53.60000000   112.15900000
   H     24.96000000    55.50000000   113.27900000
   H     24.86000000    54.80000000   111.62900000
   H     25.83000000    54.41000000   115.04900000
   H     25.05000000    52.36000000   111.38900000
   H     27.24000000    52.55000000   115.81900000
   H     26.22000000    50.32000000   112.23900000
   H     27.32000000    50.47000000   114.53900000
   N     22.32000000    54.83000000   115.09900000
   C     21.87000000    54.35000000   116.38900000
   C     20.49000000    53.70000000   116.33900000
   O     20.10000000    52.90000000   117.18900000
   C     22.04000000    55.53000000   117.33900000
   C     23.25000000    56.20000000   116.68900000
   C     22.86000000    56.17000000   115.20900000
   H     22.53000000    53.57000000   116.73900000
   H     21.19000000    56.21000000   117.23900000
   H     22.19000000    55.09000000   118.32900000
   H     23.43000000    57.22000000   117.00900000
   H     24.15000000    55.59000000   116.73900000
   H     22.19000000    56.95000000   114.84900000
   H     23.75000000    56.29000000   114.58900000
   N     19.69000000    54.12000000   115.36900000
   C     18.34000000    53.64000000   115.14900000
   C     18.38000000    52.29000000   114.43900000
   O     17.60000000    51.40000000   114.76900000
   C     17.58000000    54.66000000   114.30900000
   C     17.65000000    56.02000000   114.98900000
   C     16.83000000    57.07000000   114.24900000
   O     16.60000000    58.14000000   114.85900000
   O     16.55000000    56.94000000   113.03900000
   H     20.14000000    54.57000000   114.58900000
   H     17.79000000    53.57000000   116.07900000
   H     16.55000000    54.35000000   114.11900000
   H     18.14000000    54.75000000   113.37900000
   H     18.62000000    56.49000000   115.11900000
   H     17.25000000    55.91000000   115.99900000
   N     19.32000000    52.05000000   113.51900000
   C     19.59000000    50.76000000   112.92900000
   H     20.58200000    50.42300000   113.23100000
   H     18.84400000    50.04100000   113.26800000
   H     19.54900000    50.84100000   111.84300000
   H     20.02000000    52.77000000   113.39900000
  Ca     15.94000000    59.52000000   112.82900000
   O     14.04000000    57.20000000   112.18900000
   H     14.78000000    56.70000000   112.51900000
   H     13.32000000    56.57000000   112.15900000
   O     13.60000000    59.70000000   111.31900000
   H     12.75000000    59.88000000   110.92900000
   H     13.60000000    58.76000000   111.48900000

Ca 1.00



