%chk=loop2.holoCaM-CaMKII.run58.water2.chk
%nprocshared=20
%mem=10GB
%nosave
#b3lyp/svp scf=(tight,noincore,xqc) Test 
#IOP(5/87=12) Density=Current Pop=(MK,readradii) iop(6/33=2) iop(6/42=6)

loop2.holoCaM-CaMKII.run58.water2 

   -2  1 
   C     -5.52000000    51.11000000    34.22000000
   C     -6.83000000    51.61000000    33.65000000
   O     -7.14000000    52.76000000    33.97000000
   H     -4.78200000    51.91200000    34.19100000
   H     -5.67000000    50.79200000    35.25200000
   H     -5.16300000    50.26700000    33.62800000
   N     -7.68000000    50.85000000    32.96000000
   C     -8.89000000    51.26000000    32.29000000
   C     -9.98000000    51.56000000    33.31000000
   O    -10.19000000    50.80000000    34.25000000
   C     -9.47000000    50.19000000    31.38000000
   C    -10.56000000    50.78000000    30.49000000
   O    -10.62000000    52.02000000    30.35000000
   O    -11.34000000    50.01000000    29.88000000
   H     -7.42000000    49.88000000    32.82000000
   H     -8.62000000    52.16000000    31.72000000
   H     -9.79000000    49.34000000    31.97000000
   H     -8.75000000    49.77000000    30.68000000
   N    -10.81000000    52.57000000    33.01000000
   C    -12.08000000    52.87000000    33.64000000
   C    -13.26000000    53.15000000    32.73000000
   O    -14.34000000    53.57000000    33.15000000
   C    -11.75000000    53.75000000    34.84000000
   H    -10.49000000    53.08000000    32.20000000
   H    -12.36000000    51.89000000    34.03000000
   H    -11.14000000    54.62000000    34.58000000
   H    -12.65000000    54.18000000    35.29000000
   H    -11.27000000    53.26000000    35.68000000
   N    -13.18000000    52.88000000    31.43000000
   C    -14.18000000    53.24000000    30.44000000
   C    -14.52000000    52.20000000    29.38000000
   O    -15.58000000    52.22000000    28.76000000
   C    -13.83000000    54.63000000    29.92000000
   C    -12.45000000    54.69000000    29.30000000
   O    -12.14000000    53.85000000    28.42000000
   O    -11.55000000    55.51000000    29.59000000
   H    -12.27000000    52.71000000    31.03000000
   H    -15.10000000    53.36000000    31.01000000
   H    -13.89000000    55.26000000    30.81000000
   H    -14.58000000    54.89000000    29.17000000
   N    -13.64000000    51.25000000    29.08000000
   C    -13.88000000    50.35000000    27.98000000
   C    -13.68000000    50.92000000    26.58000000
   O    -14.22000000    50.36000000    25.63000000
   H    -12.76000000    51.20000000    29.58000000
   H    -14.90000000    49.96000000    28.03000000
   H    -13.24000000    49.48000000    28.15000000
   N    -12.89000000    51.99000000    26.45000000
   C    -12.58000000    52.57000000    25.16000000
   C    -11.41000000    51.90000000    24.45000000
   O    -11.11000000    52.30000000    23.32000000
   C    -12.38000000    54.07000000    25.30000000
   C    -11.03000000    54.59000000    25.77000000
   N    -10.91000000    55.92000000    25.89000000
   O    -10.08000000    53.89000000    26.13000000
   H    -12.46000000    52.48000000    27.22000000
   H    -13.42000000    52.44000000    24.47000000
   H    -13.22000000    54.48000000    25.86000000
   H    -12.46000000    54.45000000    24.28000000
   H    -11.74000000    56.46000000    25.72000000
   H    -10.18000000    56.47000000    26.33000000
   N    -10.70000000    50.98000000    25.10000000
   C     -9.69000000    50.15000000    24.47000000
   C     -8.39000000    50.89000000    24.20000000
   O     -7.57000000    50.50000000    23.38000000
   H    -11.04000000    50.70000000    26.00000000
   H    -10.08000000    49.68000000    23.57000000
   H     -9.47000000    49.36000000    25.20000000
   N     -8.22000000    52.05000000    24.85000000
   C     -7.01000000    52.83000000    24.84000000
   C     -6.72000000    53.43000000    26.21000000
   O     -7.53000000    53.39000000    27.12000000
   C     -7.19000000    54.04000000    23.92000000
   C     -7.37000000    53.63000000    22.46000000
   O     -8.25000000    54.89000000    24.28000000
   H     -8.89000000    52.14000000    25.60000000
   H     -6.20000000    52.24000000    24.41000000
   H     -6.26000000    54.61000000    23.98000000
   H     -8.68000000    54.45000000    25.02000000
   H     -7.18000000    54.50000000    21.83000000
   H     -6.69000000    52.79000000    22.40000000
   H     -8.37000000    53.29000000    22.18000000
   N     -5.47000000    53.81000000    26.49000000
   C     -5.11000000    54.55000000    27.68000000
   C     -5.38000000    56.02000000    27.40000000
   O     -4.84000000    56.59000000    26.46000000
   C     -3.68000000    54.27000000    28.13000000
   C     -3.30000000    52.79000000    28.05000000
   C     -3.45000000    54.85000000    29.52000000
   C     -1.91000000    52.40000000    28.56000000
   H     -4.80000000    53.76000000    25.73000000
   H     -5.86000000    54.27000000    28.41000000
   H     -3.01000000    54.81000000    27.46000000
   H     -3.53000000    52.39000000    27.07000000
   H     -3.99000000    52.30000000    28.74000000
   H     -3.91000000    54.15000000    30.22000000
   H     -2.38000000    54.89000000    29.75000000
   H     -3.88000000    55.85000000    29.64000000
   H     -1.12000000    52.90000000    28.00000000
   H     -1.79000000    52.63000000    29.62000000
   H     -1.70000000    51.36000000    28.33000000
   N     -6.11000000    56.68000000    28.32000000
   C     -6.36000000    58.11000000    28.36000000
   C     -5.42000000    58.78000000    29.35000000
   O     -4.93000000    58.07000000    30.23000000
   C     -7.81000000    58.31000000    28.80000000
   C     -8.83000000    57.55000000    27.97000000
   O     -9.03000000    56.32000000    27.98000000
   O     -9.51000000    58.22000000    27.15000000
   H     -6.38000000    56.17000000    29.14000000
   H     -6.23000000    58.41000000    27.32000000
   H     -7.93000000    59.39000000    28.66000000
   H     -7.92000000    58.09000000    29.86000000
   N     -5.33000000    60.10000000    29.48000000
   C     -4.44000000    60.83000000    30.37000000
   C     -4.52000000    60.43000000    31.84000000
   O     -3.52000000    60.08000000    32.46000000
   C     -4.48000000    62.33000000    30.13000000
   C     -3.37000000    63.02000000    30.89000000
   C     -3.63000000    63.73000000    32.07000000
   C     -2.03000000    62.88000000    30.52000000
   C     -2.66000000    64.39000000    32.83000000
   C     -1.04000000    63.56000000    31.25000000
   C     -1.33000000    64.29000000    32.41000000
   H     -5.79000000    60.72000000    28.83000000
   H     -3.44000000    60.59000000    30.03000000
   H     -5.40000000    62.84000000    30.44000000
   H     -4.39000000    62.48000000    29.05000000
   H     -4.57000000    63.61000000    32.59000000
   H     -1.72000000    62.59000000    29.53000000
   H     -2.88000000    64.86000000    33.77000000
   H     -0.02000000    63.54000000    30.90000000
   H     -0.57000000    64.79000000    32.99000000
   N     -5.70000000    60.43000000    32.46000000
   C     -5.86000000    60.07000000    33.86000000
   C     -5.51000000    58.63000000    34.23000000
   O     -5.35000000    58.27000000    35.39000000
   C     -7.29000000    60.46000000    34.20000000
   C     -7.97000000    61.01000000    32.95000000
   C     -7.01000000    60.56000000    31.86000000
   H     -5.23000000    60.69000000    34.50000000
   H     -7.78000000    59.65000000    34.74000000
   H     -7.22000000    61.25000000    34.96000000
   H     -8.98000000    60.61000000    32.86000000
   H     -7.92000000    62.09000000    32.98000000
   H     -7.27000000    59.60000000    31.41000000
   H     -6.93000000    61.22000000    31.00000000
   N     -5.46000000    57.77000000    33.21000000
   C     -5.02000000    56.39000000    33.31000000
   C     -3.50000000    56.36000000    33.20000000
   O     -2.75000000    55.54000000    33.72000000
   C     -5.65000000    55.54000000    32.21000000
   C     -7.17000000    55.68000000    32.17000000
   C     -7.89000000    54.82000000    31.14000000
   O     -9.08000000    54.50000000    31.35000000
   O     -7.33000000    54.38000000    30.11000000
   H     -5.52000000    58.17000000    32.29000000
   H     -5.21000000    55.89000000    34.26000000
   H     -5.45000000    54.49000000    32.44000000
   H     -5.16000000    55.83000000    31.28000000
   H     -7.44000000    56.73000000    32.02000000
   H     -7.44000000    55.46000000    33.20000000
   N     -2.91000000    57.29000000    32.44000000
   C     -1.48000000    57.48000000    32.33000000
   H     -0.97200000    56.53700000    32.53200000
   H     -1.23400000    57.81600000    31.32300000
   H     -1.15600000    58.22900000    33.05200000
   H     -3.52000000    57.83000000    31.84000000
  Ca     -9.54000000    53.85000000    28.75000000
   O     -7.30000000    51.87000000    29.43000000
   H     -7.02000000    52.71000000    29.78000000
   H     -6.79000000    51.21000000    29.91000000
   O     -9.40000000    51.35000000    27.76000000
   H     -9.83000000    50.53000000    27.54000000
   H     -8.52000000    51.10000000    28.05000000

Ca 1.00



