%chk=holoCaM_loop3_12.0.chk
%nprocshared=48
%mem=10GB
%nosave
#b3lyp/svp scf=(tight,noincore) Test 
#IOP(5/87=12) Density=Current Pop=(MK,readradii) iop(6/33=2) iop(6/42=6)

holoCaM_loop3_12.0 

   0   1
   C     -4.89500000    56.69000000   102.81000000
   C     -3.80500000    57.60000000   102.26000000
   O     -2.73500000    57.19000000   101.81000000
   H     -5.79300000    56.79100000   102.20100000
   H     -4.55300000    55.65500000   102.78400000
   H     -5.12100000    56.97300000   103.83800000
   N     -3.98500000    58.91000000   102.44000000
   C     -2.92500000    59.89000000   102.29000000
   C     -2.12500000    59.92000000   103.58000000
   O     -2.67500000    60.27000000   104.63000000
   C     -3.45500000    61.27000000   101.92000000
   C     -2.25500000    62.19000000   101.76000000
   O     -1.92500000    63.04000000   102.62000000
   O     -1.66500000    62.09000000   100.67000000
   H     -4.77500000    59.16000000   103.03000000
   H     -2.20500000    59.68000000   101.50000000
   H     -4.21500000    61.61000000   102.63000000
   H     -3.99500000    61.24000000   100.97000000
   N     -0.82500000    59.63000000   103.46000000
   C      0.15500000    59.42000000   104.50000000
   C      1.28500000    60.40000000   104.74000000
   O      2.07500000    60.23000000   105.67000000
   C      0.80500000    58.06000000   104.28000000
   C     -0.03500000    56.79000000   104.40000000
   C     -0.95500000    56.73000000   105.61000000
   C     -1.15500000    55.25000000   105.91000000
   N     -2.05500000    54.62000000   104.93000000
   H     -0.60500000    59.24000000   102.55000000
   H     -0.37500000    59.45000000   105.46000000
   H      1.69500000    57.93000000   104.90000000
   H      1.28500000    58.06000000   103.30000000
   H      0.60500000    55.91000000   104.32000000
   H     -0.67500000    56.81000000   103.52000000
   H     -1.86500000    57.33000000   105.61000000
   H     -0.28500000    57.07000000   106.40000000
   H     -1.63500000    55.19000000   106.88000000
   H     -0.19500000    54.74000000   106.00000000
   H     -1.62500000    54.56000000   104.02000000
   H     -2.27500000    53.66000000   105.17000000
   H     -2.92500000    55.12000000   104.84000000
   N      1.28500000    61.44000000   103.90000000
   C      2.20500000    62.56000000   103.98000000
   C      1.67500000    63.98000000   104.11000000
   O      2.42500000    64.93000000   104.33000000
   C      3.21500000    62.43000000   102.84000000
   C      2.52500000    62.36000000   101.48000000
   O      2.65500000    61.31000000   100.81000000
   O      1.87500000    63.30000000   100.98000000
   H      0.52500000    61.43000000   103.23000000
   H      2.79500000    62.36000000   104.88000000
   H      3.64500000    61.44000000   102.97000000
   H      3.97500000    63.20000000   102.91000000
   N      0.37500000    64.15000000   103.87000000
   C     -0.24500000    65.44000000   104.09000000
   C     -0.72500000    66.29000000   102.92000000
   O     -1.29500000    67.35000000   103.17000000
   H     -0.19500000    63.34000000   103.71000000
   H      0.43500000    66.12000000   104.60000000
   H     -1.18500000    65.40000000   104.63000000
   N     -0.46500000    65.90000000   101.67000000
   C     -0.94500000    66.63000000   100.52000000
   C     -2.29500000    66.24000000    99.95000000
   O     -2.82500000    66.86000000    99.02000000
   C      0.11500000    66.71000000    99.42000000
   C      0.35500000    65.43000000    98.64000000
   N      1.06500000    65.57000000    97.51000000
   O     -0.16500000    64.34000000    98.84000000
   H     -0.01500000    65.00000000   101.60000000
   H     -0.92500000    67.67000000   100.85000000
   H      1.06500000    67.08000000    99.80000000
   H     -0.20500000    67.54000000    98.78000000
   H      1.36500000    66.53000000    97.37000000
   H      1.18500000    64.89000000    96.78000000
   N     -2.88500000    65.19000000   100.53000000
   C     -4.21500000    64.73000000   100.19000000
   C     -4.34500000    64.10000000    98.81000000
   O     -5.47500000    64.05000000    98.33000000
   H     -2.34500000    64.82000000   101.30000000
   H     -4.83500000    65.62000000   100.28000000
   H     -4.63500000    64.03000000   100.92000000
   N     -3.21500000    63.69000000    98.24000000
   C     -3.24500000    63.06000000    96.94000000
   C     -2.55500000    61.71000000    97.06000000
   O     -1.46500000    61.64000000    97.62000000
   C     -2.60500000    63.93000000    95.86000000
   C     -3.12500000    65.34000000    95.73000000
   C     -2.16500000    66.36000000    95.63000000
   C     -4.49500000    65.58000000    95.69000000
   C     -2.69500000    67.62000000    95.33000000
   C     -4.99500000    66.86000000    95.43000000
   C     -4.07500000    67.90000000    95.21000000
   O     -4.41500000    69.17000000    94.83000000
   H     -2.43500000    63.69000000    98.89000000
   H     -4.26500000    62.77000000    96.67000000
   H     -2.76500000    63.45000000    94.90000000
   H     -1.52500000    63.89000000    96.00000000
   H     -1.10500000    66.18000000    95.77000000
   H     -5.20500000    64.80000000    95.91000000
   H     -2.03500000    68.44000000    95.13000000
   H     -6.06500000    67.06000000    95.45000000
   H     -5.36500000    69.19000000    94.70000000
   N     -3.06500000    60.59000000    96.53000000
   C     -2.47500000    59.29000000    96.77000000
   C     -1.48500000    59.04000000    95.65000000
   O     -1.83500000    59.27000000    94.49000000
   C     -3.50500000    58.16000000    96.86000000
   C     -4.78500000    58.56000000    97.59000000
   C     -2.82500000    56.92000000    97.42000000
   C     -4.67500000    59.03000000    99.03000000
   H     -4.00500000    60.69000000    96.17000000
   H     -2.11500000    59.33000000    97.80000000
   H     -3.73500000    58.00000000    95.81000000
   H     -5.41500000    57.67000000    97.65000000
   H     -5.38500000    59.24000000    96.98000000
   H     -3.60500000    56.16000000    97.34000000
   H     -1.97500000    56.54000000    96.85000000
   H     -2.43500000    57.13000000    98.42000000
   H     -4.16500000    58.30000000    99.66000000
   H     -4.10500000    59.96000000    99.10000000
   H     -5.69500000    59.07000000    99.42000000
   N     -0.25500000    58.63000000    95.98000000
   C      0.78500000    58.26000000    95.05000000
   C      1.12500000    56.79000000    95.25000000
   O      0.53500000    56.07000000    96.05000000
   C      1.95500000    59.22000000    95.17000000
   O      2.64500000    59.07000000    96.39000000
   H     -0.02500000    58.56000000    96.97000000
   H      0.42500000    58.37000000    94.02000000
   H      1.53500000    60.23000000    95.10000000
   H      2.67500000    58.94000000    94.40000000
   H      2.02500000    59.26000000    97.09000000
   N      2.02500000    56.18000000    94.48000000
   C      2.18500000    54.75000000    94.33000000
   C      2.52500000    53.99000000    95.60000000
   O      1.87500000    53.01000000    95.94000000
   C      3.27500000    54.60000000    93.28000000
   H      2.50500000    56.76000000    93.80000000
   H      1.30500000    54.31000000    93.86000000
   H      3.42500000    53.53000000    93.19000000
   H      2.99500000    54.93000000    92.28000000
   H      4.27500000    54.89000000    93.60000000
   N      3.47500000    54.45000000    96.43000000
   C      3.85500000    53.76000000    97.64000000
   C      2.78500000    53.82000000    98.71000000
   O      2.50500000    52.91000000    99.49000000
   C      5.18500000    54.34000000    98.13000000
   H      3.92500000    55.34000000    96.26000000
   H      4.06500000    52.71000000    97.44000000
   H      5.51500000    53.94000000    99.09000000
   H      5.88500000    54.12000000    97.33000000
   H      4.92500000    55.39000000    98.28000000
   N      2.07500000    54.95000000    98.72000000
   C      0.85500000    55.06000000    99.50000000
   C     -0.26500000    54.14000000    99.05000000
   O     -0.82500000    53.46000000    99.91000000
   C      0.29500000    56.48000000    99.45000000
   C      1.24500000    57.47000000   100.10000000
   C      0.68500000    58.86000000    99.83000000
   O      0.35500000    59.53000000   100.83000000
   O      0.64500000    59.22000000    98.63000000
   H      2.28500000    55.64000000    98.01000000
   H      1.13500000    54.75000000   100.50000000
   H     -0.67500000    56.51000000    99.94000000
   H      0.08500000    56.73000000    98.41000000
   H      2.24500000    57.45000000    99.66000000
   H      1.47500000    57.32000000   101.15000000
   N     -0.63500000    53.97000000    97.78000000
   C     -1.51500000    53.00000000    97.15000000
   H     -2.42000000    53.50100000    96.80700000
   H     -1.00700000    52.54600000    96.29900000
   H     -1.77900000    52.22600000    97.87100000
   H     -0.26500000    54.64000000    97.12000000
  Ca      0.50000000    61.80000000    99.36000000
   O      1.78000000    62.46000000    97.23000000
   H      2.71000000    62.63000000    97.09000000
   H      1.39000000    62.58000000    96.36000000

Ca 1.70



