%chk=holoCaM_loop3_24.0.chk
%nprocshared=48
%mem=10GB
%nosave
#b3lyp/svp scf=(tight,noincore) Test 
#IOP(5/87=12) Density=Current Pop=(MK,readradii) iop(6/33=2) iop(6/42=6)

holoCaM_loop3_24.0 

   0   1
   C     90.87000000    58.68000000   101.68000000
   C     92.26000000    59.11000000   101.24000000
   O     92.92000000    58.39000000   100.49000000
   H     90.16100000    58.86400000   100.87300000
   H     90.87700000    57.61700000   101.92100000
   H     90.57400000    59.25100000   102.56000000
   N     92.72000000    60.30000000   101.63000000
   C     94.03000000    60.85000000   101.35000000
   C     95.07000000    60.58000000   102.42000000
   O     95.12000000    61.23000000   103.46000000
   C     93.83000000    62.34000000   101.07000000
   C     95.16000000    63.02000000   100.75000000
   O     95.02000000    64.22000000   100.44000000
   O     96.20000000    62.38000000   100.49000000
   H     92.06000000    60.85000000   102.16000000
   H     94.40000000    60.40000000   100.43000000
   H     93.33000000    62.83000000   101.91000000
   H     93.17000000    62.39000000   100.21000000
   N     95.95000000    59.63000000   102.10000000
   C     96.92000000    59.06000000   103.02000000
   C     98.14000000    59.88000000   103.40000000
   O     98.86000000    59.35000000   104.25000000
   C     97.24000000    57.64000000   102.54000000
   C     96.07000000    56.68000000   102.66000000
   C     96.38000000    55.25000000   102.21000000
   C     97.59000000    54.56000000   102.82000000
   N     97.32000000    54.33000000   104.25000000
   H     95.90000000    59.14000000   101.22000000
   H     96.40000000    58.95000000   103.97000000
   H     97.99000000    57.29000000   103.25000000
   H     97.55000000    57.62000000   101.49000000
   H     95.28000000    57.07000000   102.01000000
   H     95.69000000    56.77000000   103.68000000
   H     96.51000000    55.29000000   101.13000000
   H     95.52000000    54.62000000   102.43000000
   H     98.46000000    55.17000000   102.60000000
   H     97.68000000    53.54000000   102.44000000
   H     96.50000000    53.75000000   104.33000000
   H     98.07000000    53.86000000   104.72000000
   H     97.11000000    55.19000000   104.73000000
   N     98.24000000    61.14000000   102.97000000
   C     99.18000000    62.16000000   103.38000000
   C     98.62000000    63.57000000   103.52000000
   O     99.30000000    64.53000000   103.89000000
   C    100.42000000    62.09000000   102.48000000
   C    100.25000000    62.31000000   100.99000000
   O    101.30000000    62.37000000   100.32000000
   O     99.14000000    62.53000000   100.47000000
   H     97.64000000    61.27000000   102.17000000
   H     99.42000000    61.79000000   104.37000000
   H    100.85000000    61.09000000   102.61000000
   H    101.15000000    62.83000000   102.81000000
   N     97.36000000    63.82000000   103.15000000
   C     96.80000000    65.14000000   103.35000000
   C     97.18000000    66.16000000   102.29000000
   O     97.11000000    67.37000000   102.52000000
   H     96.76000000    63.04000000   102.95000000
   H     97.04000000    65.55000000   104.33000000
   H     95.71000000    65.02000000   103.29000000
   N     97.65000000    65.71000000   101.12000000
   C     98.14000000    66.62000000   100.11000000
   C     97.00000000    67.29000000    99.35000000
   O     97.20000000    68.47000000    99.07000000
   C     99.15000000    65.92000000    99.21000000
   C     98.70000000    65.07000000    98.04000000
   N     99.40000000    65.01000000    96.90000000
   O     97.63000000    64.47000000    98.08000000
   H     97.79000000    64.73000000   100.95000000
   H     98.76000000    67.39000000   100.57000000
   H     99.88000000    65.39000000    99.83000000
   H     99.69000000    66.69000000    98.66000000
   H    100.29000000    65.47000000    96.80000000
   H     99.04000000    64.34000000    96.23000000
   N     95.80000000    66.73000000    99.29000000
   C     94.52000000    67.12000000    98.73000000
   C     93.99000000    66.27000000    97.59000000
   O     93.01000000    66.64000000    96.94000000
   H     95.74000000    65.82000000    99.73000000
   H     94.57000000    68.10000000    98.24000000
   H     93.78000000    67.31000000    99.51000000
   N     94.56000000    65.08000000    97.38000000
   C     94.38000000    64.24000000    96.22000000
   C     94.41000000    62.74000000    96.49000000
   O     95.15000000    62.28000000    97.36000000
   C     95.30000000    64.67000000    95.08000000
   C     95.40000000    66.15000000    94.85000000
   C     96.42000000    66.91000000    95.44000000
   C     94.41000000    66.83000000    94.14000000
   C     96.42000000    68.30000000    95.30000000
   C     94.46000000    68.21000000    93.88000000
   C     95.52000000    68.96000000    94.44000000
   O     95.48000000    70.32000000    94.43000000
   H     95.17000000    64.80000000    98.14000000
   H     93.39000000    64.37000000    95.78000000
   H     95.00000000    64.21000000    94.14000000
   H     96.26000000    64.16000000    95.23000000
   H     97.18000000    66.47000000    96.07000000
   H     93.63000000    66.25000000    93.66000000
   H     97.11000000    68.87000000    95.91000000
   H     93.65000000    68.68000000    93.36000000
   H     94.90000000    70.56000000    93.70000000
   N     93.64000000    61.94000000    95.74000000
   C     93.70000000    60.50000000    95.63000000
   C     94.54000000    59.99000000    94.46000000
   O     94.27000000    60.37000000    93.33000000
   C     92.28000000    59.95000000    95.55000000
   C     91.38000000    60.58000000    96.61000000
   C     92.35000000    58.43000000    95.67000000
   C     91.87000000    60.42000000    98.05000000
   H     92.93000000    62.39000000    95.18000000
   H     94.25000000    60.15000000    96.50000000
   H     91.89000000    60.13000000    94.55000000
   H     90.41000000    60.09000000    96.53000000
   H     91.26000000    61.65000000    96.41000000
   H     91.33000000    58.08000000    95.61000000
   H     93.04000000    58.12000000    94.88000000
   H     92.75000000    58.07000000    96.62000000
   H     92.73000000    61.08000000    98.09000000
   H     91.13000000    60.84000000    98.73000000
   H     92.10000000    59.39000000    98.32000000
   N     95.57000000    59.20000000    94.77000000
   C     96.42000000    58.44000000    93.88000000
   C     96.11000000    56.96000000    93.64000000
   O     95.28000000    56.42000000    94.36000000
   C     97.86000000    58.53000000    94.36000000
   O     98.05000000    57.88000000    95.60000000
   H     95.73000000    58.96000000    95.74000000
   H     96.26000000    58.92000000    92.92000000
   H     98.18000000    59.57000000    94.45000000
   H     98.52000000    58.04000000    93.64000000
   H     97.77000000    58.48000000    96.29000000
   N     96.72000000    56.28000000    92.66000000
   C     96.17000000    55.01000000    92.24000000
   C     96.23000000    53.95000000    93.34000000
   O     95.38000000    53.07000000    93.45000000
   C     96.87000000    54.56000000    90.96000000
   H     97.24000000    56.80000000    91.97000000
   H     95.11000000    55.10000000    91.99000000
   H     96.83000000    55.27000000    90.13000000
   H     97.93000000    54.66000000    91.19000000
   H     96.57000000    53.55000000    90.70000000
   N     97.26000000    54.00000000    94.18000000
   C     97.30000000    53.16000000    95.36000000
   C     96.21000000    53.46000000    96.38000000
   O     95.47000000    52.60000000    96.86000000
   C     98.72000000    53.35000000    95.89000000
   H     97.99000000    54.64000000    93.90000000
   H     97.30000000    52.10000000    95.09000000
   H     98.95000000    54.41000000    95.88000000
   H     98.82000000    52.89000000    96.88000000
   H     99.51000000    52.93000000    95.26000000
   N     95.98000000    54.75000000    96.61000000
   C     95.11000000    55.28000000    97.64000000
   C     93.66000000    54.91000000    97.36000000
   O     92.88000000    54.68000000    98.28000000
   C     95.18000000    56.80000000    97.72000000
   C     96.44000000    57.21000000    98.48000000
   C     96.62000000    58.72000000    98.41000000
   O     96.37000000    59.49000000    99.37000000
   O     96.95000000    59.36000000    97.39000000
   H     96.73000000    55.28000000    96.18000000
   H     95.41000000    54.82000000    98.58000000
   H     94.33000000    57.08000000    98.33000000
   H     95.12000000    57.33000000    96.77000000
   H     97.29000000    56.94000000    97.86000000
   H     96.43000000    56.82000000    99.49000000
   N     93.35000000    54.78000000    96.07000000
   C     92.04000000    54.36000000    95.62000000
   H     91.35400000    55.20600000    95.66200000
   H     92.10600000    53.99800000    94.59400000
   H     91.67200000    53.56200000    96.26500000
   H     94.09000000    54.98000000    95.41000000
  Ca     97.73000000    61.58000000    98.45000000
   O    100.34000000    62.06000000    97.86000000
   H    100.57000000    62.25000000    98.77000000
   H    101.15000000    62.24000000    97.37000000

Ca 1.70



