%chk=holoCaM_loop3_7.0.chk
%nprocshared=48
%mem=10GB
%nosave
#b3lyp/svp scf=(tight,noincore) Test 
#IOP(5/87=12) Density=Current Pop=(MK,readradii) iop(6/33=2) iop(6/42=6)

holoCaM_loop3_7.0 

   0   1
   C     46.24000000    40.51000000    24.25000000
   C     46.92000000    39.65000000    25.31000000
   O     46.84000000    39.98000000    26.49000000
   H     45.33100000    40.94600000    24.66500000
   H     46.91600000    41.30700000    23.93900000
   H     45.98500000    39.89200000    23.38900000
   N     47.62000000    38.57000000    24.95000000
   C     48.61000000    37.93000000    25.80000000
   C     49.91000000    38.69000000    25.96000000
   O     50.36000000    39.37000000    25.04000000
   C     48.84000000    36.58000000    25.11000000
   C     49.62000000    35.51000000    25.86000000
   O     50.47000000    35.77000000    26.74000000
   O     49.51000000    34.31000000    25.55000000
   H     47.69000000    38.36000000    23.97000000
   H     48.28000000    37.76000000    26.83000000
   H     49.36000000    36.72000000    24.17000000
   H     47.87000000    36.16000000    24.85000000
   N     50.47000000    38.62000000    27.17000000
   C     51.60000000    39.43000000    27.59000000
   C     52.94000000    38.72000000    27.54000000
   O     53.99000000    39.36000000    27.59000000
   C     51.34000000    40.00000000    28.98000000
   C     50.19000000    41.00000000    29.13000000
   C     50.50000000    42.39000000    28.58000000
   C     51.56000000    43.23000000    29.29000000
   N     51.57000000    44.59000000    28.75000000
   H     49.95000000    38.09000000    27.85000000
   H     51.79000000    40.25000000    26.90000000
   H     52.23000000    40.57000000    29.27000000
   H     51.30000000    39.17000000    29.68000000
   H     49.93000000    41.06000000    30.18000000
   H     49.38000000    40.59000000    28.53000000
   H     49.61000000    43.02000000    28.60000000
   H     50.69000000    42.24000000    27.52000000
   H     52.46000000    42.66000000    29.09000000
   H     51.29000000    43.22000000    30.35000000
   H     51.95000000    45.37000000    29.26000000
   H     52.07000000    44.64000000    27.87000000
   H     50.72000000    44.95000000    28.35000000
   N     52.96000000    37.39000000    27.37000000
   C     54.14000000    36.71000000    26.89000000
   C     53.92000000    35.95000000    25.59000000
   O     54.92000000    35.36000000    25.18000000
   C     54.80000000    35.80000000    27.92000000
   C     53.88000000    34.78000000    28.58000000
   O     54.19000000    34.29000000    29.68000000
   O     52.78000000    34.54000000    28.04000000
   H     52.06000000    36.93000000    27.33000000
   H     54.95000000    37.38000000    26.57000000
   H     55.23000000    36.41000000    28.71000000
   H     55.58000000    35.17000000    27.49000000
   N     52.72000000    35.94000000    25.01000000
   C     52.34000000    35.13000000    23.86000000
   C     52.37000000    33.62000000    24.03000000
   O     52.53000000    32.88000000    23.06000000
   H     51.93000000    36.30000000    25.52000000
   H     53.00000000    35.38000000    23.02000000
   H     51.32000000    35.40000000    23.60000000
   N     52.47000000    33.10000000    25.25000000
   C     52.73000000    31.70000000    25.48000000
   C     51.51000000    30.82000000    25.25000000
   O     51.62000000    29.60000000    25.33000000
   C     53.38000000    31.48000000    26.84000000
   C     52.41000000    31.42000000    28.01000000
   N     52.50000000    30.42000000    28.88000000
   O     51.36000000    32.06000000    28.07000000
   H     52.41000000    33.72000000    26.05000000
   H     53.41000000    31.43000000    24.67000000
   H     54.23000000    32.12000000    27.09000000
   H     53.82000000    30.48000000    26.80000000
   H     53.33000000    29.85000000    28.99000000
   H     51.86000000    30.45000000    29.66000000
   N     50.35000000    31.42000000    24.98000000
   C     49.21000000    30.76000000    24.37000000
   C     47.99000000    30.70000000    25.28000000
   O     47.01000000    30.03000000    24.97000000
   H     50.30000000    32.43000000    24.96000000
   H     49.44000000    29.76000000    24.00000000
   H     48.91000000    31.32000000    23.48000000
   N     47.98000000    31.40000000    26.42000000
   C     46.95000000    31.50000000    27.44000000
   C     46.93000000    32.88000000    28.09000000
   O     47.90000000    33.63000000    28.16000000
   C     47.01000000    30.49000000    28.57000000
   C     47.51000000    29.08000000    28.33000000
   C     48.89000000    28.85000000    28.35000000
   C     46.61000000    28.08000000    27.94000000
   C     49.37000000    27.57000000    28.04000000
   C     47.11000000    26.81000000    27.63000000
   C     48.49000000    26.54000000    27.66000000
   O     48.88000000    25.24000000    27.48000000
   H     48.67000000    32.14000000    26.48000000
   H     45.97000000    31.32000000    26.99000000
   H     46.08000000    30.46000000    29.13000000
   H     47.82000000    30.81000000    29.23000000
   H     49.63000000    29.59000000    28.62000000
   H     45.58000000    28.40000000    27.98000000
   H     50.43000000    27.38000000    28.08000000
   H     46.43000000    25.99000000    27.45000000
   H     48.21000000    24.55000000    27.46000000
   N     45.81000000    33.18000000    28.75000000
   C     45.51000000    34.40000000    29.47000000
   C     44.99000000    34.00000000    30.84000000
   O     44.09000000    33.18000000    31.03000000
   C     44.62000000    35.17000000    28.50000000
   C     45.36000000    35.73000000    27.29000000
   C     43.90000000    36.28000000    29.26000000
   C     44.69000000    36.65000000    26.27000000
   H     45.09000000    32.47000000    28.71000000
   H     46.41000000    35.00000000    29.62000000
   H     43.87000000    34.46000000    28.17000000
   H     45.72000000    34.88000000    26.71000000
   H     46.18000000    36.38000000    27.60000000
   H     43.29000000    36.89000000    28.59000000
   H     43.20000000    35.77000000    29.91000000
   H     44.41000000    36.90000000    30.00000000
   H     44.35000000    37.51000000    26.85000000
   H     45.34000000    36.87000000    25.43000000
   H     43.78000000    36.11000000    26.02000000
   N     45.49000000    34.75000000    31.83000000
   C     44.93000000    34.83000000    33.16000000
   C     43.95000000    35.95000000    33.46000000
   O     43.83000000    36.87000000    32.65000000
   C     46.11000000    34.96000000    34.12000000
   O     46.72000000    36.22000000    33.99000000
   H     46.27000000    35.38000000    31.71000000
   H     44.42000000    33.91000000    33.45000000
   H     46.81000000    34.15000000    33.88000000
   H     45.84000000    34.85000000    35.17000000
   H     47.46000000    36.25000000    34.59000000
   N     43.41000000    36.05000000    34.67000000
   C     42.75000000    37.24000000    35.17000000
   C     43.58000000    38.50000000    35.02000000
   O     43.11000000    39.59000000    34.70000000
   C     42.49000000    36.91000000    36.64000000
   H     43.50000000    35.25000000    35.29000000
   H     41.75000000    37.30000000    34.75000000
   H     41.98000000    35.95000000    36.72000000
   H     43.42000000    36.81000000    37.21000000
   H     41.74000000    37.59000000    37.05000000
   N     44.90000000    38.42000000    35.26000000
   C     45.75000000    39.59000000    35.35000000
   C     46.42000000    40.08000000    34.08000000
   O     46.79000000    41.24000000    33.91000000
   C     46.79000000    39.27000000    36.42000000
   H     45.29000000    37.55000000    35.61000000
   H     45.22000000    40.47000000    35.71000000
   H     47.63000000    39.95000000    36.54000000
   H     46.37000000    39.31000000    37.42000000
   H     47.22000000    38.27000000    36.29000000
   N     46.47000000    39.18000000    33.10000000
   C     46.62000000    39.45000000    31.68000000
   C     45.34000000    40.09000000    31.14000000
   O     45.40000000    41.06000000    30.39000000
   C     47.06000000    38.28000000    30.80000000
   C     48.54000000    37.99000000    31.05000000
   C     49.06000000    36.74000000    30.35000000
   O     49.53000000    36.80000000    29.19000000
   O     48.94000000    35.61000000    30.88000000
   H     46.24000000    38.24000000    33.38000000
   H     47.31000000    40.28000000    31.51000000
   H     46.80000000    38.49000000    29.77000000
   H     46.47000000    37.45000000    31.16000000
   H     48.62000000    37.88000000    32.13000000
   H     49.06000000    38.90000000    30.76000000
   N     44.17000000    39.51000000    31.39000000
   C     42.87000000    40.02000000    30.99000000
   H     42.16900000    39.91500000    31.81800000
   H     42.95900000    41.07300000    30.72100000
   H     42.50600000    39.45500000    30.13200000
   H     44.21000000    38.62000000    31.86000000
  Ca     50.39000000    34.40000000    28.84000000
   O     49.41000000    32.45000000    30.27000000
   H     48.75000000    32.23000000    30.93000000
   H     49.69000000    31.60000000    29.92000000

Ca 1.70



