%chk=holoCaM_loop3_13.0.chk
%nprocshared=48
%mem=10GB
%nosave
#b3lyp/svp scf=(tight,noincore) Test 
#IOP(5/87=12) Density=Current Pop=(MK,readradii) iop(6/33=2) iop(6/42=6)

holoCaM_loop3_13.0 

   0   1
   C     94.19000000    53.99000000     3.60400000
   C     95.23000000    55.05000000     3.25400000
   O     96.25000000    54.67000000     2.68400000
   H     93.28000000    54.17100000     3.03100000
   H     94.58100000    53.00200000     3.36000000
   H     93.96400000    54.04000000     4.66900000
   N     95.05000000    56.33000000     3.57400000
   C     96.04000000    57.37000000     3.35400000
   C     97.15000000    57.36000000     4.39400000
   O     96.92000000    57.61000000     5.57400000
   C     95.41000000    58.70000000     2.95400000
   C     96.39000000    59.86000000     2.94400000
   O     96.09000000    60.95000000     3.47400000
   O     97.50000000    59.67000000     2.40400000
   H     94.25000000    56.52000000     4.16400000
   H     96.59000000    57.12000000     2.44400000
   H     94.72000000    59.02000000     3.73400000
   H     94.97000000    58.61000000     1.96400000
   N     98.43000000    57.26000000     4.02400000
   C     99.60000000    57.13000000     4.86400000
   C    100.57000000    58.31000000     4.81400000
   O    101.62000000    58.23000000     5.43400000
   C    100.22000000    55.74000000     4.81400000
   C     99.14000000    54.69000000     4.99400000
   C     99.72000000    53.31000000     5.30400000
   C     98.88000000    52.53000000     6.31400000
   N     97.63000000    51.94000000     5.81400000
   H     98.57000000    57.04000000     3.05400000
   H     99.29000000    57.19000000     5.90400000
   H    101.01000000    55.67000000     5.56400000
   H    100.63000000    55.66000000     3.80400000
   H     98.44000000    54.58000000     4.16400000
   H     98.56000000    55.03000000     5.85400000
   H    100.62000000    53.42000000     5.91400000
   H     99.93000000    52.73000000     4.40400000
   H     98.67000000    53.09000000     7.22400000
   H     99.43000000    51.69000000     6.72400000
   H     96.98000000    52.70000000     5.68400000
   H     97.78000000    51.44000000     4.94400000
   H     97.17000000    51.37000000     6.50400000
   N    100.22000000    59.45000000     4.21400000
   C    100.92000000    60.70000000     4.45400000
   C    100.01000000    61.92000000     4.51400000
   O    100.47000000    63.05000000     4.38400000
   C    102.00000000    60.99000000     3.42400000
   C    101.63000000    60.90000000     1.95400000
   O    102.52000000    60.97000000     1.08400000
   O    100.42000000    60.83000000     1.65400000
   H     99.24000000    59.54000000     3.97400000
   H    101.37000000    60.61000000     5.44400000
   H    102.68000000    60.16000000     3.60400000
   H    102.55000000    61.91000000     3.61400000
   N     98.72000000    61.79000000     4.84400000
   C     97.94000000    62.98000000     5.10400000
   C     97.50000000    63.83000000     3.92400000
   O     96.91000000    64.89000000     4.15400000
   H     98.35000000    60.92000000     5.20400000
   H     98.52000000    63.51000000     5.86400000
   H     97.00000000    62.61000000     5.53400000
   N     97.60000000    63.31000000     2.70400000
   C     97.42000000    64.00000000     1.44400000
   C     96.05000000    63.66000000     0.86400000
   O     95.72000000    64.25000000    -0.15600000
   C     98.67000000    63.93000000     0.57400000
   C     98.66000000    62.87000000    -0.51600000
   N     98.92000000    63.29000000    -1.75600000
   O     98.19000000    61.76000000    -0.29600000
   H     97.53000000    62.30000000     2.73400000
   H     97.38000000    65.05000000     1.74400000
   H     99.60000000    63.82000000     1.14400000
   H     98.75000000    64.92000000     0.11400000
   H     99.32000000    64.20000000    -1.93600000
   H     99.04000000    62.67000000    -2.54600000
   N     95.18000000    62.81000000     1.40400000
   C     93.87000000    62.48000000     0.87400000
   C     93.86000000    61.46000000    -0.25600000
   O     92.76000000    61.12000000    -0.67600000
   H     95.49000000    62.35000000     2.24400000
   H     93.33000000    63.36000000     0.51400000
   H     93.30000000    62.12000000     1.72400000
   N     94.98000000    60.97000000    -0.79600000
   C     94.96000000    60.07000000    -1.92600000
   C     95.80000000    58.81000000    -1.73600000
   O     96.65000000    58.73000000    -0.84600000
   C     95.39000000    60.81000000    -3.18600000
   C     94.69000000    62.13000000    -3.40600000
   C     95.60000000    63.16000000    -3.71600000
   C     93.30000000    62.23000000    -3.33600000
   C     95.08000000    64.44000000    -3.91600000
   C     92.82000000    63.54000000    -3.51600000
   C     93.70000000    64.63000000    -3.72600000
   O     93.20000000    65.90000000    -3.79600000
   H     95.86000000    61.29000000    -0.42600000
   H     93.94000000    59.73000000    -2.06600000
   H     95.12000000    60.12000000    -3.98600000
   H     96.47000000    60.90000000    -3.05600000
   H     96.67000000    63.01000000    -3.72600000
   H     92.70000000    61.36000000    -3.15600000
   H     95.71000000    65.28000000    -4.15600000
   H     91.77000000    63.78000000    -3.48600000
   H     92.29000000    65.88000000    -3.51600000
   N     95.45000000    57.76000000    -2.47600000
   C     96.08000000    56.45000000    -2.39600000
   C     97.12000000    56.36000000    -3.49600000
   O     96.79000000    56.51000000    -4.67600000
   C     95.06000000    55.32000000    -2.49600000
   C     93.86000000    55.55000000    -1.58600000
   C     95.65000000    53.91000000    -2.36600000
   C     94.04000000    55.73000000    -0.08600000
   H     94.68000000    57.84000000    -3.12600000
   H     96.56000000    56.39000000    -1.42600000
   H     94.81000000    55.31000000    -3.55600000
   H     93.20000000    54.70000000    -1.75600000
   H     93.29000000    56.41000000    -1.94600000
   H     94.91000000    53.12000000    -2.47600000
   H     96.36000000    53.75000000    -3.17600000
   H     96.09000000    53.77000000    -1.38600000
   H     93.12000000    55.63000000     0.48400000
   H     94.76000000    55.08000000     0.40400000
   H     94.63000000    56.63000000     0.08400000
   N     98.34000000    55.88000000    -3.22600000
   C     99.38000000    55.48000000    -4.15600000
   C     99.52000000    53.97000000    -4.23600000
   O     98.86000000    53.21000000    -3.52600000
   C    100.71000000    56.09000000    -3.71600000
   O    101.09000000    55.76000000    -2.39600000
   H     98.60000000    55.78000000    -2.25600000
   H     99.24000000    55.85000000    -5.17600000
   H    100.66000000    57.18000000    -3.83600000
   H    101.50000000    55.78000000    -4.39600000
   H    100.49000000    56.17000000    -1.77600000
   N    100.50000000    53.46000000    -4.98600000
   C    100.70000000    52.03000000    -5.16600000
   C    101.07000000    51.23000000    -3.92600000
   O    100.52000000    50.19000000    -3.55600000
   C    101.74000000    51.98000000    -6.28600000
   H    100.90000000    54.15000000    -5.61600000
   H     99.75000000    51.59000000    -5.44600000
   H    101.81000000    50.93000000    -6.57600000
   H    101.43000000    52.71000000    -7.02600000
   H    102.70000000    52.08000000    -5.78600000
   N    102.05000000    51.73000000    -3.16600000
   C    102.37000000    51.34000000    -1.80600000
   C    101.17000000    51.22000000    -0.88600000
   O    101.05000000    50.26000000    -0.12600000
   C    103.30000000    52.45000000    -1.34600000
   H    102.52000000    52.55000000    -3.52600000
   H    102.92000000    50.40000000    -1.74600000
   H    104.21000000    52.39000000    -1.95600000
   H    102.79000000    53.39000000    -1.55600000
   H    103.56000000    52.37000000    -0.29600000
   N    100.23000000    52.16000000    -1.02600000
   C     99.17000000    52.24000000    -0.03600000
   C     98.11000000    51.23000000    -0.43600000
   O     97.54000000    50.60000000     0.44400000
   C     98.63000000    53.67000000     0.05400000
   C     99.57000000    54.68000000     0.70400000
   C     99.25000000    56.15000000     0.48400000
   O     98.91000000    56.96000000     1.37400000
   O     99.44000000    56.64000000    -0.65600000
   H    100.37000000    52.87000000    -1.72600000
   H     99.59000000    52.03000000     0.94400000
   H     97.69000000    53.62000000     0.61400000
   H     98.44000000    54.09000000    -0.93600000
   H    100.58000000    54.50000000     0.34400000
   H     99.56000000    54.58000000     1.79400000
   N     97.81000000    51.13000000    -1.73600000
   C     96.96000000    50.09000000    -2.27600000
   H     96.04600000    50.53600000    -2.66800000
   H     97.48400000    49.57200000    -3.07900000
   H     96.70800000    49.38000000    -1.48800000
   H     98.29000000    51.68000000    -2.43600000
  Ca     98.92000000    59.25000000     0.28000000
   O    101.53600000    58.88000000    -0.17600000
   H    101.94600000    58.80000000    -1.03600000
   H    101.95600000    59.65000000     0.21400000

Ca 1.70



