%Nproc=28
%chk=holo4.0.chk
%mem=80GB
%NoSave
#MP2(semidirect)/Gen scf=(tight,noincore) Test
#IOP(5/87=12) Density=Current Pop=(MK,readradii) iop(6/33=2) iop(6/42=6)

holo_loop_3_model_4.0 

   0   1
   C     29.98000000    67.80000000    16.90000000
   C     29.14000000    67.89000000    15.63000000
   C     27.96000000    68.85000000    15.57000000
   O     26.81000000    68.44000000    15.65000000
   O     28.22000000    70.19000000    15.61000000
   H     30.55700000    66.87600000    16.93500000
   H     29.33900000    67.81100000    17.78200000
   H     30.63000000    68.68000000    16.89000000
   H     28.76000000    66.89000000    15.39000000
   H     29.76000000    68.08000000    14.75000000
   H     29.14000000    70.42000000    15.44000000
   C     27.63000000    70.95000000    20.96000000
   C     28.38000000    72.23000000    20.63000000
   C     29.17000000    72.42000000    19.34000000
   O     29.78000000    73.51000000    19.22000000
   O     29.05000000    71.62000000    18.40000000
   H     28.25100000    70.08400000    20.73100000
   H     26.71700000    70.89400000    20.36700000
   H     27.38000000    70.96000000    22.02000000
   H     29.13000000    72.33000000    21.41000000
   H     27.78000000    73.13000000    20.80000000
   C     36.85000000    69.07000000    18.19000000
   C     35.52000000    69.52000000    17.59000000
   C     34.75000000    70.64000000    18.28000000
   C     33.55000000    71.21000000    17.54000000
   O     33.80000000    72.17000000    16.78000000
   O     32.38000000    70.96000000    17.92000000
   H     37.56100000    69.89400000    18.14100000
   H     37.23200000    68.21900000    17.62600000
   H     36.71000000    68.78000000    19.23000000
   H     34.88000000    68.64000000    17.48000000
   H     35.73000000    69.84000000    16.57000000
   H     35.47000000    71.43000000    18.49000000
   H     34.39000000    70.17000000    19.20000000
  Ca     30.85000000    72.72000000    16.88000000
   O     32.38000000    73.94000000    15.06000000
   H     33.22000000    73.49000000    14.95000000
   H     32.39000000    74.63000000    14.40000000

C O H 0
aug-cc-pVTZ 
****
@/home/pzhang5/ca_ccpvtz_basisset.gbs/N

Ca 1.70




