%Nproc=28
%chk=holo51.1.chk
%mem=80GB
%NoSave
#MP2(semidirect)/Gen scf=(tight,noincore) Test
#IOP(5/87=12) Density=Current Pop=(MK,readradii) iop(6/33=2) iop(6/42=6)

holo_loop_3_model_51.1 

   0   1
   C     38.17000000    71.05000000    14.87000000
   C     36.83000000    71.00000000    14.15000000
   C     36.16000000    72.34000000    13.89000000
   O     35.08000000    72.71000000    14.34000000
   O     36.89000000    73.17000000    13.09000000
   H     38.61600000    70.05600000    14.84400000
   H     38.01100000    71.36800000    15.90000000
   H     38.85000000    71.75000000    14.38000000
   H     36.19000000    70.39000000    14.79000000
   H     37.02000000    70.50000000    13.21000000
   H     37.64000000    72.80000000    12.61000000
   C     38.26000000    75.87000000    17.86000000
   C     39.11000000    76.73000000    16.93000000
   C     39.12000000    76.24000000    15.49000000
   O     40.08000000    75.50000000    15.20000000
   O     38.12000000    76.33000000    14.75000000
   H     38.63500000    74.84700000    17.86200000
   H     37.22600000    75.86900000    17.51500000
   H     38.31000000    76.28000000    18.86000000
   H     40.15000000    76.75000000    17.26000000
   H     38.79000000    77.77000000    16.94000000
   C     44.76000000    71.09000000    12.71000000
   C     43.39000000    71.69000000    12.39000000
   C     43.21000000    73.07000000    13.02000000
   C     41.89000000    73.65000000    12.55000000
   O     40.81000000    73.32000000    13.09000000
   O     41.96000000    74.44000000    11.58000000
   H     45.46000000    71.60800000    12.05500000
   H     44.69700000    70.01400000    12.54600000
   H     45.14000000    71.25000000    13.72000000
   H     42.62000000    70.97000000    12.65000000
   H     43.35000000    71.73000000    11.30000000
   H     44.08000000    73.68000000    12.77000000
   H     43.24000000    72.97000000    14.11000000
  Ca     39.19000000    75.36000000    12.55000000
   O     40.48000000    75.90000000     9.96000000
   H     41.13000000    75.31000000    10.35000000
   H     40.52000000    75.71000000     9.02000000

C O H 0
aug-cc-pVTZ 
****
@/home/pzhang5/ca_ccpvtz_basisset.gbs/N

Ca 1.70




