%Nproc=28
%chk=holo31.0.chk
%mem=80GB
%NoSave
#MP2(semidirect)/Gen scf=(tight,noincore) Test
#IOP(5/87=12) Density=Current Pop=(MK,readradii) iop(6/33=2) iop(6/42=6)

holo_loop_3_model_31.0 

   0   1
   C     30.63000000    73.34000000    10.61000000
   C     29.81000000    72.75000000     9.46000000
   C     28.58000000    73.51000000     8.98000000
   O     27.46000000    73.01000000     8.97000000
   O     28.74000000    74.82000000     8.63000000
   H     31.21300000    72.54000000    11.06700000
   H     29.95300000    73.78300000    11.34100000
   H     31.31000000    74.10000000    10.25000000
   H     29.46000000    71.82000000     9.90000000
   H     30.48000000    72.62000000     8.61000000
   H     29.63000000    75.14000000     8.75000000
   C     28.42000000    78.04000000    12.15000000
   C     29.25000000    78.78000000    11.11000000
   C     29.61000000    77.98000000     9.86000000
   O     29.98000000    76.79000000     9.92000000
   O     29.50000000    78.58000000     8.77000000
   H     29.04100000    77.26700000    12.60200000
   H     27.55200000    77.59600000    11.66300000
   H     28.08000000    78.72000000    12.94000000
   H     30.20000000    78.98000000    11.60000000
   H     28.77000000    79.74000000    10.91000000
   C     37.12000000    75.47000000    10.34000000
   C     35.77000000    75.59000000     9.64000000
   C     35.17000000    77.00000000     9.60000000
   C     33.92000000    77.13000000     8.74000000
   O     32.97000000    77.78000000     9.22000000
   O     33.88000000    76.57000000     7.63000000
   H     37.92500000    75.93300000     9.76900000
   H     37.39700000    74.42300000    10.46600000
   H     36.97000000    75.95000000    11.31000000
   H     35.09000000    74.96000000    10.22000000
   H     35.82000000    75.30000000     8.59000000
   H     35.72000000    77.80000000     9.10000000
   H     34.91000000    77.33000000    10.60000000
  Ca     31.18000000    76.98000000     7.41000000
   O     31.70000000    77.69000000     4.80000000
   H     32.15000000    77.67000000     3.95000000
   H     31.90000000    78.56000000     5.16000000

C O H 0
aug-cc-pVTZ 
****
@/home/pzhang5/ca_ccpvtz_basisset.gbs/N

Ca 1.70




