%Nproc=28
%chk=holo32.0.chk
%mem=80GB
%NoSave
#MP2(semidirect)/Gen scf=(tight,noincore) Test
#IOP(5/87=12) Density=Current Pop=(MK,readradii) iop(6/33=2) iop(6/42=6)

holo_loop_3_model_32.0 

   0   1
   C     30.26000000    72.90000000     9.24000000
   C     29.43000000    72.28000000     8.13000000
   C     28.30000000    73.16000000     7.60000000
   O     27.10000000    72.90000000     7.57000000
   O     28.61000000    74.40000000     7.15000000
   H     30.94300000    72.15600000     9.65000000
   H     29.60300000    73.25500000    10.03400000
   H     30.83000000    73.74000000     8.83000000
   H     28.99000000    71.38000000     8.56000000
   H     29.96000000    71.96000000     7.23000000
   H     29.55000000    74.63000000     7.15000000
   C     27.73000000    77.48000000    10.95000000
   C     28.36000000    78.52000000    10.03000000
   C     29.10000000    78.04000000     8.79000000
   O     29.31000000    76.81000000     8.67000000
   O     29.70000000    78.81000000     8.01000000
   H     28.45200000    76.71200000    11.22800000
   H     26.90000000    76.98400000    10.44600000
   H     27.37000000    78.02000000    11.83000000
   H     29.09000000    79.09000000    10.61000000
   H     27.71000000    79.32000000     9.68000000
   C     37.15000000    75.28000000     9.73000000
   C     35.80000000    75.15000000     9.03000000
   C     35.03000000    76.47000000     9.00000000
   C     33.72000000    76.28000000     8.26000000
   O     32.68000000    76.79000000     8.74000000
   O     33.66000000    75.70000000     7.15000000
   H     37.84800000    75.90300000     9.17100000
   H     37.62700000    74.30500000     9.83400000
   H     36.91000000    75.70000000    10.71000000
   H     35.22000000    74.33000000     9.43000000
   H     35.95000000    74.73000000     8.03000000
   H     35.64000000    77.25000000     8.54000000
   H     34.66000000    76.71000000    10.00000000
  Ca     31.21000000    77.08000000     6.64000000
   O     32.13000000    77.89000000     3.99000000
   H     31.61000000    78.39000000     3.36000000
   H     32.88000000    77.58000000     3.49000000

C O H 0
aug-cc-pVTZ 
****
@/home/pzhang5/ca_ccpvtz_basisset.gbs/N

Ca 1.70




