%Nproc=28
%chk=holo15.0.chk
%mem=80GB
%NoSave
#MP2(semidirect)/Gen scf=(tight,noincore) Test
#IOP(5/87=12) Density=Current Pop=(MK,readradii) iop(6/33=2) iop(6/42=6)

holo_loop_3_model_15.0 

   0   1
   C     31.35000000    71.35000000     9.34000000
   C     30.73000000    70.76000000     8.08000000
   C     29.45000000    71.44000000     7.61000000
   O     28.34000000    70.91000000     7.65000000
   O     29.57000000    72.73000000     7.18000000
   H     31.97400000    70.61000000     9.84100000
   H     30.56600000    71.65900000    10.03100000
   H     31.95000000    72.22000000     9.04000000
   H     30.44000000    69.73000000     8.30000000
   H     31.51000000    70.68000000     7.33000000
   H     30.48000000    73.00000000     7.05000000
   C     28.89000000    75.91000000    10.90000000
   C     29.66000000    77.02000000    10.19000000
   C     30.40000000    76.53000000     8.95000000
   O     30.53000000    77.22000000     7.92000000
   O     30.93000000    75.40000000     8.90000000
   H     29.56800000    75.10900000    11.19400000
   H     28.13500000    75.49700000    10.23100000
   H     28.41000000    76.34000000    11.78000000
   H     30.53000000    77.38000000    10.74000000
   H     29.04000000    77.89000000     9.97000000
   C     38.15000000    73.69000000     9.70000000
   C     36.83000000    73.81000000     8.95000000
   C     36.11000000    75.16000000     8.98000000
   C     34.87000000    75.39000000     8.13000000
   O     34.75000000    74.60000000     7.17000000
   O     34.03000000    76.28000000     8.41000000
   H     38.99300000    74.19900000     9.23300000
   H     38.48300000    72.65500000     9.77300000
   H     37.85000000    74.09000000    10.67000000
   H     36.14000000    73.09000000     9.39000000
   H     36.91000000    73.43000000     7.93000000
   H     36.91000000    75.85000000     8.73000000
   H     35.83000000    75.39000000    10.01000000
  Ca     32.26000000    75.54000000     6.41000000
   O     33.74000000    75.77000000     4.02000000
   H     33.65000000    75.38000000     3.15000000
   H     34.04000000    76.67000000     3.85000000

C O H 0
aug-cc-pVTZ 
****
@/home/pzhang5/ca_ccpvtz_basisset.gbs/N

Ca 1.70




