%Nproc=28
%chk=holo19.1.chk
%mem=80GB
%NoSave
#MP2(semidirect)/Gen scf=(tight,noincore) Test
#IOP(5/87=12) Density=Current Pop=(MK,readradii) iop(6/33=2) iop(6/42=6)

holo_loop_3_model_19.1 

   0   1
   C     31.28000000    71.09000000     9.38000000
   C     30.35000000    70.06000000     8.74000000
   C     29.10000000    70.67000000     8.12000000
   O     27.96000000    70.24000000     8.30000000
   O     29.42000000    71.74000000     7.33000000
   H     32.03300000    70.59900000     9.99700000
   H     30.70900000    71.76400000    10.01800000
   H     31.75000000    71.65000000     8.57000000
   H     29.90000000    69.46000000     9.53000000
   H     30.89000000    69.45000000     8.02000000
   H     30.34000000    71.69000000     7.08000000
   C     29.11000000    76.12000000    10.53000000
   C     29.77000000    76.92000000     9.41000000
   C     30.26000000    76.12000000     8.21000000
   O     29.98000000    74.91000000     8.09000000
   O     30.86000000    76.75000000     7.31000000
   H     29.68600000    75.22400000    10.76000000
   H     28.11100000    75.80500000    10.22800000
   H     29.05000000    76.78000000    11.40000000
   H     30.69000000    77.36000000     9.79000000
   H     29.13000000    77.70000000     9.01000000
   C     37.80000000    72.99000000     9.07000000
   C     36.44000000    72.81000000     8.41000000
   C     35.65000000    74.10000000     8.56000000
   C     34.36000000    73.99000000     7.75000000
   O     33.29000000    74.00000000     8.39000000
   O     34.47000000    74.00000000     6.51000000
   H     38.38800000    73.56500000     8.35400000
   H     38.19200000    71.99800000     9.29300000
   H     37.83000000    73.57000000     9.99000000
   H     35.93000000    72.01000000     8.95000000
   H     36.60000000    72.63000000     7.34000000
   H     36.25000000    74.94000000     8.22000000
   H     35.45000000    74.35000000     9.60000000
  Ca     31.74000000    74.61000000     6.08000000
   O     33.42000000    74.15000000     3.87000000
   H     33.83000000    74.42000000     3.05000000
   H     34.15000000    73.86000000     4.42000000

C O H 0
aug-cc-pVTZ 
****
@/home/pzhang5/ca_ccpvtz_basisset.gbs/N

Ca 1.70




