%Nproc=28
%chk=holo68.0.chk
%mem=80GB
%NoSave
#MP2(semidirect)/Gen scf=(tight,noincore) Test
#IOP(5/87=12) Density=Current Pop=(MK,readradii) iop(6/33=2) iop(6/42=6)

holo_loop_3_model_68.0 

   0   1
   C     34.22000000    72.20000000    10.46000000
   C     33.15000000    71.46000000     9.67000000
   C     32.01000000    72.31000000     9.13000000
   O     30.81000000    72.11000000     9.32000000
   O     32.38000000    73.32000000     8.30000000
   H     34.95300000    71.49100000    10.84400000
   H     33.76100000    72.72400000    11.29800000
   H     34.71000000    72.92000000     9.80000000
   H     32.68000000    70.74000000    10.34000000
   H     33.60000000    70.87000000     8.87000000
   H     33.27000000    73.13000000     8.00000000
   C     32.73000000    77.36000000    11.78000000
   C     33.12000000    78.07000000    10.48000000
   C     33.37000000    77.19000000     9.27000000
   O     33.38000000    75.95000000     9.45000000
   O     33.71000000    77.77000000     8.22000000
   H     33.47700000    76.60600000    12.02800000
   H     31.76200000    76.87300000    11.65700000
   H     32.67000000    78.10000000    12.58000000
   H     34.07000000    78.56000000    10.67000000
   H     32.43000000    78.85000000    10.18000000
   C     41.16000000    74.27000000     9.58000000
   C     39.69000000    74.45000000     9.21000000
   C     39.29000000    75.77000000     8.54000000
   C     37.82000000    75.66000000     8.18000000
   O     37.00000000    76.39000000     8.79000000
   O     37.54000000    74.73000000     7.39000000
   H     41.77800000    74.58400000     8.73900000
   H     41.34800000    73.22100000     9.81000000
   H     41.41000000    74.88000000    10.45000000
   H     39.00000000    74.24000000    10.03000000
   H     39.50000000    73.67000000     8.48000000
   H     39.93000000    76.02000000     7.69000000
   H     39.39000000    76.67000000     9.14000000
  Ca     34.98000000    75.80000000     7.04000000
   O     36.06000000    75.11000000     4.51000000
   H     36.91000000    75.48000000     4.73000000
   H     35.90000000    75.40000000     3.61000000

C O H 0
aug-cc-pVTZ 
****
@/home/pzhang5/ca_ccpvtz_basisset.gbs/N

Ca 1.70




