%Nproc=28
%chk=holo42.0.chk
%mem=80GB
%NoSave
#MP2(semidirect)/Gen scf=(tight,noincore) Test
#IOP(5/87=12) Density=Current Pop=(MK,readradii) iop(6/33=2) iop(6/42=6)

holo_loop_3_model_42.0 

   0   1
   C     31.56000000    71.79000000     8.97000000
   C     30.68000000    71.08000000     7.95000000
   C     29.60000000    71.82000000     7.17000000
   O     28.44000000    71.42000000     7.09000000
   O     29.76000000    73.14000000     6.87000000
   H     32.23000000    71.03600000     9.38300000
   H     30.91500000    72.24000000     9.72400000
   H     32.19000000    72.57000000     8.55000000
   H     30.24000000    70.17000000     8.37000000
   H     31.37000000    70.71000000     7.20000000
   H     30.64000000    73.44000000     7.10000000
   C     29.53000000    76.83000000     9.72000000
   C     30.43000000    77.39000000     8.62000000
   C     30.86000000    76.47000000     7.50000000
   O     31.33000000    75.32000000     7.71000000
   O     31.12000000    77.13000000     6.47000000
   H     30.00300000    75.97100000    10.19500000
   H     28.58000000    76.50800000     9.29400000
   H     29.36000000    77.62000000    10.45000000
   H     31.25000000    77.67000000     9.29000000
   H     29.97000000    78.26000000     8.14000000
   C     38.61000000    73.97000000     8.57000000
   C     37.16000000    73.96000000     8.09000000
   C     36.59000000    75.31000000     7.66000000
   C     35.29000000    75.17000000     6.89000000
   O     35.32000000    74.58000000     5.78000000
   O     34.21000000    75.53000000     7.40000000
   H     39.27000000    74.46700000     7.85900000
   H     38.98200000    72.95200000     8.68500000
   H     38.59000000    74.48000000     9.53000000
   H     36.74000000    73.67000000     9.05000000
   H     37.01000000    73.17000000     7.35000000
   H     37.20000000    75.98000000     7.05000000
   H     36.18000000    75.81000000     8.54000000
  Ca     32.58000000    75.28000000     5.32000000
   O     33.82000000    75.27000000     2.86000000
   H     34.40000000    76.00000000     2.68000000
   H     34.06000000    74.60000000     2.21000000

C O H 0
aug-cc-pVTZ 
****
@/home/pzhang5/ca_ccpvtz_basisset.gbs/N

Ca 1.70




