%Nproc=28
%chk=holo18.0.chk
%mem=80GB
%NoSave
#MP2(semidirect)/Gen scf=(tight,noincore) Test
#IOP(5/87=12) Density=Current Pop=(MK,readradii) iop(6/33=2) iop(6/42=6)

holo_loop_3_model_18.0 

   0   1
   C     31.50000000    70.26000000     9.54000000
   C     30.72000000    69.47000000     8.49000000
   C     29.64000000    70.32000000     7.84000000
   O     28.44000000    70.26000000     8.11000000
   O     30.03000000    71.30000000     6.98000000
   H     32.17700000    69.56800000    10.04200000
   H     30.79400000    70.70500000    10.24100000
   H     32.10000000    71.05000000     9.10000000
   H     30.14000000    68.70000000     9.00000000
   H     31.34000000    68.93000000     7.78000000
   H     30.98000000    71.34000000     6.89000000
   C     29.16000000    74.95000000    10.79000000
   C     29.93000000    75.71000000     9.71000000
   C     30.45000000    74.76000000     8.64000000
   O     29.84000000    74.78000000     7.55000000
   O     31.50000000    74.10000000     8.81000000
   H     29.75500000    74.14600000    11.22400000
   H     28.26700000    74.48800000    10.37000000
   H     28.89000000    75.70000000    11.53000000
   H     30.85000000    76.16000000    10.08000000
   H     29.27000000    76.49000000     9.34000000
   C     38.14000000    73.06000000     9.12000000
   C     36.84000000    72.95000000     8.33000000
   C     36.34000000    74.37000000     8.15000000
   C     35.04000000    74.35000000     7.36000000
   O     34.42000000    73.27000000     7.23000000
   O     34.65000000    75.41000000     6.84000000
   H     38.91600000    73.50900000     8.50000000
   H     38.46800000    72.06800000     9.43000000
   H     37.96000000    73.68000000    10.00000000
   H     36.13000000    72.46000000     8.99000000
   H     36.84000000    72.47000000     7.36000000
   H     37.08000000    75.04000000     7.71000000
   H     36.23000000    74.89000000     9.11000000
  Ca     32.14000000    74.48000000     5.90000000
   O     32.09000000    76.93000000     5.01000000
   H     31.45000000    77.61000000     4.82000000
   H     32.91000000    77.27000000     4.65000000

C O H 0
aug-cc-pVTZ 
****
@/home/pzhang5/ca_ccpvtz_basisset.gbs/N

Ca 1.70




