%Nproc=28
%chk=holo27.0.chk
%mem=80GB
%NoSave
#MP2(semidirect)/Gen scf=(tight,noincore) Test
#IOP(5/87=12) Density=Current Pop=(MK,readradii) iop(6/33=2) iop(6/42=6)

holo_loop_3_model_27.0 

   0   1
   C     30.45000000    72.54000000     9.90000000
   C     29.62000000    71.82000000     8.84000000
   C     28.37000000    72.54000000     8.37000000
   O     27.25000000    72.03000000     8.28000000
   O     28.54000000    73.84000000     8.00000000
   H     31.11600000    71.88200000    10.45800000
   H     29.81400000    73.00100000    10.65600000
   H     30.97000000    73.29000000     9.31000000
   H     29.23000000    70.85000000     9.16000000
   H     30.21000000    71.51000000     7.98000000
   H     29.40000000    74.23000000     8.19000000
   C     28.44000000    77.64000000    11.11000000
   C     29.05000000    78.44000000     9.96000000
   C     29.69000000    77.68000000     8.81000000
   O     29.96000000    76.46000000     8.85000000
   O     29.97000000    78.37000000     7.81000000
   H     29.21100000    76.96800000    11.48700000
   H     27.57600000    77.09200000    10.73400000
   H     28.12000000    78.27000000    11.94000000
   H     29.73000000    79.18000000    10.38000000
   H     28.32000000    79.00000000     9.37000000
   C     37.28000000    74.39000000     9.48000000
   C     35.93000000    74.59000000     8.81000000
   C     35.67000000    76.01000000     8.33000000
   C     34.28000000    76.38000000     7.84000000
   O     33.41000000    76.82000000     8.63000000
   O     34.10000000    76.26000000     6.61000000
   H     38.05600000    74.80500000     8.83700000
   H     37.45000000    73.32400000     9.63400000
   H     37.31000000    74.90000000    10.44000000
   H     35.19000000    74.21000000     9.51000000
   H     35.87000000    73.90000000     7.97000000
   H     36.32000000    76.15000000     7.46000000
   H     36.02000000    76.81000000     9.00000000
  Ca     31.52000000    76.36000000     6.67000000
   O     32.08000000    79.11000000     5.98000000
   H     32.50000000    79.96000000     5.84000000
   H     31.42000000    79.28000000     6.65000000

C O H 0
aug-cc-pVTZ 
****
@/home/pzhang5/ca_ccpvtz_basisset.gbs/N

Ca 1.70




