%chk=CaMKII_loop3_97.0.chk
%nprocshared=48
%mem=10GB
%nosave
#b3lyp/svp scf=(tight,noincore) Test 
#IOP(5/87=12) Density=Current Pop=(MK,readradii) iop(6/33=2) iop(6/42=6)

CaMKII_loop3_97.0 

   0   1
   C     59.34000000    48.29000000    36.99000000
   C     58.97000000    47.60000000    38.30000000
   O     59.58000000    46.63000000    38.74000000
   H     60.37100000    48.04700000    36.73100000
   H     58.67600000    47.94600000    36.19700000
   H     59.24000000    49.36900000    37.10600000
   N     57.90000000    48.12000000    38.89000000
   C     57.29000000    47.59000000    40.09000000
   C     56.49000000    46.34000000    39.75000000
   O     55.48000000    46.46000000    39.06000000
   C     56.49000000    48.62000000    40.88000000
   C     55.95000000    48.15000000    42.22000000
   O     55.82000000    48.84000000    43.26000000
   O     55.74000000    46.92000000    42.26000000
   H     57.57000000    49.03000000    38.58000000
   H     58.04000000    47.23000000    40.80000000
   H     55.66000000    49.05000000    40.31000000
   H     57.20000000    49.42000000    41.09000000
   N     56.88000000    45.18000000    40.29000000
   C     56.39000000    43.87000000    39.89000000
   C     55.11000000    43.43000000    40.58000000
   O     54.17000000    43.08000000    39.88000000
   C     57.47000000    42.82000000    40.14000000
   C     58.83000000    43.10000000    39.50000000
   C     58.66000000    43.20000000    37.99000000
   C     59.98000000    43.42000000    37.26000000
   N     59.77000000    43.54000000    35.81000000
   H     57.60000000    45.25000000    40.98000000
   H     56.22000000    43.91000000    38.81000000
   H     57.05000000    41.88000000    39.80000000
   H     57.70000000    42.55000000    41.17000000
   H     59.45000000    42.23000000    39.69000000
   H     59.24000000    44.04000000    39.89000000
   H     57.99000000    44.03000000    37.78000000
   H     58.28000000    42.30000000    37.52000000
   H     60.66000000    42.59000000    37.43000000
   H     60.57000000    44.28000000    37.60000000
   H     59.30000000    42.74000000    35.43000000
   H     59.25000000    44.40000000    35.71000000
   H     60.62000000    43.75000000    35.29000000
   N     55.17000000    43.51000000    41.92000000
   C     53.99000000    43.24000000    42.72000000
   C     53.06000000    44.43000000    42.88000000
   O     51.92000000    44.29000000    43.32000000
   C     54.55000000    42.90000000    44.10000000
   C     55.36000000    44.03000000    44.72000000
   O     56.61000000    43.99000000    44.64000000
   O     54.80000000    45.08000000    45.08000000
   H     55.96000000    43.89000000    42.41000000
   H     53.37000000    42.42000000    42.37000000
   H     55.21000000    42.03000000    44.02000000
   H     53.68000000    42.80000000    44.75000000
   N     53.51000000    45.59000000    42.39000000
   C     52.57000000    46.68000000    42.19000000
   C     52.26000000    47.61000000    43.35000000
   O     51.54000000    48.60000000    43.19000000
   H     54.48000000    45.75000000    42.16000000
   H     51.69000000    46.30000000    41.67000000
   H     52.96000000    47.26000000    41.35000000
   N     52.80000000    47.37000000    44.55000000
   C     52.52000000    48.11000000    45.76000000
   C     52.87000000    49.59000000    45.74000000
   O     52.41000000    50.31000000    46.63000000
   C     52.85000000    47.26000000    46.98000000
   C     54.36000000    47.12000000    47.15000000
   N     54.85000000    46.60000000    48.28000000
   O     55.19000000    47.63000000    46.40000000
   H     53.40000000    46.57000000    44.70000000
   H     51.44000000    48.20000000    45.91000000
   H     52.44000000    46.27000000    46.83000000
   H     52.48000000    47.79000000    47.86000000
   H     54.30000000    46.13000000    48.99000000
   H     55.86000000    46.51000000    48.29000000
   N     53.59000000    50.11000000    44.74000000
   C     53.82000000    51.54000000    44.61000000
   C     55.22000000    52.00000000    44.97000000
   O     55.38000000    53.20000000    45.19000000
   H     54.11000000    49.52000000    44.11000000
   H     53.13000000    52.21000000    45.12000000
   H     53.77000000    51.90000000    43.59000000
   N     56.19000000    51.08000000    44.98000000
   C     57.60000000    51.32000000    45.15000000
   C     58.47000000    50.19000000    44.63000000
   O     58.29000000    48.98000000    44.80000000
   C     58.01000000    51.63000000    46.59000000
   C     57.68000000    50.53000000    47.58000000
   C     56.43000000    50.51000000    48.19000000
   C     58.60000000    49.52000000    47.88000000
   C     56.05000000    49.48000000    49.06000000
   C     58.25000000    48.51000000    48.77000000
   C     56.97000000    48.46000000    49.37000000
   O     56.70000000    47.47000000    50.27000000
   H     55.95000000    50.11000000    44.88000000
   H     57.83000000    52.17000000    44.50000000
   H     57.46000000    52.51000000    46.95000000
   H     59.07000000    51.86000000    46.53000000
   H     55.66000000    51.20000000    47.86000000
   H     59.62000000    49.54000000    47.51000000
   H     55.06000000    49.48000000    49.48000000
   H     58.96000000    47.71000000    48.93000000
   H     57.46000000    46.89000000    50.32000000
   N     59.48000000    50.58000000    43.85000000
   C     60.59000000    49.80000000    43.34000000
   C     61.55000000    49.50000000    44.48000000
   O     62.03000000    50.43000000    45.13000000
   C     61.21000000    50.64000000    42.22000000
   C     60.32000000    50.74000000    40.99000000
   C     62.42000000    49.79000000    41.85000000
   C     60.87000000    51.76000000    40.01000000
   H     59.47000000    51.58000000    43.76000000
   H     60.27000000    48.88000000    42.86000000
   H     61.59000000    51.63000000    42.44000000
   H     59.32000000    51.04000000    41.33000000
   H     60.25000000    49.79000000    40.46000000
   H     63.36000000    50.03000000    42.35000000
   H     62.18000000    48.73000000    41.92000000
   H     62.60000000    50.02000000    40.80000000
   H     61.94000000    51.72000000    39.83000000
   H     60.27000000    51.76000000    39.10000000
   H     60.68000000    52.75000000    40.45000000
   N     61.96000000    48.23000000    44.64000000
   C     63.03000000    47.77000000    45.49000000
   C     64.14000000    46.95000000    44.86000000
   O     64.03000000    46.53000000    43.71000000
   C     62.40000000    46.85000000    46.53000000
   O     61.84000000    45.65000000    46.04000000
   H     61.41000000    47.59000000    44.08000000
   H     63.45000000    48.63000000    46.01000000
   H     61.71000000    47.41000000    47.16000000
   H     63.11000000    46.58000000    47.31000000
   H     61.10000000    45.88000000    45.48000000
   N     65.17000000    46.65000000    45.65000000
   C     66.34000000    45.92000000    45.18000000
   C     66.09000000    44.52000000    44.63000000
   O     66.73000000    44.06000000    43.69000000
   C     67.31000000    45.78000000    46.35000000
   H     65.27000000    46.89000000    46.62000000
   H     66.85000000    46.48000000    44.40000000
   H     66.96000000    45.41000000    47.31000000
   H     68.03000000    45.02000000    46.05000000
   H     67.85000000    46.72000000    46.45000000
   N     65.00000000    43.86000000    45.03000000
   C     64.53000000    42.59000000    44.50000000
   C     63.99000000    42.72000000    43.08000000
   O     64.18000000    41.88000000    42.21000000
   C     63.56000000    41.99000000    45.50000000
   H     64.47000000    44.29000000    45.77000000
   H     65.40000000    41.96000000    44.32000000
   H     64.10000000    41.72000000    46.41000000
   H     62.74000000    42.68000000    45.71000000
   H     63.20000000    41.02000000    45.14000000
   N     63.28000000    43.80000000    42.77000000
   C     62.66000000    44.09000000    41.49000000
   C     63.57000000    44.88000000    40.57000000
   O     63.53000000    44.69000000    39.35000000
   C     61.39000000    44.89000000    41.74000000
   C     60.56000000    44.45000000    42.95000000
   C     59.59000000    45.55000000    43.35000000
   O     58.53000000    45.64000000    42.71000000
   O     59.76000000    46.26000000    44.37000000
   H     63.36000000    44.58000000    43.41000000
   H     62.32000000    43.13000000    41.11000000
   H     60.77000000    44.69000000    40.86000000
   H     61.57000000    45.96000000    41.82000000
   H     61.21000000    44.35000000    43.82000000
   H     60.16000000    43.45000000    42.79000000
   N     64.54000000    45.66000000    41.05000000
   C     65.58000000    46.18000000    40.19000000
   H     66.48900000    45.59300000    40.32400000
   H     65.25800000    46.11700000    39.15100000
   H     65.77800000    47.22000000    40.44700000
   H     64.53000000    45.86000000    42.04000000
  Ca     57.06000000    46.60000000    44.63000000
   O     57.59000000    45.81000000    47.30000000
   H     57.93000000    45.85000000    48.19000000
   H     57.38000000    44.89000000    47.16000000

Ca 1.70



