%chk=CaMKII_loop3_101.0.chk
%nprocshared=48
%mem=10GB
%nosave
#b3lyp/svp scf=(tight,noincore) Test 
#IOP(5/87=12) Density=Current Pop=(MK,readradii) iop(6/33=2) iop(6/42=6)

CaMKII_loop3_101.0 

   0   1
   C     77.82000000    48.34000000    27.19000000
   C     76.91000000    47.38000000    27.93000000
   O     77.36000000    46.28000000    28.21000000
   H     78.77600000    47.85500000    26.99300000
   H     77.35700000    48.62600000    26.24600000
   H     77.98400000    49.22900000    27.79900000
   N     75.68000000    47.83000000    28.20000000
   C     74.73000000    47.09000000    29.01000000
   C     74.01000000    46.09000000    28.11000000
   O     73.30000000    46.44000000    27.16000000
   C     73.86000000    48.04000000    29.83000000
   C     72.94000000    47.41000000    30.86000000
   O     72.94000000    46.16000000    30.85000000
   O     72.31000000    48.07000000    31.71000000
   H     75.38000000    48.70000000    27.79000000
   H     75.27000000    46.50000000    29.74000000
   H     73.23000000    48.62000000    29.16000000
   H     74.47000000    48.82000000    30.29000000
   N     74.28000000    44.81000000    28.38000000
   C     73.77000000    43.71000000    27.58000000
   C     72.28000000    43.44000000    27.70000000
   O     71.68000000    42.96000000    26.74000000
   C     74.60000000    42.49000000    27.98000000
   C     74.71000000    41.33000000    27.00000000
   C     75.54000000    40.25000000    27.69000000
   C     75.75000000    39.01000000    26.82000000
   N     76.30000000    37.85000000    27.54000000
   H     74.80000000    44.61000000    29.21000000
   H     73.96000000    43.98000000    26.54000000
   H     74.05000000    42.19000000    28.87000000
   H     75.57000000    42.83000000    28.35000000
   H     75.18000000    41.55000000    26.04000000
   H     73.72000000    40.88000000    26.82000000
   H     75.07000000    39.90000000    28.60000000
   H     76.51000000    40.59000000    28.05000000
   H     76.43000000    39.39000000    26.06000000
   H     74.85000000    38.75000000    26.27000000
   H     75.59000000    37.53000000    28.18000000
   H     76.52000000    37.11000000    26.89000000
   H     77.10000000    38.01000000    28.13000000
   N     71.63000000    43.88000000    28.78000000
   C     70.20000000    43.79000000    28.95000000
   C     69.47000000    45.11000000    29.17000000
   O     68.26000000    45.22000000    29.04000000
   C     69.85000000    42.77000000    30.04000000
   C     70.19000000    43.14000000    31.47000000
   O     70.68000000    44.27000000    31.68000000
   O     69.85000000    42.37000000    32.40000000
   H     72.12000000    44.17000000    29.62000000
   H     69.71000000    43.39000000    28.06000000
   H     70.52000000    41.93000000    29.86000000
   H     68.83000000    42.40000000    29.93000000
   N     70.26000000    46.13000000    29.52000000
   C     69.84000000    47.50000000    29.73000000
   C     68.92000000    47.78000000    30.90000000
   O     67.99000000    48.59000000    30.83000000
   H     71.24000000    45.91000000    29.64000000
   H     69.28000000    47.79000000    28.84000000
   H     70.71000000    48.16000000    29.84000000
   N     69.15000000    47.07000000    32.00000000
   C     68.54000000    47.36000000    33.28000000
   C     69.06000000    48.62000000    33.96000000
   O     68.55000000    49.08000000    34.98000000
   C     68.62000000    46.11000000    34.15000000
   C     69.88000000    45.87000000    34.97000000
   N     69.68000000    45.75000000    36.28000000
   O     71.04000000    45.85000000    34.54000000
   H     69.78000000    46.28000000    31.93000000
   H     67.47000000    47.42000000    33.11000000
   H     68.39000000    45.20000000    33.60000000
   H     67.82000000    46.14000000    34.90000000
   H     68.80000000    45.92000000    36.75000000
   H     70.42000000    45.40000000    36.86000000
   N     70.10000000    49.24000000    33.38000000
   C     70.68000000    50.47000000    33.86000000
   C     71.88000000    50.29000000    34.78000000
   O     72.31000000    51.26000000    35.41000000
   H     70.66000000    48.76000000    32.69000000
   H     69.98000000    51.11000000    34.39000000
   H     70.97000000    51.14000000    33.05000000
   N     72.39000000    49.06000000    34.86000000
   C     73.76000000    48.84000000    35.28000000
   C     74.53000000    47.98000000    34.28000000
   O     74.00000000    47.05000000    33.68000000
   C     73.72000000    48.07000000    36.60000000
   C     73.00000000    48.72000000    37.75000000
   C     73.63000000    49.17000000    38.92000000
   C     71.61000000    48.62000000    37.71000000
   C     72.86000000    49.51000000    40.04000000
   C     70.84000000    49.08000000    38.78000000
   C     71.45000000    49.45000000    39.99000000
   O     70.76000000    49.84000000    41.10000000
   H     72.03000000    48.32000000    34.28000000
   H     74.29000000    49.79000000    35.31000000
   H     74.76000000    48.05000000    36.94000000
   H     73.30000000    47.08000000    36.45000000
   H     74.71000000    49.28000000    38.94000000
   H     71.10000000    48.08000000    36.92000000
   H     73.30000000    49.77000000    40.99000000
   H     69.78000000    49.04000000    38.58000000
   H     69.83000000    50.04000000    40.96000000
   N     75.85000000    48.18000000    34.34000000
   C     76.90000000    47.28000000    33.90000000
   C     77.50000000    46.41000000    35.00000000
   O     78.14000000    46.86000000    35.94000000
   C     77.96000000    48.06000000    33.14000000
   C     77.40000000    48.80000000    31.92000000
   C     79.23000000    47.33000000    32.73000000
   C     78.28000000    50.01000000    31.62000000
   H     76.13000000    49.03000000    34.81000000
   H     76.49000000    46.63000000    33.13000000
   H     78.27000000    48.88000000    33.79000000
   H     76.37000000    49.17000000    31.99000000
   H     77.55000000    48.11000000    31.10000000
   H     79.69000000    46.87000000    33.60000000
   H     78.86000000    46.54000000    32.07000000
   H     80.00000000    48.00000000    32.35000000
   H     77.76000000    50.59000000    30.86000000
   H     78.31000000    50.62000000    32.52000000
   H     79.27000000    49.75000000    31.25000000
   N     77.43000000    45.09000000    34.85000000
   C     78.16000000    44.10000000    35.61000000
   C     79.53000000    44.00000000    34.97000000
   O     79.73000000    44.31000000    33.80000000
   C     77.44000000    42.75000000    35.68000000
   O     77.70000000    41.85000000    34.62000000
   H     76.87000000    44.73000000    34.09000000
   H     78.33000000    44.39000000    36.65000000
   H     76.38000000    42.79000000    35.91000000
   H     77.82000000    42.31000000    36.60000000
   H     77.02000000    41.17000000    34.58000000
   N     80.43000000    43.33000000    35.70000000
   C     81.73000000    42.92000000    35.21000000
   C     81.65000000    42.02000000    33.98000000
   O     82.42000000    42.21000000    33.05000000
   C     82.35000000    42.15000000    36.38000000
   H     80.15000000    43.07000000    36.63000000
   H     82.31000000    43.83000000    35.07000000
   H     81.66000000    41.38000000    36.72000000
   H     83.28000000    41.68000000    36.07000000
   H     82.50000000    42.89000000    37.17000000
   N     80.72000000    41.06000000    33.94000000
   C     80.59000000    40.17000000    32.81000000
   C     80.08000000    40.75000000    31.50000000
   O     80.42000000    40.35000000    30.39000000
   C     79.88000000    38.88000000    33.20000000
   H     80.20000000    40.85000000    34.78000000
   H     81.59000000    39.85000000    32.52000000
   H     79.60000000    38.26000000    32.35000000
   H     80.56000000    38.25000000    33.78000000
   H     78.97000000    39.14000000    33.75000000
   N     79.18000000    41.72000000    31.63000000
   C     78.70000000    42.56000000    30.55000000
   C     79.84000000    43.42000000    30.01000000
   O     79.95000000    43.42000000    28.79000000
   C     77.52000000    43.39000000    31.04000000
   C     76.32000000    42.52000000    31.38000000
   C     75.18000000    43.39000000    31.88000000
   O     75.34000000    44.07000000    32.92000000
   O     74.06000000    43.37000000    31.33000000
   H     78.85000000    41.96000000    32.56000000
   H     78.28000000    41.96000000    29.74000000
   H     77.21000000    44.17000000    30.34000000
   H     77.75000000    44.06000000    31.87000000
   H     76.56000000    41.84000000    32.19000000
   H     75.98000000    41.90000000    30.54000000
   N     80.70000000    43.96000000    30.88000000
   C     81.93000000    44.66000000    30.59000000
   H     82.71800000    43.93700000    30.38000000
   H     81.78700000    45.30300000    29.72200000
   H     82.21500000    45.26700000    31.44900000
   H     80.43000000    43.88000000    31.85000000
  Ca     72.83000000    44.84000000    32.99000000
   O     72.08000000    42.52000000    33.92000000
   H     72.10000000    42.02000000    34.73000000
   H     71.26000000    42.25000000    33.50000000

Ca 1.70



