%chk=CaMKII_loop3_81.0.chk
%nprocshared=48
%mem=10GB
%nosave
#b3lyp/svp scf=(tight,noincore) Test 
#IOP(5/87=12) Density=Current Pop=(MK,readradii) iop(6/33=2) iop(6/42=6)

CaMKII_loop3_81.0 

   0   1
   C     77.11000000    60.69000000    19.66000000
   C     77.11000000    59.32000000    18.98000000
   O     78.20000000    58.88000000    18.64000000
   H     76.71200000    61.43600000    18.97300000
   H     76.48800000    60.65200000    20.55500000
   H     78.12900000    60.95900000    19.93600000
   N     76.00000000    58.61000000    18.78000000
   C     75.96000000    57.41000000    17.96000000
   C     76.15000000    57.70000000    16.48000000
   O     75.39000000    58.47000000    15.90000000
   C     74.68000000    56.65000000    18.30000000
   C     74.43000000    55.37000000    17.52000000
   O     73.39000000    54.73000000    17.75000000
   O     75.27000000    54.99000000    16.67000000
   H     75.13000000    59.02000000    19.10000000
   H     76.79000000    56.80000000    18.32000000
   H     73.92000000    57.36000000    17.97000000
   H     74.66000000    56.37000000    19.36000000
   N     77.27000000    57.17000000    15.96000000
   C     77.89000000    57.56000000    14.72000000
   C     77.11000000    57.12000000    13.49000000
   O     76.78000000    57.95000000    12.64000000
   C     79.36000000    57.14000000    14.67000000
   C     80.13000000    57.99000000    13.67000000
   C     81.58000000    57.54000000    13.51000000
   C     82.34000000    58.31000000    12.43000000
   N     83.58000000    57.60000000    12.06000000
   H     77.79000000    56.50000000    16.51000000
   H     77.96000000    58.65000000    14.67000000
   H     79.49000000    56.06000000    14.54000000
   H     79.71000000    57.37000000    15.67000000
   H     80.24000000    59.03000000    13.99000000
   H     79.82000000    57.97000000    12.63000000
   H     81.59000000    56.48000000    13.22000000
   H     82.04000000    57.58000000    14.49000000
   H     82.58000000    59.33000000    12.72000000
   H     81.71000000    58.31000000    11.54000000
   H     84.27000000    58.19000000    11.61000000
   H     83.99000000    57.24000000    12.91000000
   H     83.36000000    56.82000000    11.46000000
   N     76.61000000    55.88000000    13.52000000
   C     75.69000000    55.24000000    12.60000000
   C     74.25000000    55.06000000    13.04000000
   O     73.54000000    54.41000000    12.27000000
   C     76.37000000    53.99000000    12.04000000
   C     76.85000000    53.01000000    13.09000000
   O     76.44000000    53.18000000    14.26000000
   O     77.48000000    51.95000000    12.87000000
   H     76.80000000    55.28000000    14.31000000
   H     75.61000000    55.95000000    11.78000000
   H     77.21000000    54.38000000    11.46000000
   H     75.73000000    53.56000000    11.27000000
   N     73.80000000    55.60000000    14.17000000
   C     72.47000000    55.52000000    14.74000000
   C     71.76000000    54.18000000    14.74000000
   O     70.80000000    54.00000000    14.00000000
   H     74.53000000    55.95000000    14.77000000
   H     71.81000000    56.23000000    14.25000000
   H     72.46000000    55.77000000    15.81000000
   N     72.27000000    53.26000000    15.56000000
   C     71.71000000    51.96000000    15.89000000
   C     71.31000000    51.82000000    17.36000000
   O     70.93000000    50.75000000    17.83000000
   C     72.69000000    50.89000000    15.41000000
   C     73.86000000    50.71000000    16.37000000
   N     74.34000000    49.48000000    16.56000000
   O     74.50000000    51.67000000    16.79000000
   H     73.07000000    53.57000000    16.09000000
   H     70.75000000    51.81000000    15.40000000
   H     73.14000000    51.08000000    14.44000000
   H     72.21000000    49.92000000    15.37000000
   H     73.91000000    48.67000000    16.14000000
   H     75.23000000    49.39000000    17.04000000
   N     71.50000000    52.86000000    18.17000000
   C     71.02000000    52.88000000    19.54000000
   C     72.05000000    52.67000000    20.64000000
   O     71.63000000    52.54000000    21.79000000
   H     71.97000000    53.69000000    17.85000000
   H     70.29000000    52.09000000    19.71000000
   H     70.42000000    53.77000000    19.74000000
   N     73.33000000    52.75000000    20.25000000
   C     74.48000000    52.45000000    21.09000000
   C     75.72000000    53.23000000    20.67000000
   O     76.04000000    53.36000000    19.49000000
   C     74.84000000    50.97000000    21.14000000
   C     73.71000000    50.00000000    21.40000000
   C     73.46000000    49.75000000    22.75000000
   C     73.07000000    49.35000000    20.33000000
   C     72.44000000    48.85000000    23.08000000
   C     72.03000000    48.49000000    20.71000000
   C     71.69000000    48.25000000    22.05000000
   O     70.65000000    47.40000000    22.32000000
   H     73.46000000    53.05000000    19.30000000
   H     74.13000000    52.73000000    22.08000000
   H     75.66000000    50.86000000    21.85000000
   H     75.15000000    50.77000000    20.11000000
   H     74.05000000    50.22000000    23.53000000
   H     73.34000000    49.37000000    19.29000000
   H     72.11000000    48.61000000    24.08000000
   H     71.55000000    47.92000000    19.92000000
   H     70.01000000    47.46000000    21.62000000
   N     76.38000000    53.82000000    21.67000000
   C     77.61000000    54.58000000    21.53000000
   C     78.77000000    53.69000000    21.93000000
   O     78.69000000    52.94000000    22.91000000
   C     77.65000000    55.77000000    22.49000000
   C     76.37000000    56.58000000    22.32000000
   C     78.90000000    56.62000000    22.35000000
   C     76.20000000    57.66000000    23.38000000
   H     76.11000000    53.64000000    22.62000000
   H     77.79000000    54.96000000    20.52000000
   H     77.65000000    55.39000000    23.51000000
   H     75.52000000    55.91000000    22.44000000
   H     76.42000000    57.06000000    21.34000000
   H     78.85000000    57.20000000    21.42000000
   H     78.91000000    57.41000000    23.11000000
   H     79.85000000    56.08000000    22.30000000
   H     77.10000000    58.25000000    23.54000000
   H     75.38000000    58.26000000    22.98000000
   H     76.02000000    57.20000000    24.35000000
   N     79.86000000    53.68000000    21.16000000
   C     81.06000000    52.95000000    21.52000000
   C     82.26000000    53.84000000    21.81000000
   O     82.20000000    55.07000000    21.82000000
   C     81.48000000    51.89000000    20.51000000
   O     82.20000000    52.53000000    19.47000000
   H     80.01000000    54.36000000    20.43000000
   H     80.92000000    52.41000000    22.45000000
   H     80.61000000    51.39000000    20.09000000
   H     82.15000000    51.20000000    21.03000000
   H     82.85000000    51.90000000    19.16000000
   N     83.40000000    53.27000000    22.20000000
   C     84.63000000    54.02000000    22.41000000
   C     85.08000000    54.73000000    21.14000000
   O     85.29000000    55.94000000    21.16000000
   C     85.72000000    53.17000000    23.05000000
   H     83.46000000    52.27000000    22.37000000
   H     84.39000000    54.75000000    23.17000000
   H     85.96000000    52.26000000    22.49000000
   H     86.65000000    53.70000000    23.24000000
   H     85.40000000    52.82000000    24.03000000
   N     85.15000000    54.01000000    20.01000000
   C     85.51000000    54.50000000    18.70000000
   C     84.53000000    55.49000000    18.08000000
   O     84.89000000    56.34000000    17.26000000
   C     85.93000000    53.27000000    17.91000000
   H     85.13000000    53.01000000    20.11000000
   H     86.45000000    55.05000000    18.79000000
   H     85.24000000    52.43000000    18.00000000
   H     86.23000000    53.43000000    16.87000000
   H     86.90000000    52.94000000    18.28000000
   N     83.31000000    55.50000000    18.62000000
   C     82.33000000    56.51000000    18.29000000
   C     82.35000000    57.69000000    19.26000000
   O     82.35000000    58.79000000    18.71000000
   C     80.92000000    55.94000000    18.20000000
   C     80.78000000    54.90000000    17.09000000
   C     79.43000000    54.20000000    17.08000000
   O     78.42000000    54.60000000    17.71000000
   O     79.33000000    53.20000000    16.34000000
   H     83.01000000    54.72000000    19.18000000
   H     82.59000000    56.95000000    17.33000000
   H     80.23000000    56.77000000    18.06000000
   H     80.63000000    55.46000000    19.13000000
   H     81.56000000    54.15000000    17.26000000
   H     81.06000000    55.38000000    16.15000000
   N     82.58000000    57.54000000    20.57000000
   C     82.78000000    58.56000000    21.57000000
   H     83.55300000    59.25100000    21.23400000
   H     81.84900000    59.10500000    21.72500000
   H     83.09100000    58.09600000    22.50600000
   H     82.54000000    56.59000000    20.93000000
  Ca     76.69000000    52.84000000    16.80000000
   O     77.21000000    50.44000000    15.60000000
   H     77.44000000    49.91000000    14.84000000
   H     77.61000000    49.99000000    16.34000000

Ca 1.70



