%chk=CaMKII_loop3_106.0.chk
%nprocshared=48
%mem=10GB
%nosave
#b3lyp/svp scf=(tight,noincore) Test 
#IOP(5/87=12) Density=Current Pop=(MK,readradii) iop(6/33=2) iop(6/42=6)

CaMKII_loop3_106.0 

   0   1
   C     92.19900000    49.31000000    20.53100000
   C     92.21900000    49.08000000    22.03100000
   O     92.26900000    47.92000000    22.42100000
   H     92.46300000    50.34600000    20.31900000
   H     92.91900000    48.64700000    20.05200000
   H     91.20100000    49.10300000    20.14400000
   N     92.39900000    50.10000000    22.88100000
   C     92.61900000    49.90000000    24.30100000
   C     91.28900000    49.77000000    25.03100000
   O     90.51900000    50.73000000    25.14100000
   C     93.44900000    51.02000000    24.92100000
   C     93.62900000    50.80000000    26.41100000
   O     93.52900000    49.64000000    26.87100000
   O     93.99900000    51.75000000    27.13100000
   H     92.45900000    51.04000000    22.52100000
   H     93.16900000    48.97000000    24.42100000
   H     92.84900000    51.92000000    24.76100000
   H     94.39900000    51.21000000    24.41100000
   N     90.91900000    48.53000000    25.33100000
   C     89.58900000    48.03000000    25.62100000
   C     89.17900000    48.29000000    27.06100000
   O     87.98900000    48.25000000    27.34100000
   C     89.39900000    46.55000000    25.30100000
   C     89.59900000    46.23000000    23.82100000
   C     88.76900000    47.00000000    22.81100000
   C     88.69900000    46.42000000    21.40100000
   N     87.70900000    47.11000000    20.56100000
   H     91.62900000    47.83000000    25.12100000
   H     88.91900000    48.61000000    24.99100000
   H     88.41900000    46.23000000    25.64100000
   H     90.15900000    45.94000000    25.79100000
   H     89.41900000    45.16000000    23.69100000
   H     90.60900000    46.42000000    23.47100000
   H     89.19900000    48.00000000    22.77100000
   H     87.75900000    47.16000000    23.19100000
   H     88.35900000    45.39000000    21.37100000
   H     89.64900000    46.51000000    20.87100000
   H     86.83900000    47.10000000    21.08100000
   H     87.91900000    48.06000000    20.29100000
   H     87.49900000    46.52000000    19.77100000
   N     90.11900000    48.51000000    27.98100000
   C     89.80900000    48.80000000    29.37100000
   C     90.29900000    50.15000000    29.87100000
   O     90.15900000    50.55000000    31.02100000
   C     90.40900000    47.80000000    30.35100000
   C     91.91900000    47.62000000    30.27100000
   O     92.54900000    48.14000000    29.33100000
   O     92.49900000    46.84000000    31.06100000
   H     91.09900000    48.65000000    27.76100000
   H     88.74900000    48.76000000    29.60100000
   H     90.01900000    46.79000000    30.23100000
   H     90.12900000    48.09000000    31.36100000
   N     90.91900000    50.90000000    28.95100000
   C     91.35900000    52.27000000    29.12100000
   C     92.47900000    52.29000000    30.15100000
   O     92.29900000    52.78000000    31.26100000
   H     90.82900000    50.64000000    27.97100000
   H     90.52900000    52.86000000    29.49100000
   H     91.61900000    52.66000000    28.14100000
   N     93.57900000    51.57000000    29.92100000
   C     94.69900000    51.67000000    30.83100000
   C     95.92900000    52.33000000    30.21100000
   O     96.91900000    52.47000000    30.93100000
   C     94.96900000    50.26000000    31.37100000
   C     95.96900000    49.39000000    30.63100000
   N     97.22900000    49.31000000    31.08100000
   O     95.68900000    48.81000000    29.59100000
   H     93.63900000    51.08000000    29.04100000
   H     94.48900000    52.36000000    31.64100000
   H     93.98900000    49.80000000    31.52100000
   H     95.31900000    50.38000000    32.40100000
   H     97.48900000    49.73000000    31.95100000
   H     97.91900000    48.72000000    30.64100000
   N     95.82900000    52.80000000    28.97100000
   C     96.86900000    53.54000000    28.28100000
   C     97.71900000    52.62000000    27.41100000
   O     98.65900000    53.16000000    26.84100000
   H     95.08900000    52.40000000    28.41100000
   H     97.51900000    54.09000000    28.95100000
   H     96.37900000    54.28000000    27.65100000
   N     97.47900000    51.30000000    27.40100000
   C     98.30900000    50.27000000    26.82100000
   C     97.44900000    49.18000000    26.19100000
   O     96.36900000    48.89000000    26.69100000
   C     99.30900000    49.61000000    27.76100000
   C    100.29900000    50.56000000    28.39100000
   C    101.66900000    50.57000000    28.08100000
   C     99.81900000    51.27000000    29.50100000
   C    102.49900000    51.36000000    28.88100000
   C    100.62900000    52.10000000    30.28100000
   C    102.00900000    52.10000000    29.98100000
   O    102.79900000    52.90000000    30.75100000
   H     96.66900000    51.04000000    27.94100000
   H     98.85900000    50.73000000    25.99100000
   H     99.83900000    48.83000000    27.21100000
   H     98.79900000    49.12000000    28.59100000
   H    102.10900000    49.90000000    27.37100000
   H     98.77900000    51.09000000    29.72100000
   H    103.56900000    51.35000000    28.73100000
   H    100.26900000    52.67000000    31.12100000
   H    103.71900000    52.94000000    30.48100000
   N     97.98900000    48.50000000    25.17100000
   C     97.37900000    47.45000000    24.39100000
   C     98.01900000    46.10000000    24.66100000
   O     99.23900000    46.08000000    24.81100000
   C     97.39900000    47.79000000    22.90100000
   C     97.13900000    49.24000000    22.48100000
   C     96.37900000    46.93000000    22.17100000
   C     97.26900000    49.61000000    21.00100000
   H     98.81900000    48.92000000    24.78100000
   H     96.37900000    47.30000000    24.79100000
   H     98.41900000    47.47000000    22.66100000
   H     97.87900000    49.83000000    23.03100000
   H     96.16900000    49.53000000    22.87100000
   H     96.75900000    46.72000000    21.17100000
   H     96.29900000    45.97000000    22.67100000
   H     95.39900000    47.40000000    22.20100000
   H     98.31900000    49.70000000    20.73100000
   H     96.93900000    48.81000000    20.33100000
   H     96.56900000    50.44000000    20.87100000
   N     97.24900000    45.01000000    24.69100000
   C     97.75900000    43.66000000    24.63100000
   C     97.21900000    43.04000000    23.34100000
   O     96.18900000    43.44000000    22.81100000
   C     97.20900000    42.96000000    25.87100000
   O     97.68900000    43.41000000    27.11100000
   H     96.25900000    45.15000000    24.53100000
   H     98.83900000    43.63000000    24.68100000
   H     97.61900000    41.96000000    25.76100000
   H     96.11900000    42.86000000    25.88100000
   H     97.62900000    42.71000000    27.77100000
   N     97.95900000    42.05000000    22.84100000
   C     97.68900000    41.31000000    21.62100000
   C     96.30900000    40.70000000    21.42100000
   O     95.81900000    40.64000000    20.30100000
   C     98.62900000    40.10000000    21.62100000
   H     98.62900000    41.59000000    23.43100000
   H     97.94900000    41.89000000    20.73100000
   H     98.46900000    39.54000000    20.70100000
   H     99.69900000    40.32000000    21.62100000
   H     98.27900000    39.40000000    22.38100000
   N     95.64900000    40.33000000    22.52100000
   C     94.29900000    39.81000000    22.54100000
   C     93.24900000    40.91000000    22.46100000
   O     92.13900000    40.56000000    22.06100000
   C     94.11900000    38.99000000    23.81100000
   H     96.09900000    40.58000000    23.39100000
   H     94.16900000    39.14000000    21.68100000
   H     94.90900000    38.24000000    23.96100000
   H     94.02900000    39.62000000    24.69100000
   H     93.19900000    38.43000000    23.65100000
   N     93.54900000    42.14000000    22.87100000
   C     92.74900000    43.31000000    22.57100000
   C     92.91900000    43.74000000    21.12100000
   O     91.99900000    43.77000000    20.31100000
   C     93.06900000    44.49000000    23.49100000
   C     92.81900000    44.14000000    24.96100000
   C     93.28900000    45.23000000    25.92100000
   O     93.44900000    45.02000000    27.14100000
   O     93.60900000    46.35000000    25.50100000
   H     94.50900000    42.32000000    23.14100000
   H     91.68900000    43.11000000    22.73100000
   H     92.39900000    45.29000000    23.19100000
   H     94.11900000    44.79000000    23.46100000
   H     93.26900000    43.18000000    25.18100000
   H     91.75900000    43.92000000    25.10100000
   N     94.16900000    43.84000000    20.67100000
   C     94.46900000    44.03000000    19.27100000
   H     95.51000000    43.76700000    19.08400000
   H     93.82000000    43.39300000    18.67000000
   H     94.30500000    45.07300000    19.00200000
   H     94.86900000    43.73000000    21.40100000
  Ca     94.43000000    47.41000000    27.73000000
   O     94.58000000    45.97000000    29.90000000
   H     93.91000000    46.18000000    30.55000000
   H     95.34000000    45.69000000    30.41000000

Ca 1.70



