%chk=CaMKII_loop3_72.0.chk
%nprocshared=48
%mem=10GB
%nosave
#b3lyp/svp scf=(tight,noincore) Test 
#IOP(5/87=12) Density=Current Pop=(MK,readradii) iop(6/33=2) iop(6/42=6)

CaMKII_loop3_72.0 

   0   1
   C     77.41000000    60.51000000    19.50000000
   C     77.57000000    59.11000000    18.92000000
   O     78.68000000    58.67000000    18.64000000
   H     76.40600000    60.62000000    19.90900000
   H     78.14300000    60.66200000    20.29200000
   H     77.56500000    61.24900000    18.71400000
   N     76.46000000    58.43000000    18.65000000
   C     76.39000000    57.21000000    17.88000000
   C     76.61000000    57.50000000    16.40000000
   O     75.86000000    58.27000000    15.81000000
   C     75.04000000    56.56000000    18.20000000
   C     74.92000000    55.19000000    17.55000000
   O     73.89000000    54.50000000    17.73000000
   O     75.92000000    54.65000000    17.03000000
   H     75.66000000    58.88000000    19.07000000
   H     77.17000000    56.53000000    18.22000000
   H     74.33000000    57.27000000    17.78000000
   H     74.87000000    56.60000000    19.28000000
   N     77.58000000    56.86000000    15.74000000
   C     78.09000000    57.25000000    14.44000000
   C     77.44000000    56.45000000    13.31000000
   O     77.76000000    56.74000000    12.16000000
   C     79.61000000    57.11000000    14.47000000
   C     80.35000000    58.12000000    13.60000000
   C     81.83000000    57.75000000    13.54000000
   C     82.74000000    58.79000000    12.88000000
   N     84.07000000    58.19000000    12.72000000
   H     78.11000000    56.18000000    16.26000000
   H     77.90000000    58.29000000    14.19000000
   H     79.78000000    56.06000000    14.23000000
   H     79.98000000    57.41000000    15.45000000
   H     80.27000000    59.11000000    14.05000000
   H     79.87000000    58.16000000    12.63000000
   H     81.90000000    56.91000000    12.85000000
   H     82.33000000    57.39000000    14.44000000
   H     82.89000000    59.67000000    13.51000000
   H     82.23000000    59.25000000    12.03000000
   H     84.76000000    58.90000000    12.54000000
   H     84.35000000    57.65000000    13.52000000
   H     84.02000000    57.59000000    11.91000000
   N     76.53000000    55.49000000    13.53000000
   C     75.73000000    54.67000000    12.65000000
   C     74.36000000    54.34000000    13.21000000
   O     73.64000000    53.51000000    12.66000000
   C     76.50000000    53.38000000    12.40000000
   C     76.94000000    52.55000000    13.60000000
   O     76.36000000    52.57000000    14.71000000
   O     78.02000000    51.95000000    13.45000000
   H     76.45000000    55.33000000    14.52000000
   H     75.57000000    55.19000000    11.70000000
   H     77.44000000    53.52000000    11.87000000
   H     75.92000000    52.74000000    11.73000000
   N     73.89000000    55.02000000    14.26000000
   C     72.51000000    54.98000000    14.69000000
   C     71.92000000    53.63000000    15.07000000
   O     70.70000000    53.51000000    15.17000000
   H     74.49000000    55.72000000    14.67000000
   H     72.00000000    55.27000000    13.77000000
   H     72.39000000    55.75000000    15.46000000
   N     72.72000000    52.60000000    15.36000000
   C     72.29000000    51.30000000    15.81000000
   C     71.68000000    51.33000000    17.20000000
   O     70.96000000    50.42000000    17.60000000
   C     73.50000000    50.38000000    15.66000000
   C     74.36000000    50.20000000    16.90000000
   N     74.62000000    48.99000000    17.38000000
   O     75.00000000    51.15000000    17.35000000
   H     73.71000000    52.81000000    15.26000000
   H     71.52000000    50.87000000    15.16000000
   H     74.19000000    50.67000000    14.88000000
   H     73.07000000    49.44000000    15.28000000
   H     74.07000000    48.18000000    17.12000000
   H     75.24000000    48.90000000    18.18000000
   N     72.08000000    52.34000000    17.98000000
   C     71.55000000    52.63000000    19.30000000
   C     72.52000000    52.51000000    20.46000000
   O     72.08000000    52.32000000    21.59000000
   H     72.87000000    52.86000000    17.63000000
   H     70.80000000    51.89000000    19.55000000
   H     71.07000000    53.61000000    19.27000000
   N     73.82000000    52.33000000    20.20000000
   C     74.93000000    52.22000000    21.13000000
   C     76.11000000    53.07000000    20.69000000
   O     76.32000000    53.33000000    19.50000000
   C     75.30000000    50.76000000    21.36000000
   C     74.27000000    49.70000000    21.67000000
   C     74.19000000    49.21000000    22.98000000
   C     73.42000000    49.22000000    20.67000000
   C     73.21000000    48.24000000    23.20000000
   C     72.40000000    48.30000000    20.94000000
   C     72.27000000    47.79000000    22.25000000
   O     71.36000000    46.82000000    22.54000000
   H     74.13000000    52.52000000    19.26000000
   H     74.61000000    52.63000000    22.09000000
   H     76.05000000    50.66000000    22.15000000
   H     75.80000000    50.39000000    20.46000000
   H     74.88000000    49.48000000    23.76000000
   H     73.47000000    49.71000000    19.70000000
   H     73.20000000    47.92000000    24.23000000
   H     71.73000000    48.07000000    20.13000000
   H     70.69000000    46.61000000    21.88000000
   N     76.92000000    53.53000000    21.65000000
   C     78.18000000    54.23000000    21.55000000
   C     79.32000000    53.32000000    22.01000000
   O     79.18000000    52.64000000    23.02000000
   C     78.18000000    55.53000000    22.34000000
   C     77.12000000    56.47000000    21.77000000
   C     79.48000000    56.30000000    22.13000000
   C     76.71000000    57.50000000    22.83000000
   H     76.66000000    53.28000000    22.59000000
   H     78.32000000    54.57000000    20.52000000
   H     78.12000000    55.34000000    23.41000000
   H     76.25000000    55.90000000    21.44000000
   H     77.46000000    56.96000000    20.86000000
   H     79.72000000    56.70000000    21.14000000
   H     79.52000000    57.17000000    22.79000000
   H     80.35000000    55.69000000    22.41000000
   H     77.55000000    58.18000000    22.96000000
   H     75.83000000    58.07000000    22.54000000
   H     76.55000000    56.99000000    23.78000000
   N     80.48000000    53.47000000    21.37000000
   C     81.66000000    52.72000000    21.76000000
   C     82.90000000    53.61000000    21.77000000
   O     82.79000000    54.81000000    21.54000000
   C     81.76000000    51.55000000    20.79000000
   O     81.83000000    52.12000000    19.50000000
   H     80.56000000    53.98000000    20.50000000
   H     81.39000000    52.35000000    22.75000000
   H     80.86000000    50.95000000    20.91000000
   H     82.58000000    50.88000000    21.01000000
   H     81.69000000    51.43000000    18.85000000
   N     84.07000000    53.01000000    21.96000000
   C     85.24000000    53.80000000    22.29000000
   C     85.70000000    54.66000000    21.12000000
   O     85.94000000    55.86000000    21.20000000
   C     86.26000000    52.89000000    22.97000000
   H     84.12000000    52.00000000    21.99000000
   H     85.02000000    54.55000000    23.06000000
   H     86.52000000    52.04000000    22.33000000
   H     87.19000000    53.43000000    23.13000000
   H     85.93000000    52.45000000    23.91000000
   N     85.84000000    54.02000000    19.96000000
   C     86.06000000    54.75000000    18.72000000
   C     85.05000000    55.78000000    18.24000000
   O     85.38000000    56.82000000    17.67000000
   C     86.15000000    53.70000000    17.62000000
   H     85.69000000    53.03000000    19.84000000
   H     87.04000000    55.22000000    18.72000000
   H     85.40000000    52.92000000    17.70000000
   H     86.01000000    54.14000000    16.63000000
   H     87.13000000    53.22000000    17.71000000
   N     83.76000000    55.46000000    18.39000000
   C     82.77000000    56.51000000    18.22000000
   C     82.84000000    57.73000000    19.13000000
   O     82.59000000    58.83000000    18.64000000
   C     81.34000000    55.97000000    18.33000000
   C     81.22000000    54.89000000    17.26000000
   C     79.82000000    54.30000000    17.37000000
   O     79.29000000    53.92000000    18.44000000
   O     79.19000000    54.22000000    16.30000000
   H     83.43000000    54.54000000    18.63000000
   H     82.84000000    56.84000000    17.18000000
   H     80.59000000    56.74000000    18.18000000
   H     81.14000000    55.53000000    19.31000000
   H     81.93000000    54.14000000    17.63000000
   H     81.49000000    55.23000000    16.26000000
   N     83.25000000    57.53000000    20.38000000
   C     83.34000000    58.61000000    21.34000000
   H     83.89000000    59.44200000    20.90000000
   H     82.33700000    58.94100000    21.61000000
   H     83.86100000    58.26200000    22.23200000
   H     83.21000000    56.57000000    20.68000000
  Ca     77.33000000    52.55000000    17.11000000
   O     78.20000000    50.50000000    18.54000000
   H     79.14000000    50.38000000    18.39000000
   H     77.89000000    49.64000000    18.81000000

Ca 1.70



