%chk=CaMKII_loop3_82.0.chk
%nprocshared=48
%mem=10GB
%nosave
#b3lyp/svp scf=(tight,noincore) Test 
#IOP(5/87=12) Density=Current Pop=(MK,readradii) iop(6/33=2) iop(6/42=6)

CaMKII_loop3_82.0 

   0   1
   C     81.29000000    65.31000000    36.65000000
   C     80.67000000    65.11000000    38.03000000
   O     80.96000000    64.16000000    38.75000000
   H     82.30600000    64.91600000    36.64800000
   H     80.69500000    64.78300000    35.90400000
   H     81.31300000    66.37300000    36.41200000
   N     79.82000000    66.08000000    38.40000000
   C     79.29000000    66.17000000    39.74000000
   C     78.10000000    65.22000000    39.87000000
   O     76.97000000    65.66000000    39.66000000
   C     78.89000000    67.62000000    39.96000000
   C     78.52000000    67.96000000    41.40000000
   O     78.59000000    67.07000000    42.27000000
   O     78.05000000    69.10000000    41.59000000
   H     79.50000000    66.76000000    37.73000000
   H     79.98000000    65.87000000    40.53000000
   H     78.05000000    67.84000000    39.29000000
   H     79.66000000    68.33000000    39.65000000
   N     78.44000000    63.96000000    40.15000000
   C     77.53000000    62.84000000    40.28000000
   C     76.27000000    63.23000000    41.03000000
   O     75.18000000    62.89000000    40.57000000
   C     78.28000000    61.64000000    40.85000000
   C     77.54000000    60.31000000    40.70000000
   C     78.43000000    59.17000000    41.19000000
   C     78.57000000    59.15000000    42.71000000
   N     79.40000000    58.01000000    43.15000000
   H     79.43000000    63.75000000    40.25000000
   H     77.26000000    62.55000000    39.26000000
   H     78.39000000    61.82000000    41.92000000
   H     79.24000000    61.57000000    40.35000000
   H     77.23000000    60.24000000    39.66000000
   H     76.68000000    60.21000000    41.37000000
   H     79.37000000    59.29000000    40.64000000
   H     78.00000000    58.21000000    40.91000000
   H     77.65000000    59.29000000    43.28000000
   H     79.04000000    60.11000000    42.94000000
   H     80.31000000    58.01000000    42.70000000
   H     79.48000000    57.97000000    44.15000000
   H     78.91000000    57.23000000    42.73000000
   N     76.27000000    64.04000000    42.09000000
   C     75.11000000    64.43000000    42.88000000
   C     74.67000000    65.88000000    42.74000000
   O     73.78000000    66.38000000    43.42000000
   C     75.33000000    64.03000000    44.34000000
   C     76.61000000    64.51000000    45.00000000
   O     77.26000000    65.43000000    44.45000000
   O     76.86000000    64.14000000    46.17000000
   H     77.17000000    64.32000000    42.45000000
   H     74.22000000    63.89000000    42.56000000
   H     75.40000000    62.94000000    44.37000000
   H     74.53000000    64.37000000    44.99000000
   N     75.28000000    66.59000000    41.79000000
   C     74.84000000    67.94000000    41.51000000
   C     74.97000000    68.91000000    42.68000000
   O     74.20000000    69.85000000    42.79000000
   H     75.96000000    66.12000000    41.20000000
   H     73.79000000    67.87000000    41.20000000
   H     75.53000000    68.15000000    40.69000000
   N     75.90000000    68.74000000    43.63000000
   C     75.99000000    69.52000000    44.85000000
   C     76.68000000    70.86000000    44.64000000
   O     76.44000000    71.76000000    45.43000000
   C     76.55000000    68.75000000    46.04000000
   C     78.06000000    68.64000000    46.18000000
   N     78.45000000    68.98000000    47.41000000
   O     78.84000000    68.32000000    45.29000000
   H     76.63000000    68.07000000    43.46000000
   H     74.97000000    69.75000000    45.16000000
   H     76.13000000    67.75000000    46.12000000
   H     76.14000000    69.21000000    46.94000000
   H     77.87000000    69.22000000    48.21000000
   H     79.43000000    69.20000000    47.45000000
   N     77.55000000    71.05000000    43.64000000
   C     78.45000000    72.12000000    43.26000000
   C     79.96000000    71.98000000    43.37000000
   O     80.73000000    72.92000000    43.17000000
   H     77.65000000    70.27000000    43.00000000
   H     78.30000000    72.95000000    43.95000000
   H     78.24000000    72.51000000    42.27000000
   N     80.35000000    70.81000000    43.87000000
   C     81.74000000    70.42000000    43.73000000
   C     82.03000000    68.99000000    43.28000000
   O     81.21000000    68.11000000    43.50000000
   C     82.54000000    70.84000000    44.96000000
   C     81.84000000    70.62000000    46.28000000
   C     80.96000000    71.61000000    46.71000000
   C     82.23000000    69.58000000    47.14000000
   C     80.48000000    71.51000000    48.02000000
   C     81.68000000    69.45000000    48.42000000
   C     80.74000000    70.41000000    48.86000000
   O     80.08000000    70.29000000    50.05000000
   H     79.72000000    70.09000000    44.20000000
   H     82.20000000    71.00000000    42.93000000
   H     82.70000000    71.91000000    44.86000000
   H     83.51000000    70.35000000    44.93000000
   H     80.72000000    72.49000000    46.11000000
   H     83.08000000    69.01000000    46.80000000
   H     79.88000000    72.33000000    48.38000000
   H     82.04000000    68.62000000    49.01000000
   H     80.50000000    69.61000000    50.58000000
   N     83.23000000    68.71000000    42.76000000
   C     83.56000000    67.38000000    42.28000000
   C     84.49000000    66.70000000    43.26000000
   O     85.34000000    67.41000000    43.80000000
   C     84.27000000    67.41000000    40.93000000
   C     83.38000000    68.04000000    39.86000000
   C     84.51000000    66.00000000    40.40000000
   C     84.24000000    68.73000000    38.81000000
   H     83.81000000    69.49000000    42.49000000
   H     82.71000000    66.71000000    42.15000000
   H     85.20000000    67.96000000    41.01000000
   H     82.73000000    68.80000000    40.30000000
   H     82.67000000    67.33000000    39.42000000
   H     84.86000000    66.02000000    39.37000000
   H     85.29000000    65.51000000    40.99000000
   H     83.65000000    65.34000000    40.50000000
   H     83.78000000    69.45000000    38.14000000
   H     84.86000000    69.42000000    39.38000000
   H     84.81000000    68.00000000    38.23000000
   N     84.42000000    65.40000000    43.55000000
   C     85.39000000    64.63000000    44.30000000
   C     86.32000000    63.80000000    43.43000000
   O     86.05000000    63.54000000    42.26000000
   C     84.72000000    63.79000000    45.38000000
   O     83.94000000    62.83000000    44.70000000
   H     83.80000000    64.82000000    43.00000000
   H     86.01000000    65.28000000    44.92000000
   H     84.02000000    64.46000000    45.89000000
   H     85.57000000    63.33000000    45.88000000
   H     83.14000000    62.66000000    45.20000000
   N     87.43000000    63.39000000    44.05000000
   C     88.31000000    62.36000000    43.53000000
   C     87.58000000    61.09000000    43.11000000
   O     87.84000000    60.50000000    42.07000000
   C     89.43000000    62.08000000    44.52000000
   H     87.64000000    63.75000000    44.97000000
   H     88.77000000    62.77000000    42.63000000
   H     90.04000000    61.28000000    44.10000000
   H     90.08000000    62.94000000    44.63000000
   H     89.02000000    61.81000000    45.50000000
   N     86.66000000    60.52000000    43.89000000
   C     85.92000000    59.31000000    43.59000000
   C     84.99000000    59.56000000    42.41000000
   O     84.88000000    58.71000000    41.53000000
   C     85.10000000    58.93000000    44.81000000
   H     86.56000000    61.00000000    44.77000000
   H     86.64000000    58.53000000    43.35000000
   H     84.17000000    59.49000000    44.91000000
   H     84.79000000    57.89000000    44.71000000
   H     85.61000000    58.97000000    45.77000000
   N     84.40000000    60.76000000    42.34000000
   C     83.58000000    61.24000000    41.25000000
   C     84.37000000    61.44000000    39.97000000
   O     83.78000000    61.20000000    38.92000000
   C     82.85000000    62.50000000    41.72000000
   C     81.58000000    62.33000000    42.54000000
   C     80.89000000    63.62000000    42.96000000
   O     81.39000000    64.75000000    42.81000000
   O     79.77000000    63.61000000    43.52000000
   H     84.60000000    61.36000000    43.13000000
   H     82.76000000    60.55000000    41.04000000
   H     82.53000000    63.07000000    40.85000000
   H     83.59000000    63.10000000    42.25000000
   H     81.78000000    61.90000000    43.52000000
   H     80.81000000    61.74000000    42.03000000
   N     85.66000000    61.77000000    40.02000000
   C     86.51000000    61.95000000    38.86000000
   H     87.48400000    61.49800000    39.05000000
   H     86.05100000    61.47200000    37.99500000
   H     86.63700000    63.01500000    38.66300000
   H     86.03000000    61.90000000    40.96000000
  Ca     79.81000000    66.10000000    44.25000000
   O     81.95000000    66.26000000    45.83000000
   H     82.23000000    65.77000000    46.61000000
   H     82.57000000    66.99000000    45.77000000

Ca 1.70



