%Nproc=28
%chk=holo1.0.chk
%mem=80GB
%NoSave
#MP2(semidirect)/Gen scf=(tight,noincore) Test
#IOP(5/87=12) Density=Current Pop=(MK,readradii) iop(6/33=2) iop(6/42=6)

holo_loop_3_model_1.0 

   0   1
   C     29.65400000    25.00300000    43.34500000
   C     31.17400000    25.13600000    43.37400000
   C     31.60400000    25.75500000    44.69700000
   O     31.05600000    25.65300000    45.79200000
   O     32.73000000    26.50800000    44.54200000
   H     29.35200000    24.81200000    42.31500000
   H     29.21200000    25.92600000    43.71900000
   H     29.30600000    24.17100000    43.95800000
   H     31.54000000    25.80400000    42.59500000
   H     31.60700000    24.13800000    43.30600000
   H     32.88100000    26.58700000    43.59800000
   C     28.32000000    28.53800000    47.72300000
   C     28.06200000    27.70400000    48.97400000
   C     28.72800000    26.34300000    48.83100000
   O     28.23200000    25.45900000    48.10000000
   O     29.75900000    26.07000000    49.48400000
   H     28.00100000    28.04700000    46.80300000
   H     29.38500000    28.73100000    47.59100000
   H     27.77600000    29.45900000    47.93200000
   H     27.00700000    27.43200000    49.01500000
   H     28.41300000    28.13200000    49.91300000
   C     24.78600000    20.93100000    44.83000000
   C     26.22300000    21.42500000    44.96900000
   C     26.48900000    22.20000000    46.25700000
   C     27.96200000    22.55500000    46.40700000
   O     28.28500000    23.59600000    45.79600000
   O     28.73300000    21.76200000    46.99000000
   H     24.49800000    20.44900000    45.76400000
   H     24.73100000    20.22800000    43.99900000
   H     24.09800000    21.75500000    44.64400000
   H     26.45500000    22.01100000    44.08000000
   H     26.88200000    20.56100000    44.88400000
   H     26.23200000    21.66300000    47.17000000
   H     25.97500000    23.16000000    46.21600000
  Ca     30.28500000    23.86400000    47.80200000
   O     30.54600000    22.80100000    50.53100000
   H     30.27700000    21.92300000    50.80100000
   H     30.02600000    23.39000000    51.07800000

C O H 0
aug-cc-pVTZ 
****
@/home/pzhang5/ca_ccpvtz_basisset.gbs/N

Ca 1.70




