%chk=holoCaM_loop3_101.0.chk
%nprocshared=48
%mem=10GB
%nosave
#b3lyp/svp scf=(tight,noincore) Test 
#IOP(5/87=12) Density=Current Pop=(MK,readradii) iop(6/33=2) iop(6/42=6)

holoCaM_loop3_101.0 

   0   1
   C     91.85000000    60.14000000   104.30200000
   C     93.12000000    60.57000000   103.59200000
   O     93.92000000    59.68000000   103.28200000
   H     91.03600000    60.07200000   103.58000000
   H     92.00500000    59.16600000   104.76700000
   H     91.59500000    60.87300000   105.06800000
   N     93.38000000    61.86000000   103.34200000
   C     94.64000000    62.23000000   102.74200000
   C     95.83000000    61.96000000   103.64200000
   O     95.83000000    62.18000000   104.85200000
   C     94.50000000    63.67000000   102.27200000
   C     95.65000000    64.04000000   101.33200000
   O     95.78000000    65.19000000   100.88200000
   O     96.47000000    63.14000000   101.06200000
   H     92.74000000    62.58000000   103.64200000
   H     94.83000000    61.67000000   101.82200000
   H     94.62000000    64.35000000   103.11200000
   H     93.60000000    63.83000000   101.67200000
   N     96.94000000    61.51000000   103.05200000
   C     98.07000000    60.98000000   103.78200000
   C     99.03000000    62.14000000   104.01200000
   O     99.50000000    62.15000000   105.14200000
   C     98.60000000    59.73000000   103.08200000
   C     97.85000000    58.45000000   103.42200000
   C     98.50000000    57.21000000   102.82200000
   C     99.85000000    56.91000000   103.47200000
   N    100.36000000    55.61000000   103.00200000
   H     96.83000000    61.34000000   102.06200000
   H     97.66000000    60.70000000   104.76200000
   H     99.65000000    59.46000000   103.13200000
   H     98.55000000    59.85000000   101.99200000
   H     96.82000000    58.50000000   103.06200000
   H     97.81000000    58.36000000   104.50200000
   H     98.53000000    57.28000000   101.73200000
   H     97.77000000    56.42000000   102.97200000
   H     99.64000000    56.87000000   104.54200000
   H    100.62000000    57.66000000   103.30200000
   H    101.31000000    55.56000000   103.34200000
   H     99.80000000    54.86000000   103.40200000
   H    100.42000000    55.46000000   102.01200000
   N     99.35000000    63.06000000   103.09200000
   C    100.01000000    64.30000000   103.44200000
   C     99.13000000    65.48000000   103.82200000
   O     99.71000000    66.56000000   103.89200000
   C    100.88000000    64.79000000   102.29200000
   C    100.02000000    65.00000000   101.05200000
   O    100.62000000    65.33000000   100.01200000
   O     98.78000000    64.92000000   100.97200000
   H     98.79000000    63.17000000   102.26200000
   H    100.64000000    64.12000000   104.32200000
   H    101.66000000    64.04000000   102.17200000
   H    101.42000000    65.69000000   102.61200000
   N     97.82000000    65.38000000   104.07200000
   C     96.98000000    66.52000000   104.39200000
   C     96.71000000    67.53000000   103.28200000
   O     96.21000000    68.61000000   103.60200000
   H     97.35000000    64.49000000   104.08200000
   H     97.55000000    67.01000000   105.17200000
   H     95.99000000    66.17000000   104.68200000
   N     97.14000000    67.36000000   102.03200000
   C     97.06000000    68.42000000   101.05200000
   C     95.77000000    68.52000000   100.26200000
   O     95.54000000    69.47000000    99.52200000
   C     98.29000000    68.25000000   100.16200000
   C     97.92000000    67.52000000    98.87200000
   N     98.39000000    68.11000000    97.77200000
   O     97.18000000    66.55000000    98.81200000
   H     97.61000000    66.51000000   101.76200000
   H     97.23000000    69.37000000   101.56200000
   H     99.07000000    67.65000000   100.63200000
   H     98.67000000    69.22000000    99.85200000
   H     98.89000000    68.99000000    97.79200000
   H     98.08000000    67.77000000    96.87200000
   N     94.80000000    67.67000000   100.63200000
   C     93.38000000    67.76000000   100.36200000
   C     93.08000000    67.39000000    98.92200000
   O     92.24000000    68.03000000    98.29200000
   H     95.05000000    66.75000000   100.97200000
   H     93.00000000    68.78000000   100.34200000
   H     92.81000000    67.10000000   101.02200000
   N     93.86000000    66.45000000    98.37200000
   C     93.82000000    65.77000000    97.09200000
   C     94.25000000    64.32000000    97.23200000
   O     95.06000000    64.08000000    98.13200000
   C     94.66000000    66.46000000    96.02200000
   C     94.37000000    67.90000000    95.67200000
   C     94.74000000    69.02000000    96.43200000
   C     93.84000000    68.08000000    94.39200000
   C     94.64000000    70.28000000    95.83200000
   C     93.52000000    69.35000000    93.87200000
   C     93.99000000    70.46000000    94.60200000
   O     93.60000000    71.71000000    94.21200000
   H     94.61000000    66.13000000    98.96200000
   H     92.83000000    65.76000000    96.63200000
   H     94.63000000    65.85000000    95.12200000
   H     95.71000000    66.44000000    96.31200000
   H     95.19000000    68.85000000    97.40200000
   H     93.69000000    67.20000000    93.78200000
   H     94.95000000    71.16000000    96.38200000
   H     93.07000000    69.37000000    92.89200000
   H     92.98000000    71.75000000    93.48200000
   N     93.63000000    63.36000000    96.54200000
   C     93.99000000    61.96000000    96.51200000
   C     94.46000000    61.53000000    95.13200000
   O     93.81000000    61.81000000    94.13200000
   C     92.77000000    61.14000000    96.95200000
   C     91.96000000    61.70000000    98.11200000
   C     93.17000000    59.69000000    97.23200000
   C     92.53000000    61.91000000    99.51200000
   H     92.83000000    63.66000000    95.99200000
   H     94.80000000    61.77000000    97.21200000
   H     92.04000000    61.14000000    96.14200000
   H     91.06000000    61.08000000    98.12200000
   H     91.62000000    62.66000000    97.71200000
   H     92.26000000    59.27000000    97.65200000
   H     93.51000000    59.34000000    96.25200000
   H     94.02000000    59.64000000    97.90200000
   H     93.29000000    62.69000000    99.59200000
   H     91.73000000    62.24000000   100.18200000
   H     93.00000000    60.99000000    99.83200000
   N     95.64000000    60.89000000    95.13200000
   C     96.19000000    60.26000000    93.95200000
   C     95.81000000    58.78000000    93.89200000
   O     95.24000000    58.27000000    94.85200000
   C     97.70000000    60.49000000    93.94200000
   O     98.34000000    59.69000000    94.91200000
   H     96.05000000    60.78000000    96.04200000
   H     95.85000000    60.69000000    93.01200000
   H     97.93000000    61.53000000    94.17200000
   H     98.05000000    60.17000000    92.96200000
   H     98.95000000    60.28000000    95.37200000
   N     96.08000000    58.13000000    92.76200000
   C     95.81000000    56.71000000    92.68200000
   C     96.58000000    55.95000000    93.75200000
   O     96.05000000    55.00000000    94.32200000
   C     96.05000000    56.28000000    91.24200000
   H     96.45000000    58.64000000    91.97200000
   H     94.76000000    56.53000000    92.93200000
   H     95.86000000    55.21000000    91.20200000
   H     95.23000000    56.70000000    90.65200000
   H     96.99000000    56.66000000    90.83200000
   N     97.83000000    56.39000000    93.95200000
   C     98.68000000    55.87000000    95.00200000
   C     98.14000000    55.96000000    96.42200000
   O     98.28000000    54.98000000    97.16200000
   C    100.07000000    56.47000000    94.79200000
   H     98.26000000    57.06000000    93.33200000
   H     98.86000000    54.82000000    94.76200000
   H    100.41000000    56.18000000    93.79200000
   H    100.09000000    57.54000000    94.98200000
   H    100.70000000    56.00000000    95.54200000
   N     97.48000000    57.06000000    96.78200000
   C     96.85000000    57.21000000    98.07200000
   C     95.58000000    56.38000000    98.25200000
   O     95.27000000    55.82000000    99.30200000
   C     96.59000000    58.71000000    98.20200000
   C     97.89000000    59.35000000    98.68200000
   C     97.74000000    60.85000000    98.87200000
   O     98.55000000    61.48000000    99.59200000
   O     97.02000000    61.45000000    98.04200000
   H     97.42000000    57.81000000    96.10200000
   H     97.59000000    56.85000000    98.79200000
   H     95.89000000    58.80000000    99.03200000
   H     96.21000000    59.09000000    97.25200000
   H     98.71000000    59.18000000    97.98200000
   H     98.13000000    58.98000000    99.68200000
   N     94.91000000    56.16000000    97.12200000
   C     93.55000000    55.66000000    97.13200000
   H     92.90200000    56.36200000    96.60700000
   H     93.51500000    54.69100000    96.63400000
   H     93.20900000    55.55200000    98.16200000
   H     95.27000000    56.65000000    96.31200000
  Ca     97.54000000    63.86000000    98.90000000
   O    100.08200000    63.93000000    97.88000000
   H    100.36200000    64.53000000    98.58000000
   H    100.88200000    63.67000000    97.44000000

Ca 1.70



