%chk=holoCaM_loop3_91.0.chk
%nprocshared=48
%mem=10GB
%nosave
#b3lyp/svp scf=(tight,noincore) Test 
#IOP(5/87=12) Density=Current Pop=(MK,readradii) iop(6/33=2) iop(6/42=6)

holoCaM_loop3_91.0 

   0   1
   C     47.77000000    43.67000000    28.90000000
   C     47.31000000    42.84000000    30.09000000
   O     46.49000000    43.25000000    30.90000000
   H     48.79100000    43.39200000    28.63700000
   H     47.11300000    43.48400000    28.05100000
   H     47.73800000    44.72800000    29.16000000
   N     47.92000000    41.66000000    30.26000000
   C     47.73000000    40.84000000    31.44000000
   C     48.74000000    41.25000000    32.50000000
   O     49.86000000    41.59000000    32.16000000
   C     47.82000000    39.37000000    31.03000000
   C     47.55000000    38.52000000    32.26000000
   O     46.65000000    38.80000000    33.09000000
   O     48.34000000    37.59000000    32.54000000
   H     48.79000000    41.44000000    29.80000000
   H     46.77000000    41.05000000    31.91000000
   H     48.77000000    39.15000000    30.54000000
   H     46.99000000    39.14000000    30.36000000
   N     48.38000000    41.22000000    33.79000000
   C     49.06000000    42.00000000    34.81000000
   C     50.27000000    41.31000000    35.43000000
   O     51.27000000    42.00000000    35.60000000
   C     48.07000000    42.43000000    35.89000000
   C     48.45000000    43.60000000    36.78000000
   C     47.25000000    44.27000000    37.46000000
   C     47.65000000    45.51000000    38.25000000
   N     46.56000000    46.10000000    39.05000000
   H     47.50000000    40.78000000    34.01000000
   H     49.45000000    42.91000000    34.36000000
   H     47.87000000    41.65000000    36.63000000
   H     47.15000000    42.66000000    35.36000000
   H     48.97000000    44.40000000    36.25000000
   H     49.10000000    43.20000000    37.56000000
   H     46.74000000    43.48000000    38.02000000
   H     46.64000000    44.65000000    36.64000000
   H     48.02000000    46.28000000    37.57000000
   H     48.50000000    45.26000000    38.89000000
   H     45.99000000    45.35000000    39.40000000
   H     46.96000000    46.59000000    39.84000000
   H     45.91000000    46.67000000    38.53000000
   N     50.22000000    39.98000000    35.54000000
   C     51.39000000    39.22000000    35.93000000
   C     51.95000000    38.45000000    34.73000000
   O     53.07000000    37.94000000    34.71000000
   C     51.14000000    38.34000000    37.15000000
   C     49.97000000    37.38000000    36.96000000
   O     49.57000000    36.74000000    37.96000000
   O     49.45000000    37.28000000    35.83000000
   H     49.33000000    39.52000000    35.47000000
   H     52.20000000    39.93000000    36.11000000
   H     50.80000000    39.01000000    37.94000000
   H     52.09000000    37.94000000    37.50000000
   N     51.18000000    38.46000000    33.64000000
   C     51.53000000    37.77000000    32.42000000
   C     51.69000000    36.28000000    32.69000000
   O     52.79000000    35.85000000    32.33000000
   H     50.21000000    38.69000000    33.79000000
   H     52.49000000    38.13000000    32.06000000
   H     50.84000000    37.89000000    31.58000000
   N     50.73000000    35.61000000    33.33000000
   C     50.80000000    34.22000000    33.71000000
   C     50.21000000    33.25000000    32.69000000
   O     49.85000000    32.15000000    33.09000000
   C     50.55000000    34.03000000    35.20000000
   C     49.07000000    34.04000000    35.54000000
   N     48.71000000    33.28000000    36.58000000
   O     48.24000000    34.64000000    34.85000000
   H     49.86000000    36.08000000    33.54000000
   H     51.87000000    34.03000000    33.65000000
   H     51.00000000    34.78000000    35.84000000
   H     50.98000000    33.07000000    35.48000000
   H     49.45000000    33.11000000    37.24000000
   H     47.75000000    33.25000000    36.90000000
   N     49.97000000    33.76000000    31.48000000
   C     49.27000000    33.05000000    30.43000000
   C     47.81000000    32.66000000    30.63000000
   O     47.21000000    31.86000000    29.91000000
   H     50.25000000    34.70000000    31.21000000
   H     49.79000000    32.11000000    30.25000000
   H     49.26000000    33.65000000    29.52000000
   N     47.14000000    33.43000000    31.50000000
   C     45.71000000    33.54000000    31.69000000
   C     45.28000000    34.94000000    32.07000000
   O     46.11000000    35.61000000    32.67000000
   C     45.15000000    32.54000000    32.70000000
   C     45.73000000    31.16000000    32.52000000
   C     46.94000000    30.79000000    33.12000000
   C     45.02000000    30.12000000    31.91000000
   C     47.49000000    29.50000000    33.00000000
   C     45.58000000    28.87000000    31.64000000
   C     46.82000000    28.54000000    32.22000000
   O     47.46000000    27.36000000    31.96000000
   H     47.66000000    34.12000000    32.02000000
   H     45.11000000    33.35000000    30.80000000
   H     44.06000000    32.56000000    32.71000000
   H     45.38000000    32.92000000    33.69000000
   H     47.43000000    31.48000000    33.80000000
   H     44.01000000    30.34000000    31.59000000
   H     48.45000000    29.31000000    33.45000000
   H     45.13000000    28.08000000    31.06000000
   H     46.82000000    26.76000000    31.56000000
   N     44.01000000    35.35000000    31.95000000
   C     43.59000000    36.67000000    32.36000000
   C     42.38000000    36.55000000    33.28000000
   O     41.49000000    35.81000000    32.88000000
   C     43.29000000    37.60000000    31.18000000
   C     44.33000000    37.49000000    30.07000000
   C     43.25000000    39.03000000    31.69000000
   C     44.25000000    38.36000000    28.83000000
   H     43.35000000    34.70000000    31.55000000
   H     44.39000000    37.16000000    32.91000000
   H     42.29000000    37.40000000    30.78000000
   H     44.22000000    36.44000000    29.81000000
   H     45.33000000    37.59000000    30.49000000
   H     42.88000000    39.72000000    30.93000000
   H     42.62000000    39.17000000    32.57000000
   H     44.25000000    39.30000000    32.03000000
   H     43.26000000    38.18000000    28.40000000
   H     44.20000000    39.43000000    29.05000000
   H     45.10000000    38.28000000    28.16000000
   N     42.27000000    37.31000000    34.37000000
   C     41.23000000    37.24000000    35.37000000
   C     40.33000000    38.46000000    35.27000000
   O     40.73000000    39.45000000    34.65000000
   C     41.93000000    37.23000000    36.72000000
   O     42.66000000    38.40000000    36.99000000
   H     43.00000000    37.98000000    34.57000000
   H     40.66000000    36.32000000    35.22000000
   H     42.62000000    36.39000000    36.82000000
   H     41.17000000    37.21000000    37.50000000
   H     43.39000000    38.30000000    36.37000000
   N     39.19000000    38.44000000    35.97000000
   C     38.32000000    39.60000000    35.99000000
   C     39.02000000    40.92000000    36.24000000
   O     38.79000000    41.89000000    35.52000000
   C     37.25000000    39.41000000    37.06000000
   H     39.00000000    37.67000000    36.58000000
   H     37.84000000    39.72000000    35.02000000
   H     37.74000000    39.16000000    38.00000000
   H     36.68000000    40.33000000    37.16000000
   H     36.65000000    38.60000000    36.65000000
   N     39.87000000    40.96000000    37.27000000
   C     40.45000000    42.20000000    37.73000000
   C     41.45000000    42.75000000    36.72000000
   O     41.67000000    43.96000000    36.69000000
   C     41.14000000    41.95000000    39.07000000
   H     40.03000000    40.15000000    37.86000000
   H     39.63000000    42.91000000    37.74000000
   H     40.34000000    41.65000000    39.74000000
   H     41.96000000    41.25000000    38.89000000
   H     41.75000000    42.82000000    39.34000000
   N     42.06000000    41.84000000    35.96000000
   C     43.01000000    42.06000000    34.89000000
   C     42.43000000    42.50000000    33.55000000
   O     43.04000000    43.38000000    32.95000000
   C     43.86000000    40.80000000    34.80000000
   C     44.66000000    40.51000000    36.07000000
   C     45.41000000    39.20000000    35.90000000
   O     46.63000000    39.06000000    36.13000000
   O     44.76000000    38.18000000    35.57000000
   H     41.77000000    40.88000000    36.12000000
   H     43.64000000    42.83000000    35.33000000
   H     44.58000000    40.85000000    33.98000000
   H     43.23000000    39.93000000    34.63000000
   H     44.05000000    40.39000000    36.97000000
   H     45.31000000    41.38000000    36.17000000
   N     41.23000000    42.01000000    33.22000000
   C     40.46000000    42.48000000    32.08000000
   H     39.56200000    42.98700000    32.43300000
   H     41.06300000    43.17400000    31.49500000
   H     40.17600000    41.63100000    31.45800000
   H     40.77000000    41.31000000    33.78000000
  Ca     47.00000000    36.93000000    34.82000000
   O     47.13000000    36.06000000    37.29000000
   H     46.77000000    35.32000000    37.78000000
   H     48.00000000    36.19000000    37.67000000

Ca 1.70



