%chk=holoCaM_loop3_65.0.chk
%nprocshared=48
%mem=10GB
%nosave
#b3lyp/svp scf=(tight,noincore) Test 
#IOP(5/87=12) Density=Current Pop=(MK,readradii) iop(6/33=2) iop(6/42=6)

holoCaM_loop3_65.0 

   0   1
   C     69.83000000    52.42000000    91.54000000
   C     69.81000000    52.84000000    93.01000000
   O     70.25000000    52.06000000    93.85000000
   H     70.56600000    53.01700000    91.00200000
   H     70.09500000    51.36500000    91.46600000
   H     68.84400000    52.57900000    91.10300000
   N     69.17000000    53.95000000    93.38000000
   C     69.02000000    54.40000000    94.75000000
   C     67.85000000    53.80000000    95.52000000
   O     66.70000000    54.08000000    95.21000000
   C     69.06000000    55.93000000    94.65000000
   C     69.01000000    56.67000000    95.98000000
   O     68.85000000    57.91000000    96.02000000
   O     69.13000000    56.01000000    97.03000000
   H     68.98000000    54.59000000    92.62000000
   H     69.90000000    54.03000000    95.27000000
   H     68.31000000    56.24000000    93.92000000
   H     70.04000000    56.20000000    94.26000000
   N     68.04000000    52.98000000    96.56000000
   C     67.11000000    52.09000000    97.23000000
   C     66.51000000    52.67000000    98.50000000
   O     65.50000000    52.19000000    99.01000000
   C     67.61000000    50.67000000    97.42000000
   C     68.20000000    49.98000000    96.19000000
   C     67.32000000    50.03000000    94.94000000
   C     67.78000000    49.01000000    93.91000000
   N     66.79000000    48.83000000    92.84000000
   H     69.00000000    52.91000000    96.88000000
   H     66.22000000    52.05000000    96.60000000
   H     66.76000000    50.02000000    97.64000000
   H     68.32000000    50.67000000    98.25000000
   H     68.25000000    48.90000000    96.38000000
   H     69.20000000    50.33000000    95.95000000
   H     67.50000000    51.00000000    94.47000000
   H     66.30000000    49.82000000    95.24000000
   H     67.95000000    48.04000000    94.38000000
   H     68.74000000    49.33000000    93.50000000
   H     65.83000000    48.73000000    93.15000000
   H     66.71000000    49.61000000    92.21000000
   H     67.05000000    47.95000000    92.41000000
   N     67.07000000    53.72000000    99.10000000
   C     66.33000000    54.53000000   100.04000000
   C     65.87000000    55.87000000    99.48000000
   O     65.05000000    56.58000000   100.08000000
   C     67.18000000    54.77000000   101.29000000
   C     68.61000000    55.25000000   101.19000000
   O     69.20000000    55.36000000   102.29000000
   O     69.16000000    55.40000000   100.07000000
   H     67.99000000    54.06000000    98.81000000
   H     65.43000000    53.99000000   100.29000000
   H     67.08000000    53.86000000   101.88000000
   H     66.69000000    55.47000000   101.97000000
   N     66.31000000    56.22000000    98.27000000
   C     65.96000000    57.47000000    97.63000000
   C     66.64000000    58.70000000    98.22000000
   O     66.15000000    59.83000000    98.14000000
   H     66.99000000    55.57000000    97.91000000
   H     64.90000000    57.60000000    97.81000000
   H     66.23000000    57.47000000    96.57000000
   N     67.83000000    58.56000000    98.80000000
   C     68.60000000    59.64000000    99.40000000
   C     69.35000000    60.54000000    98.43000000
   O     69.82000000    61.58000000    98.89000000
   C     69.46000000    59.11000000   100.54000000
   C     70.80000000    58.50000000   100.15000000
   N     71.94000000    58.87000000   100.75000000
   O     70.97000000    57.71000000    99.23000000
   H     68.25000000    57.64000000    98.86000000
   H     67.99000000    60.41000000    99.87000000
   H     69.01000000    58.33000000   101.16000000
   H     69.67000000    59.99000000   101.14000000
   H     71.78000000    59.51000000   101.52000000
   H     72.87000000    58.54000000   100.54000000
   N     69.39000000    60.33000000    97.12000000
   C     70.13000000    61.09000000    96.13000000
   C     71.56000000    60.59000000    95.96000000
   O     72.41000000    61.27000000    95.39000000
   H     69.16000000    59.40000000    96.79000000
   H     70.13000000    62.16000000    96.32000000
   H     69.70000000    60.86000000    95.16000000
   N     71.88000000    59.37000000    96.40000000
   C     73.21000000    58.81000000    96.29000000
   C     73.12000000    57.32000000    96.02000000
   O     72.27000000    56.62000000    96.57000000
   C     74.03000000    59.06000000    97.56000000
   C     74.26000000    60.51000000    97.90000000
   C     73.31000000    61.12000000    98.73000000
   C     75.31000000    61.27000000    97.37000000
   C     73.54000000    62.41000000    99.22000000
   C     75.58000000    62.52000000    97.93000000
   C     74.70000000    63.12000000    98.85000000
   O     74.70000000    64.36000000    99.42000000
   H     71.13000000    58.76000000    96.71000000
   H     73.73000000    59.28000000    95.46000000
   H     75.00000000    58.63000000    97.35000000
   H     73.56000000    58.56000000    98.41000000
   H     72.36000000    60.68000000    98.97000000
   H     75.97000000    60.84000000    96.63000000
   H     72.90000000    62.98000000    99.88000000
   H     76.40000000    63.17000000    97.62000000
   H     75.35000000    64.96000000    99.03000000
   N     74.09000000    56.78000000    95.28000000
   C     74.14000000    55.37000000    94.91000000
   C     75.46000000    54.74000000    95.31000000
   O     76.56000000    55.25000000    95.08000000
   C     73.99000000    55.23000000    93.40000000
   C     72.68000000    55.77000000    92.83000000
   C     74.10000000    53.76000000    93.00000000
   C     72.72000000    56.19000000    91.36000000
   H     74.85000000    57.39000000    95.03000000
   H     73.30000000    54.87000000    95.39000000
   H     74.83000000    55.74000000    92.94000000
   H     72.34000000    56.66000000    93.36000000
   H     71.86000000    55.07000000    92.96000000
   H     73.79000000    53.63000000    91.97000000
   H     75.12000000    53.38000000    93.12000000
   H     73.51000000    53.10000000    93.64000000
   H     73.47000000    56.95000000    91.20000000
   H     73.03000000    55.35000000    90.73000000
   H     71.67000000    56.44000000    91.16000000
   N     75.41000000    53.56000000    95.93000000
   C     76.50000000    52.94000000    96.66000000
   C     76.92000000    51.52000000    96.27000000
   O     76.38000000    50.96000000    95.32000000
   C     76.06000000    53.01000000    98.12000000
   O     74.86000000    52.30000000    98.32000000
   H     74.49000000    53.14000000    95.95000000
   H     77.41000000    53.53000000    96.55000000
   H     75.93000000    54.02000000    98.49000000
   H     76.77000000    52.53000000    98.80000000
   H     74.19000000    52.83000000    97.88000000
   N     77.93000000    51.06000000    97.01000000
   C     78.48000000    49.74000000    96.76000000
   C     77.49000000    48.61000000    96.99000000
   O     77.39000000    47.77000000    96.10000000
   C     79.72000000    49.56000000    97.64000000
   H     78.38000000    51.64000000    97.70000000
   H     78.75000000    49.55000000    95.72000000
   H     80.19000000    48.66000000    97.25000000
   H     80.46000000    50.30000000    97.34000000
   H     79.59000000    49.63000000    98.72000000
   N     76.66000000    48.67000000    98.03000000
   C     75.64000000    47.65000000    98.20000000
   C     74.43000000    47.78000000    97.29000000
   O     73.85000000    46.80000000    96.82000000
   C     75.19000000    47.66000000    99.66000000
   H     76.60000000    49.49000000    98.62000000
   H     76.13000000    46.68000000    98.08000000
   H     75.99000000    47.41000000   100.36000000
   H     74.58000000    48.56000000    99.76000000
   H     74.53000000    46.80000000    99.72000000
   N     74.05000000    49.01000000    96.95000000
   C     72.90000000    49.23000000    96.09000000
   C     73.15000000    48.96000000    94.61000000
   O     72.28000000    48.43000000    93.92000000
   C     72.67000000    50.73000000    96.24000000
   C     71.97000000    51.06000000    97.56000000
   C     71.62000000    52.54000000    97.54000000
   O     72.50000000    53.42000000    97.40000000
   O     70.46000000    52.88000000    97.87000000
   H     74.63000000    49.81000000    97.15000000
   H     71.97000000    48.74000000    96.39000000
   H     71.96000000    50.97000000    95.45000000
   H     73.57000000    51.29000000    96.04000000
   H     72.62000000    50.93000000    98.42000000
   H     71.09000000    50.46000000    97.81000000
   N     74.36000000    49.22000000    94.10000000
   C     74.78000000    48.97000000    92.73000000
   H     75.81000000    48.61300000    92.72600000
   H     74.13200000    48.21600000    92.28300000
   H     74.71400000    49.89400000    92.15500000
   H     74.95000000    49.70000000    94.76000000
  Ca     71.23000000    55.35000000    98.56000000
   O     71.88000000    53.54000000   100.55600000
   H     72.38000000    52.72000000   100.60600000
   H     71.92000000    53.90000000   101.44600000

Ca 1.70



