%chk=holoCaM_loop3_62.0.chk
%nprocshared=48
%mem=10GB
%nosave
#b3lyp/svp scf=(tight,noincore) Test 
#IOP(5/87=12) Density=Current Pop=(MK,readradii) iop(6/33=2) iop(6/42=6)

holoCaM_loop3_62.0 

   0   1
   C     41.34000000    45.79000000    31.33000000
   C     42.32000000    45.00000000    32.19000000
   O     42.36000000    45.16000000    33.40000000
   H     40.45700000    46.03700000    31.92000000
   H     41.81600000    46.70900000    30.98600000
   H     41.04500000    45.18900000    30.47000000
   N     43.07000000    44.08000000    31.58000000
   C     44.02000000    43.13000000    32.12000000
   C     45.34000000    43.86000000    32.28000000
   O     46.32000000    43.43000000    31.68000000
   C     44.07000000    41.88000000    31.24000000
   C     44.93000000    40.76000000    31.81000000
   O     44.96000000    40.65000000    33.06000000
   O     45.54000000    39.98000000    31.05000000
   H     42.94000000    44.09000000    30.58000000
   H     43.69000000    42.82000000    33.12000000
   H     44.43000000    42.07000000    30.23000000
   H     43.04000000    41.56000000    31.08000000
   N     45.38000000    44.91000000    33.10000000
   C     46.52000000    45.73000000    33.46000000
   C     47.76000000    44.90000000    33.75000000
   O     48.80000000    45.17000000    33.15000000
   C     46.15000000    46.59000000    34.66000000
   C     44.86000000    47.40000000    34.55000000
   C     44.72000000    48.34000000    35.75000000
   C     44.00000000    47.67000000    36.91000000
   N     42.54000000    47.73000000    36.73000000
   H     44.50000000    45.15000000    33.54000000
   H     46.85000000    46.45000000    32.70000000
   H     46.93000000    47.32000000    34.88000000
   H     45.99000000    45.85000000    35.45000000
   H     44.04000000    46.69000000    34.47000000
   H     44.86000000    48.08000000    33.69000000
   H     44.19000000    49.22000000    35.38000000
   H     45.72000000    48.66000000    36.04000000
   H     44.21000000    48.21000000    37.84000000
   H     44.31000000    46.63000000    37.04000000
   H     42.29000000    48.67000000    36.44000000
   H     42.24000000    47.24000000    35.90000000
   H     41.97000000    47.47000000    37.52000000
   N     47.59000000    43.85000000    34.55000000
   C     48.64000000    42.91000000    34.90000000
   C     48.99000000    41.80000000    33.92000000
   O     50.02000000    41.12000000    34.01000000
   C     48.19000000    42.18000000    36.16000000
   C     46.89000000    41.39000000    36.07000000
   O     45.80000000    41.98000000    35.89000000
   O     46.82000000    40.15000000    35.93000000
   H     46.71000000    43.75000000    35.04000000
   H     49.49000000    43.53000000    35.19000000
   H     48.03000000    42.96000000    36.90000000
   H     48.97000000    41.55000000    36.59000000
   N     48.22000000    41.58000000    32.85000000
   C     48.63000000    40.76000000    31.73000000
   C     48.44000000    39.25000000    31.85000000
   O     48.92000000    38.57000000    30.95000000
   H     47.30000000    42.00000000    32.84000000
   H     49.69000000    40.87000000    31.52000000
   H     48.14000000    41.12000000    30.82000000
   N     47.86000000    38.72000000    32.93000000
   C     47.78000000    37.30000000    33.18000000
   C     46.75000000    36.57000000    32.33000000
   O     46.67000000    35.36000000    32.54000000
   C     47.64000000    37.03000000    34.68000000
   C     46.23000000    37.13000000    35.23000000
   N     45.96000000    36.31000000    36.26000000
   O     45.28000000    37.77000000    34.79000000
   H     47.33000000    39.34000000    33.53000000
   H     48.78000000    37.00000000    32.90000000
   H     48.18000000    37.78000000    35.24000000
   H     48.07000000    36.04000000    34.85000000
   H     46.70000000    35.69000000    36.55000000
   H     44.99000000    36.24000000    36.52000000
   N     46.05000000    37.24000000    31.41000000
   C     45.14000000    36.64000000    30.46000000
   C     43.68000000    36.57000000    30.89000000
   O     42.90000000    36.08000000    30.08000000
   H     46.34000000    38.18000000    31.20000000
   H     45.51000000    35.63000000    30.28000000
   H     45.26000000    37.28000000    29.59000000
   N     43.30000000    37.07000000    32.07000000
   C     41.96000000    37.08000000    32.61000000
   C     41.51000000    38.43000000    33.16000000
   O     42.32000000    39.27000000    33.54000000
   C     42.01000000    36.07000000    33.75000000
   C     42.39000000    34.70000000    33.26000000
   C     43.68000000    34.17000000    33.44000000
   C     41.39000000    33.93000000    32.66000000
   C     44.00000000    33.00000000    32.75000000
   C     41.70000000    32.75000000    31.97000000
   C     43.03000000    32.27000000    32.04000000
   O     43.35000000    31.03000000    31.56000000
   H     44.03000000    37.50000000    32.63000000
   H     41.21000000    36.77000000    31.87000000
   H     41.11000000    36.06000000    34.36000000
   H     42.86000000    36.47000000    34.31000000
   H     44.43000000    34.69000000    34.01000000
   H     40.38000000    34.28000000    32.50000000
   H     45.01000000    32.68000000    32.97000000
   H     40.93000000    32.12000000    31.56000000
   H     42.57000000    30.62000000    31.18000000
   N     40.21000000    38.71000000    33.29000000
   C     39.70000000    40.02000000    33.65000000
   C     38.50000000    39.75000000    34.54000000
   O     37.57000000    39.04000000    34.17000000
   C     39.27000000    40.78000000    32.41000000
   C     40.43000000    41.23000000    31.53000000
   C     38.45000000    42.00000000    32.82000000
   C     39.91000000    41.42000000    30.11000000
   H     39.58000000    38.09000000    32.81000000
   H     40.43000000    40.60000000    34.22000000
   H     38.59000000    40.22000000    31.77000000
   H     41.15000000    40.42000000    31.45000000
   H     40.84000000    42.12000000    32.00000000
   H     39.03000000    42.75000000    33.36000000
   H     38.12000000    42.59000000    31.96000000
   H     37.57000000    41.68000000    33.38000000
   H     39.48000000    40.51000000    29.69000000
   H     39.24000000    42.28000000    30.02000000
   H     40.80000000    41.56000000    29.49000000
   N     38.52000000    40.28000000    35.77000000
   C     37.44000000    40.23000000    36.74000000
   C     36.52000000    41.44000000    36.61000000
   O     36.77000000    42.45000000    35.96000000
   C     37.88000000    40.05000000    38.19000000
   O     38.66000000    41.15000000    38.60000000
   H     39.32000000    40.85000000    35.98000000
   H     36.96000000    39.27000000    36.55000000
   H     38.45000000    39.13000000    38.17000000
   H     36.96000000    40.03000000    38.78000000
   H     39.44000000    41.21000000    38.04000000
   N     35.40000000    41.38000000    37.33000000
   C     34.46000000    42.48000000    37.36000000
   C     35.09000000    43.79000000    37.79000000
   O     34.79000000    44.83000000    37.20000000
   C     33.25000000    42.22000000    38.26000000
   H     35.16000000    40.55000000    37.86000000
   H     33.96000000    42.69000000    36.41000000
   H     32.68000000    41.38000000    37.86000000
   H     33.61000000    42.00000000    39.26000000
   H     32.61000000    43.08000000    38.43000000
   N     36.02000000    43.76000000    38.75000000
   C     36.72000000    44.94000000    39.22000000
   C     37.78000000    45.48000000    38.28000000
   O     38.19000000    46.64000000    38.37000000
   C     37.19000000    44.78000000    40.67000000
   H     36.09000000    42.87000000    39.22000000
   H     35.97000000    45.72000000    39.26000000
   H     37.66000000    43.81000000    40.87000000
   H     38.02000000    45.44000000    40.94000000
   H     36.35000000    44.88000000    41.35000000
   N     38.30000000    44.59000000    37.42000000
   C     39.16000000    44.97000000    36.32000000
   C     38.42000000    45.57000000    35.13000000
   O     38.90000000    46.47000000    34.44000000
   C     39.89000000    43.74000000    35.78000000
   C     40.96000000    43.39000000    36.82000000
   C     41.51000000    42.06000000    36.32000000
   O     41.11000000    40.97000000    36.80000000
   O     42.52000000    42.04000000    35.59000000
   H     37.96000000    43.64000000    37.49000000
   H     39.92000000    45.71000000    36.55000000
   H     40.27000000    43.98000000    34.79000000
   H     39.18000000    42.92000000    35.67000000
   H     40.40000000    43.22000000    37.74000000
   H     41.77000000    44.11000000    36.87000000
   N     37.22000000    45.09000000    34.82000000
   C     36.31000000    45.73000000    33.89000000
   H     35.42600000    46.07600000    34.42700000
   H     36.80600000    46.58000000    33.42200000
   H     36.01200000    45.01600000    33.12300000
   H     36.88000000    44.30000000    35.36000000
  Ca     44.16000000    40.05000000    35.39000000
   O     42.51000000    38.14000000    36.55000000
   H     42.96000000    37.34000000    36.81000000
   H     41.62000000    38.04000000    36.88000000

Ca 1.70



