%Nproc=28
%chk=holo9.0.chk
%mem=80GB
%NoSave
#MP2(semidirect)/Gen scf=(tight,noincore) Test
#IOP(5/87=12) Density=Current Pop=(MK,readradii) iop(6/33=2) iop(6/42=6)

holo_loop_3_model_9.0 

   0   1
   C     38.64400000    23.69000000    30.81000000
   C     37.96400000    24.76600000    29.97600000
   O     36.75800000    24.98800000    29.88500000
   O     38.85500000    25.53000000    29.28200000
   H     39.56700000    24.08700000    31.23200000
   H     37.98000000    23.38100000    31.61700000
   H     38.87400000    22.83100000    30.17900000
   H     39.68500000    25.09300000    29.07700000
   C     33.78300000    22.91200000    26.35400000
   C     33.88000000    23.52900000    27.74200000
   O     33.24400000    24.58600000    27.94200000
   O     34.52700000    22.92900000    28.62800000
   H     33.32800000    23.62800000    25.67000000
   H     34.78100000    22.65500000    25.99900000
   H     33.17000000    22.01200000    26.39800000
   C     33.80900000    27.78800000    27.79500000
   C     33.49900000    27.28500000    29.19700000
   N     32.22200000    27.31600000    29.58500000
   O     34.37000000    26.85200000    29.94900000
   H     34.84800000    27.56600000    27.55100000
   H     33.15400000    27.29300000    27.07800000
   H     33.64800000    28.86500000    27.75100000
  HD     31.50000000    27.64300000    28.96000000
  HD     31.92300000    26.98000000    30.48900000
   C     36.32900000    27.80600000    33.00700000
   C     36.02400000    26.39800000    33.50000000
   O     35.60000000    25.58400000    32.68300000
   H     37.31500000    27.82200000    32.54300000
   H     35.57900000    28.10600000    32.27500000
   H     36.31300000    28.49800000    33.84900000
   N     36.13100000    26.10200000    34.79700000
   H     36.44900000    26.80300000    35.45100000
   H     35.89400000    25.17700000    35.12500000
   C     31.06200000    24.46900000    35.95200000
   O     30.89000000    23.65500000    34.81300000
   H     31.79200000    23.98400000    36.60100000
   H     31.34900000    25.43400000    35.53500000
   H     30.23000000    24.58300000    36.64700000
   H     31.76100000    23.57100000    34.41800000
   C     32.67500000    20.65400000    33.29800000
   C     33.34800000    21.90000000    32.74000000
   O     33.83200000    21.84700000    31.58900000
   O     33.26700000    22.96700000    33.38500000
   H     31.69400000    20.53400000    32.83800000
   H     33.28800000    19.78000000    33.07800000
   H     32.55900000    20.75500000    34.37700000
  Ca     34.19700000    24.35000000    30.92200000
   O     31.44600000    23.98700000    30.22800000
   H     31.39300000    24.51100000    29.42900000
   H     30.87100000    23.24000000    30.06400000

C O H 0
aug-cc-pVTZ 
****
@/home/pzhang5/ca_ccpvtz_basisset.gbs/N

Ca 1.70




