%chk=apoCaM-CA-Ng.loop2.water5.frame1017.chk
%nprocshared=20
%mem=10GB
%nosave
#b3lyp/svp scf=(tight,noincore,xqc) Test 
#IOP(5/87=12) Density=Current Pop=(MK,readradii) iop(6/33=2) iop(6/42=6)

apoCaM-CA-Ng.loop2.water5.frame1017 

   -2  1 
C         53.15637       50.91152       58.71770
C         52.10758       49.83152       58.69713
O         52.42597       48.72511       58.28670
H         54.12262       50.51824       58.33553
H         52.84867       51.75273       58.06266
H         53.32612       51.28152       59.74576
N         50.81764       50.04353       59.08765
C         50.29408       51.31362       59.58118
C         48.80759       51.40910       59.23425
O         48.47845       51.09776       58.09839
C         50.62245       51.47186       61.08860
C         50.00946       50.37382       61.92126
O         50.32719       49.20912       61.73914
O         49.11100       50.67347       62.87737
H         50.15743       49.25913       58.98261
H         50.76717       52.13822       59.00764
H         50.27323       52.46279       61.44694
H         51.71576       51.44627       61.25589
N         47.85800       51.83802       60.12378
C         46.42800       51.87457       59.84081
C         45.82644       50.47942       59.73878
O         44.69265       50.36860       59.29252
C         46.09989       52.77837       58.63889
H         48.13293       52.16338       61.05768
H         45.91353       52.34405       60.70884
H         44.99873       52.87054       58.52225
H         46.50752       53.79654       58.81736
H         46.50582       52.39054       57.68505
N         46.46636       49.38818       60.26560
C         45.84606       48.06858       60.36150
C         45.62170       47.69638       61.81976
O         46.09809       48.39512       62.70507
C         46.68685       47.00950       59.61816
C         48.09144       46.87332       60.14587
O         49.04299       47.06543       59.40739
O         48.30953       46.50713       61.42181
H         47.39782       49.50090       60.69103
H         44.84075       48.08778       59.88881
H         46.72938       47.28756       58.54234
H         46.18914       46.01963       59.69366
N         44.83640       46.62796       62.14008
C         44.52751       46.25958       63.51186
C         45.67497       45.51077       64.14979
O         46.77573       46.03542       64.19197
H         44.36852       46.10913       61.38175
H         43.62766       45.60842       63.51034
H         44.26453       47.16717       64.09789
N         45.48009       44.25571       64.65589
C         46.55565       43.45019       65.24305
C         46.15626       42.00440       65.60975
O         47.06234       41.27822       65.99622
C         47.12329       44.13808       66.52007
C         48.40262       43.48904       67.00298
N         48.46568       42.88196       68.21084
O         49.39204       43.50497       66.28617
H         44.53369       43.88158       64.56639
H         47.35517       43.38167       64.47124
H         46.34206       44.11170       67.31122
H         47.36891       45.20148       66.34144
H         47.64221       42.84107       68.82787
H         49.34097       42.43498       68.52331
N         44.88228       41.49127       65.54322
C         44.56699       40.14087       65.98687
C         44.05518       39.29974       64.83218
O         42.98171       39.60734       64.33492
H         44.08507       42.03714       65.20465
H         43.79509       40.17929       66.78498
H         45.44772       39.69011       66.46409
N         44.75245       38.24668       64.30078
C         46.10234       37.87895       64.72809
C         46.86237       37.11610       63.65705
O         46.25937       36.56444       62.74555
C         46.08392       37.06753       66.05787
C         45.52801       35.64790       65.86770
O         47.38670       36.98744       66.57588
H         44.33823       37.78428       63.47666
H         46.66243       38.83226       64.84105
H         45.43185       37.58518       66.79329
H         47.30242       36.81317       67.55008
H         44.50110       35.68016       65.44861
H         46.17954       35.05772       65.18706
H         45.49932       35.12152       66.84480
N         48.22311       37.07255       63.71024
C         49.04022       36.32224       62.76977
C         49.99158       35.45075       63.58534
O         50.85027       36.01710       64.24850
C         49.79894       37.29656       61.82329
C         48.76997       38.18335       61.06610
C         50.68684       36.50196       60.84566
C         49.38922       39.19410       60.10154
H         48.70659       37.61592       64.44267
H         48.39783       35.70752       62.11035
H         50.45506       37.96002       62.43018
H         48.18001       38.76847       61.80346
H         48.05994       37.54036       60.50607
H         50.06792       35.83815       60.20561
H         51.28079       37.18097       60.20274
H         51.42084       35.88078       61.39975
H         50.08242       39.86981       60.64435
H         49.92853       38.68873       59.27592
H         48.58026       39.80261       59.64411
N         49.92628       34.08750       63.64279
C         48.87579       33.27532       63.03451
C         49.23056       32.86285       61.61558
O         50.35207       33.07754       61.17887
C         48.54096       32.06057       63.93700
C         49.66231       31.07190       64.15999
O         49.45299       30.01793       64.97129
O         50.75288       31.20655       63.62736
H         50.60776       33.62039       64.26011
H         47.93549       33.86187       63.00796
H         47.67926       31.50644       63.50812
H         48.22933       32.45064       64.93085
N         48.27994       32.28258       60.82737
C         48.52604       31.82977       59.45902
C         47.19106       31.45737       58.81938
O         46.52689       30.58594       59.36291
C         49.46227       30.59490       59.47858
C         49.84100       30.11271       58.09791
C         49.45440       28.83544       57.65253
C         50.61093       30.92863       57.25140
C         49.83041       28.38745       56.38148
C         50.98766       30.47506       55.98360
C         50.59776       29.20587       55.54866
H         47.32990       32.19062       61.21844
H         49.00344       32.65636       58.89626
H         48.95722       29.78194       60.04709
H         50.40482       30.82509       60.01698
H         48.86416       28.18499       58.28595
H         50.92861       31.91090       57.57735
H         49.53083       27.40361       56.04302
H         51.58646       31.10618       55.33991
H         50.89290       28.85552       54.56776
N         46.69934       32.05835       57.68768
C         47.36463       33.06436       56.86969
C         47.34713       34.43989       57.51386
O         46.94355       34.56952       58.66213
C         46.55066       33.02893       55.56694
C         45.15296       32.76746       56.07412
C         45.41021       31.69544       57.12697
H         48.41180       32.78815       56.61849
H         46.66067       33.90819       54.89809
H         46.85647       32.12433       54.99213
H         44.80750       33.69518       56.58479
H         44.40307       32.48599       55.30532
H         44.58872       31.71982       57.87582
H         45.49574       30.68050       56.68093
N         47.81793       35.51409       56.81448
C         47.92815       36.86321       57.36233
C         48.96128       37.65643       56.55001
O         48.62149       38.69962       56.00678
C         46.56132       37.61597       57.35282
C         45.40866       36.96072       58.12166
C         44.17613       37.81984       58.05971
O         43.15636       37.39581       57.53896
O         44.18807       39.06108       58.58272
H         48.21473       35.33741       55.87790
H         48.32241       36.80113       58.39562
H         46.23106       37.74456       56.29756
H         46.73235       38.62499       57.79253
H         45.68935       36.81784       59.18666
H         45.16834       35.98058       57.66145
N         50.25425       37.24644       56.38823
C         50.84101       36.04801       56.95463
H         51.72311       36.32751       57.56562
H         50.15179       35.48161       57.60590
H         51.17338       35.38322       56.12906
H         50.87648       37.82763       55.80499
Ca        48.90658       47.91827       63.98693
O         49.54659       50.20343       65.74041
H         49.80709       51.11471       65.45466
H         49.36985       50.28517       66.71041
O         50.14727       45.05772       63.60036
H         49.39628       45.17664       64.23366
H         49.73340       44.63680       62.80588
O         49.47452       46.94782       66.73668
H         49.51983       47.22509       67.68557
H         50.31173       46.44266       66.58187
O         46.57279       48.49443       65.92616
H         46.62701       47.86562       66.68904
H         46.75805       49.38307       66.32079
O         51.86540       47.91516       64.47991
H         52.11329       48.84741       64.25664
H         52.45570       47.67336       65.23691

Ca 1.0



