%chk=apoCaM-CA-Ng.loop2.water2.frame774.chk
%nprocshared=20
%mem=10GB
%nosave
#b3lyp/svp scf=(tight,noincore,xqc) Test 
#IOP(5/87=12) Density=Current Pop=(MK,readradii) iop(6/33=2) iop(6/42=6)

apoCaM-CA-Ng.loop2.water2.frame774 

   -2  1 
C         85.93149       97.83989       -5.14545
C         87.26493       98.47280       -5.41285
O         87.38412       99.24431       -6.35434
H         85.17549       98.18215       -5.88428
H         86.02398       96.73552       -5.21843
H         85.58561       98.11031       -4.12612
N         88.33009       98.17290       -4.61868
C         89.66263       98.72037       -4.84219
C         89.65471      100.22982       -4.68249
O         89.35542      100.72000       -3.60226
C         90.67446       98.07647       -3.86900
C         92.08852       98.54468       -4.10455
O         92.95058       97.74567       -4.43308
O         92.41956       99.83908       -3.92975
H         88.18627       97.50351       -3.84605
H         89.97857       98.44378       -5.87356
H         90.63571       96.97339       -4.01076
H         90.39147       98.29772       -2.81708
N         90.00580      101.02426       -5.73157
C         90.10154      102.47692       -5.64547
C         88.76630      103.10379       -5.28131
O         87.74769      102.60073       -5.73550
C         90.56194      103.04431       -6.99628
H         90.24310      100.56891       -6.62702
H         90.87410      102.73063       -4.89223
H         90.66999      104.14767       -6.94979
H         91.54675      102.61222       -7.27388
H         89.82736      102.79745       -7.79357
N         88.66067      104.26500       -4.56753
C         89.79370      105.03051       -4.04211
C         90.43739      104.36595       -2.82506
O         89.93149      103.36564       -2.33747
C         89.36833      106.48834       -3.72250
C         88.41252      106.61765       -2.56060
O         87.19570      106.04085       -2.60592
O         88.72677      107.28333       -1.58735
H         87.71346      104.66010       -4.48291
H         90.54967      105.11666       -4.85058
H         88.90206      106.93251       -4.62903
H         90.27838      107.08844       -3.50369
N         91.56872      104.90076       -2.28192
C         92.25103      104.38793       -1.09827
C         93.68816      104.03916       -1.41674
O         94.05483      104.06441       -2.58400
H         91.97591      105.73898       -2.72402
H         91.73830      103.50661       -0.65853
H         92.25572      105.20479       -0.34833
N         94.61199      103.75281       -0.45370
C         94.36665      103.70953        0.98837
C         93.58141      102.47320        1.37192
O         93.93735      101.38169        0.94752
C         95.71024      103.68562        1.75072
C         96.48028      104.97043        1.55973
N         95.99887      106.14210        2.04136
O         97.55571      104.95071        0.98067
H         95.58041      103.59724       -0.77823
H         93.83057      104.62439        1.32089
H         96.31378      102.81865        1.40110
H         95.53382      103.56265        2.84225
H         95.10686      106.17659        2.55668
H         96.52846      107.01778        1.91765
N         92.54200      102.56376        2.24651
C         91.79211      101.39322        2.67310
C         90.76608      101.75092        3.72048
O         90.78660      101.17327        4.79803
H         92.30332      103.48895        2.63650
H         92.48817      100.63337        3.09487
H         91.27877      100.95177        1.79417
N         89.84811      102.72378        3.47016
C         88.82437      103.14403        4.42351
C         87.44539      103.01930        3.79145
O         87.34325      102.62246        2.63860
C         89.12493      104.58779        4.90001
C         90.41439      104.62160        5.73631
O         89.23711      105.44470        3.79299
H         89.89257      103.21456        2.56355
H         88.81917      102.48711        5.32137
H         88.29835      104.93750        5.55653
H         89.33104      106.36782        4.14595
H         91.29020      104.28646        5.14262
H         90.60700      105.65252        6.10129
H         90.30657      103.96053        6.62389
N         86.32809      103.33042        4.51232
C         84.97257      103.20547        3.98929
C         84.34858      104.58105        3.89663
O         84.19470      105.25024        4.90867
C         84.12766      102.25324        4.88547
C         82.63766      102.24739        4.43597
C         84.74316      100.84053        4.84919
C         81.72925      101.35100        5.27488
H         86.43571      103.66905        5.47972
H         84.98697      102.76783        2.96652
H         84.16287      102.62408        5.93424
H         82.55407      101.94920        3.37603
H         82.22649      103.27543        4.52363
H         84.71009      100.42548        3.81925
H         85.80085      100.86526        5.18564
H         84.21071      100.15126        5.53376
H         81.77729      101.64800        6.34363
H         80.68230      101.46157        4.92020
H         82.00608      100.28318        5.16800
N         83.94152      105.04333        2.68237
C         83.27179      106.31446        2.46855
C         81.88864      106.12284        1.84946
O         81.26335      107.13101        1.54866
C         84.18561      107.24257        1.64031
C         84.63582      106.66351        0.33013
O         83.82956      106.40388       -0.54568
O         85.94738      106.45060        0.11255
H         84.10979      104.46056        1.85044
H         83.10271      106.84408        3.43223
H         85.09149      107.44969        2.25115
H         83.67762      108.21466        1.45949
N         81.29955      104.88953        1.71321
C         79.91417      104.73507        1.27602
C         79.77204      103.57353        0.29064
O         79.07334      102.61561        0.59434
C         79.02844      104.60233        2.54013
C         77.54802      104.76554        2.26718
C         77.06483      105.94645        1.66875
C         76.63016      103.76992        2.64419
C         75.69823      106.12084        1.44205
C         75.25936      103.95416        2.42318
C         74.79505      105.12695        1.82068
H         81.78263      104.04820        2.05985
H         79.58406      105.65504        0.75712
H         79.29873      105.42570        3.23690
H         79.25284      103.64435        3.06068
H         77.74040      106.74091        1.38061
H         76.97023      102.85919        3.12053
H         75.34042      107.03192        0.97919
H         74.55411      103.19040        2.72369
H         73.73545      105.26982        1.65167
N         80.39368      103.58897       -0.92988
C         80.29592      102.53369       -1.93430
C         80.72347      101.16995       -1.43419
O         80.15547      100.17586       -1.86345
C         81.27475      102.98846       -3.02528
C         81.17172      104.49033       -2.92803
C         81.18917      104.69381       -1.41862
H         79.25407      102.50886       -2.32658
H         82.31968      102.73139       -2.73177
H         81.07412      102.55500       -4.02880
H         81.95058      105.05764       -3.47940
H         80.16793      104.78642       -3.31202
H         82.21177      104.58769       -1.00108
H         80.76152      105.69266       -1.19501
N         81.74380      101.05599       -0.53645
C         82.23081       99.78206       -0.03122
C         81.08737       99.05345        0.65095
O         80.74921       97.95593        0.22765
C         83.42638       99.94194        0.95288
C         84.79364      100.32620        0.32880
C         85.04987      101.74781       -0.12025
O         86.22091      102.02146       -0.72907
O         84.25606      102.64956        0.07013
H         82.15380      101.92001       -0.17965
H         82.58612       99.15884       -0.88291
H         83.59623       98.92561        1.37542
H         83.17747      100.60344        1.79861
H         84.97521       99.64561       -0.52948
H         85.57656      100.11918        1.09094
N         80.42057       99.62055        1.69297
C         79.29230       98.97037        2.32373
H         78.48826       98.79927        1.57509
H         79.60487       97.99704        2.75754
H         78.88812       99.61310        3.13397
H         80.70570      100.55033        2.03524
Ca        86.78694      104.03398       -1.62171
O         89.70052      105.58298        0.46961
H         90.29836      106.25199        0.88896
H         89.01128      105.39671        1.15398
O         89.07451      101.68042        0.16010
H         89.92857      101.42081       -0.26763
H         88.51938      100.86160        0.11918

Ca 1.0



