%chk=apoCaM-CA-Ng.loop4.water3.frame370.chk
%nprocshared=20
%mem=10GB
%nosave
#b3lyp/svp scf=(tight,noincore,xqc) Test 
#IOP(5/87=12) Density=Current Pop=(MK,readradii) iop(6/33=2) iop(6/42=6)

apoCaM-CA-Ng.loop4.water3.frame370 

   -3  1 
C         61.81794      103.85568       25.89641
C         62.66225      105.08207       26.05610
O         62.47091      106.01500       25.30151
H         61.09969      103.98551       25.05610
H         62.46186      102.97872       25.68457
H         61.23875      103.68190       26.82699
N         63.60103      105.15863       27.04172
C         64.42221      106.33536       27.32073
C         63.57946      107.53100       27.71731
O         63.63688      108.54934       27.05851
C         65.53879      106.60490       26.26768
C         65.29542      106.64672       24.76680
O         64.51816      107.54694       24.12297
O         65.93511      105.87093       24.07368
H         63.70780      104.34742       27.66957
H         65.00887      106.12657       28.24505
H         66.27418      105.78149       26.41843
H         66.06557      107.53960       26.55880
N         62.81613      107.45805       28.85098
C         61.96542      108.50097       29.43984
C         62.76750      109.68926       29.97431
O         62.82720      109.83436       31.18822
C         60.78944      108.90056       28.51027
C         59.81548      109.92434       29.16187
C         60.02503      107.64097       28.06531
C         59.06994      109.42406       30.40612
H         62.83256      106.56044       29.36068
H         61.50543      108.02489       30.33517
H         61.20205      109.38816       27.60111
H         59.05416      110.21709       28.40563
H         60.37244      110.84316       29.43868
H         59.64596      107.06514       28.93414
H         59.16536      107.92474       27.43621
H         60.68084      106.96898       27.47380
H         58.39803      110.22604       30.77722
H         58.43767      108.54397       30.16934
H         59.77289      109.16545       31.22330
N         63.41549      110.57343       29.16042
C         64.25042      111.64869       29.67879
C         63.41628      112.72991       30.35774
O         63.63848      112.92748       31.54442
C         65.21017      112.19670       28.59874
C         66.19659      111.15664       28.11694
O         67.03830      111.46665       27.28999
O         66.17871      109.89474       28.59370
H         63.35420      110.47426       28.14445
H         64.93067      111.21922       30.45225
H         65.79848      113.03163       29.03794
H         64.66063      112.57180       27.71867
N         62.43627      113.47511       29.75848
C         62.01297      113.38305       28.36150
C         60.81734      114.28561       28.05162
O         60.32309      114.92812       28.96761
H         61.95927      114.14811       30.37667
H         61.71226      112.34156       28.15942
H         62.85129      113.68590       27.71998
N         60.23398      114.41571       26.81793
C         60.60404      113.82166       25.53454
C         60.59161      112.29852       25.55294
O         61.61119      111.70880       25.87915
C         61.91195      114.42532       24.97810
C         62.19261      113.98557       23.56722
O         63.34776      113.35874       23.27628
O         61.39063      114.21723       22.67595
H         59.40706      115.03450       26.77714
H         59.82503      114.15468       24.81642
H         62.77677      114.15555       25.61079
H         61.81905      115.53295       24.97603
N         59.51435      111.55552       25.15933
C         58.22304      112.06806       24.73263
C         57.46567      112.72907       25.85687
O         57.95994      112.79043       26.97383
H         59.61508      110.53584       25.15752
H         57.59884      111.21261       24.39083
H         58.34664      112.75496       23.87003
N         56.21036      113.20650       25.62803
C         55.39550      113.82996       26.66550
C         54.26750      112.91242       27.12147
O         53.59474      113.26418       28.08089
C         54.98196      115.26146       26.24697
C         54.13129      115.39589       24.96993
C         52.73141      114.87517       25.13164
N         51.89154      115.42989       26.03630
O         52.33959      113.96621       24.41926
H         55.80632      113.08138       24.68787
H         56.00891      113.96401       27.58384
H         55.92630      115.82046       26.06469
H         54.46929      115.76548       27.09412
H         54.64116      114.89940       24.11817
H         54.05008      116.47409       24.71343
H         52.19654      116.21532       26.62852
H         50.92644      115.08695       26.13640
N         54.08187      111.67393       26.56783
C         53.23381      110.64247       27.16214
C         52.11152      110.17880       26.24552
O         51.38232      109.28506       26.65337
C         54.11810      109.42307       27.58025
C         55.20056      109.83969       28.58824
C         54.77599      108.70729       26.38261
H         54.63298      111.40042       25.74459
H         52.74451      111.02562       28.08488
H         53.46205      108.68170       28.08877
H         55.91165      110.56346       28.13496
H         54.73418      110.30528       29.48174
H         55.77708      108.95007       28.92166
H         55.49429      109.36295       25.84936
H         55.33435      107.81680       26.74011
H         54.00985      108.35555       25.66014
N         51.90065      110.72014       25.01071
C         50.86091      110.23630       24.10497
C         51.43624      109.78202       22.76493
O         50.66133      109.30956       21.94307
C         49.83704      111.36143       23.83617
C         49.28454      111.98699       25.09311
N         48.61289      111.25475       26.00990
O         49.44202      113.18352       25.27981
H         52.48072      111.50942       24.70255
H         50.32674      109.37200       24.55530
H         48.99348      110.96095       23.23244
H         50.33268      112.15990       23.24181
H         48.46250      110.24554       25.87577
H         48.24354      111.70427       26.86150
N         52.74882      109.97859       22.43102
C         53.26133      109.80722       21.07665
C         54.58089      109.06076       21.07313
O         55.47200      109.48672       21.79214
C         53.53190      111.20896       20.48341
C         52.31966      112.10829       20.52198
C         52.35707      113.29808       21.26903
C         51.14926      111.77651       19.81987
C         51.24368      114.13928       21.31681
C         50.03464      112.62015       19.86993
C         50.07708      113.80240       20.61743
O         48.99499      114.60534       20.65635
H         53.39417      110.40766       23.10731
H         52.52220      109.30105       20.41810
H         53.87376      111.11147       19.43072
H         54.35423      111.68855       21.06103
H         53.24789      113.57556       21.81906
H         51.09841      110.86683       19.23534
H         51.28961      115.05070       21.89956
H         49.13690      112.35475       19.32635
H         48.98652      115.43112       21.16144
N         54.81636      108.05071       20.17708
C         56.12511      107.44412       19.89063
C         56.56994      106.37671       20.87806
O         56.91023      105.28668       20.43741
C         57.25983      108.48664       19.71909
C         56.94002      109.55528       18.66643
C         58.08455      110.51809       18.53003
O         58.48078      111.25224       19.58822
O         58.65631      110.64596       17.45946
H         54.04958      107.80222       19.53336
H         56.03740      106.93065       18.90507
H         58.18234      107.94906       19.40394
H         57.49582      108.97575       20.68654
H         56.04014      110.13085       18.96150
H         56.74008      109.06267       17.69009
N         56.67646      106.63371       22.20966
C         57.32053      105.73116       23.15942
C         56.62067      104.38181       23.29033
O         57.17694      103.51102       23.94665
C         57.41084      106.38932       24.56229
C         58.04340      107.80091       24.61253
C         59.49320      107.85095       24.22983
O         59.85629      107.54212       23.10692
O         60.38925      108.31720       25.11955
H         56.34977      107.53547       22.54716
H         58.35025      105.54090       22.78614
H         57.97324      105.72221       25.25321
H         56.37460      106.48618       24.95166
H         57.93700      108.17467       25.64817
H         57.49472      108.52824       23.98705
N         55.41047      104.12251       22.71653
C         54.77189      102.82941       22.83198
H         53.79741      102.83916       22.29901
H         55.41653      102.04730       22.37665
H         54.59196      102.58693       23.90068
H         54.91105      104.85096       22.18864
Ca        62.57010      108.54398       24.64366
O         64.99898      110.67648       24.93257
H         65.84200      110.18448       25.10012
H         65.26342      111.63069       24.93006
O         62.74588      107.08748       21.68482
H         62.29147      107.95933       21.80056
H         62.42393      106.53695       22.44235
O         62.44374      110.69814       22.46478
H         63.19165      111.00158       21.89106
H         61.68096      110.59068       21.84318

Ca 1.0



