%chk=apoCaM-CA-Ng.loop2.water4.frame1072.chk
%nprocshared=20
%mem=10GB
%nosave
#b3lyp/svp scf=(tight,noincore,xqc) Test 
#IOP(5/87=12) Density=Current Pop=(MK,readradii) iop(6/33=2) iop(6/42=6)

apoCaM-CA-Ng.loop2.water4.frame1072 

   -2  1 
C         30.13804       47.72187       16.07964
C         29.44265       48.89467       16.70627
O         29.21655       49.87424       16.01025
H         31.09631       47.52159       16.59796
H         29.48415       46.82702       16.13030
H         30.34941       47.92969       15.00818
N         29.02110       48.89666       18.00173
C         29.15567       47.78748       18.94545
C         29.47993       48.34336       20.34437
O         29.88026       49.49670       20.43497
C         27.88101       46.91095       18.84140
C         26.65858       47.65889       19.25740
O         25.74450       48.07421       18.36238
O         26.51336       47.96434       20.42605
H         28.47174       49.71220       18.30817
H         29.99281       47.11812       18.65512
H         27.97109       45.97962       19.43909
H         27.77023       46.60472       17.77939
N         29.32111       47.59533       21.48056
C         29.66788       48.04889       22.83483
C         28.92310       49.30244       23.33214
O         29.24065       49.75059       24.42547
C         31.18842       48.25209       22.93426
H         28.95932       46.63521       21.39258
H         29.42290       47.22821       23.54613
H         31.71209       47.31815       22.63694
H         31.53684       49.08093       22.28579
H         31.48054       48.48209       23.98180
N         27.93184       49.91629       22.61907
C         27.27585       51.16335       23.01960
C         25.79573       50.96810       23.26611
O         25.15713       50.19898       22.55918
C         27.48284       52.23618       21.92335
C         26.88353       51.83482       20.59801
O         27.61962       51.57275       19.66328
O         25.54869       51.72757       20.42931
H         27.63436       49.50763       21.73294
H         27.73141       51.56772       23.94989
H         28.57965       52.37131       21.80068
H         27.05276       53.21169       22.23515
N         25.16370       51.70220       24.22405
C         23.72671       51.65577       24.40222
C         22.96817       52.34267       23.27955
O         21.75093       52.21994       23.27437
H         25.71244       52.31999       24.84088
H         23.44485       52.17582       25.34306
H         23.41143       50.59348       24.49688
N         23.57635       53.13338       22.33558
C         22.79181       53.82724       21.31288
C         22.17857       52.82991       20.33649
O         22.55599       51.66592       20.35652
C         23.61568       54.87418       20.53220
C         24.29827       55.89872       21.40401
N         25.62604       56.13568       21.27688
O         23.64198       56.54799       22.20457
H         24.59087       53.30016       22.38326
H         21.97796       54.37363       21.84087
H         22.91162       55.43611       19.89263
H         24.36594       54.36786       19.88557
H         26.19298       55.62323       20.58511
H         26.08764       56.85496       21.85323
N         21.18043       53.20333       19.48494
C         20.50802       52.22675       18.63610
C         19.13572       52.70678       18.22737
O         18.40373       53.12314       19.11450
H         20.82689       54.17203       19.52871
H         20.29978       51.32670       19.24916
H         21.16657       51.92639       17.79780
N         18.64032       52.64909       16.95843
C         19.31182       52.10251       15.78303
C         20.08171       53.20724       15.10412
O         19.53266       54.29341       14.97286
C         18.24544       51.52852       14.81023
C         18.86896       50.92555       13.54584
O         17.51651       50.51615       15.45894
H         17.66998       52.98050       16.83061
H         19.96712       51.24529       16.05036
H         17.55816       52.34354       14.47493
H         16.69535       50.93216       15.83071
H         18.06853       50.51596       12.89337
H         19.42054       51.69463       12.96544
H         19.56578       50.10226       13.81200
N         21.32829       52.99008       14.58653
C         22.07790       54.03811       13.90217
C         22.17538       53.68589       12.42323
O         22.96780       52.81488       12.09011
C         23.49556       54.20624       14.52894
C         23.48116       54.22445       16.07524
C         24.20540       55.44673       13.95625
C         22.64778       55.34242       16.68679
H         21.74052       52.04598       14.64628
H         21.54519       54.99916       14.01874
H         24.10730       53.31397       14.26575
H         24.52609       54.30544       16.44820
H         23.08484       53.25407       16.44632
H         24.29780       55.37146       12.85278
H         23.64079       56.37373       14.18950
H         25.22816       55.53402       14.38030
H         21.58602       55.26899       16.38548
H         22.68795       55.24273       17.78032
H         23.04993       56.33242       16.40736
N         21.36593       54.22229       11.46158
C         20.23931       55.11715       11.71774
C         20.63321       56.52365       12.15288
O         21.70349       56.99956       11.80478
C         19.28696       55.19988       10.49855
C         19.89914       55.82513        9.26708
O         19.42386       56.84984        8.80526
O         20.94051       55.24457        8.64075
H         21.48679       53.84819       10.50954
H         19.63285       54.64836       12.51833
H         18.39378       55.79465       10.79413
H         18.93263       54.17879       10.23822
N         19.74635       57.25472       12.89332
C         19.90936       58.66860       13.24382
C         18.79076       59.08970       14.19922
O         17.64552       58.77568       13.90467
C         19.81577       59.53290       11.95932
C         19.94637       61.00747       12.26692
C         18.80929       61.77241       12.58955
C         21.20899       61.62229       12.27127
C         18.93732       63.12449       12.91903
C         21.33193       62.97630       12.60051
C         20.19797       63.72565       12.92670
H         18.88676       56.77232       13.19714
H         20.89722       58.82580       13.72461
H         18.84544       59.34983       11.44519
H         20.60458       59.24264       11.23400
H         17.82545       61.31985       12.59877
H         22.09666       61.05037       12.03296
H         18.05972       63.70421       13.17587
H         22.30781       63.44338       12.60990
H         20.29602       64.77135       13.18817
N         18.99654       59.86676       15.31378
C         20.24392       60.50533       15.71783
C         21.10943       59.59542       16.57252
O         20.80031       58.41862       16.70512
C         19.73951       61.72775       16.49705
C         18.54515       61.15629       17.22739
C         17.88523       60.34344       16.12000
H         20.84546       60.87842       14.86614
H         20.48679       62.24804       17.12689
H         19.35149       62.47260       15.76430
H         18.92940       60.46121       18.00687
H         17.87564       61.89986       17.70897
H         17.27166       59.52288       16.54950
H         17.25220       60.99789       15.47972
N         22.24095       60.09112       17.15956
C         23.17223       59.27948       17.93689
C         24.48843       60.02342       18.19757
O         24.89022       60.15114       19.34393
C         22.50645       58.71666       19.23599
C         22.16778       59.68464       20.39916
C         21.27115       60.83483       20.04633
O         21.67758       61.73545       19.33235
O         20.04630       60.92902       20.59723
H         22.46870       61.08390       17.00457
H         23.44896       58.40874       17.30832
H         23.19496       57.95513       19.65920
H         21.57845       58.17470       18.96679
H         23.08156       60.09782       20.86848
H         21.66675       59.07561       21.18316
N         25.27024       60.51724       17.19208
C         24.95888       60.42873       15.78015
H         24.05266       61.01237       15.53152
H         25.79003       60.86887       15.18943
H         24.82822       59.36996       15.47703
H         26.15955       60.97464       17.44813
Ca        24.88512       49.98731       19.16219
O         23.05372       46.67609       18.58960
H         22.33368       46.21360       19.08704
H         23.85556       46.11570       18.74186
O         21.32449       48.92654       20.23530
H         20.55548       49.40259       20.63748
H         21.09408       47.96908       20.32978
O         23.72099       47.19121       21.72622
H         23.92804       46.27074       21.42552
H         22.89891       47.09525       22.26965
O         23.06967       50.32258       16.77478
H         24.01619       50.23959       16.49628
H         22.65304       49.46747       16.50078

Ca 1.0



