%chk=apoCaM-CA-Ng.loop2.water3.frame1217.chk
%nprocshared=20
%mem=10GB
%nosave
#b3lyp/svp scf=(tight,noincore,xqc) Test 
#IOP(5/87=12) Density=Current Pop=(MK,readradii) iop(6/33=2) iop(6/42=6)

apoCaM-CA-Ng.loop2.water3.frame1217 

   -2  1 
C         24.61257      -10.69405       96.43434
C         24.34718      -10.80847       94.95191
O         24.20035       -9.76713       94.32973
H         25.56526      -10.14753       96.59754
H         23.78838      -10.12034       96.90734
H         24.66239      -11.66020       96.96655
N         24.23460      -11.99579       94.28148
C         24.41760      -13.31644       94.88427
C         23.91983      -14.45316       93.98556
O         23.51119      -14.22672       92.85585
C         25.90407      -13.55322       95.28470
C         26.89099      -13.47024       94.15271
O         28.19083      -13.71228       94.40311
O         26.54400      -13.17087       93.02308
H         23.98417      -11.93592       93.28232
H         23.77169      -13.37419       95.78719
H         26.00494      -14.55374       95.75158
H         26.23781      -12.81912       96.03969
N         23.88264      -15.71858       94.49346
C         23.34184      -16.91132       93.84263
C         24.14588      -17.46253       92.67062
O         23.81503      -18.57529       92.27617
C         21.86992      -16.71046       93.45124
H         24.19357      -15.85003       95.46780
H         23.36656      -17.71426       94.61412
H         21.76536      -15.96183       92.63918
H         21.43262      -17.66569       93.08954
H         21.28233      -16.37173       94.33051
N         25.19946      -16.82120       92.07852
C         25.98064      -17.40690       90.97513
C         27.20920      -16.57717       90.58730
O         27.46829      -15.54731       91.20039
C         25.09744      -17.76956       89.74086
C         24.30831      -16.71499       88.99719
O         23.60076      -17.10274       88.08086
O         24.31273      -15.39059       89.25567
H         25.47426      -15.90159       92.44919
H         26.39733      -18.37287       91.34195
H         24.35963      -18.53332       90.04654
H         25.72741      -18.29035       88.99271
N         28.06409      -17.00246       89.61067
C         29.28152      -16.28628       89.25050
C         29.02236      -14.91195       88.65951
O         27.87686      -14.54262       88.44443
H         27.88288      -17.89691       89.12967
H         29.86268      -16.87720       88.51078
H         29.90222      -16.17823       90.16684
N         30.07904      -14.07532       88.43135
C         29.93702      -12.67924       88.01302
C         30.86364      -12.32490       86.84505
O         31.58681      -13.17800       86.35033
C         30.27396      -11.78697       89.22978
C         29.34075      -12.04147       90.38487
N         29.82000      -12.45602       91.57872
O         28.14028      -11.85906       90.24452
H         31.02353      -14.40870       88.67971
H         28.89174      -12.45866       87.70332
H         30.17501      -10.71267       88.97945
H         31.32759      -11.96943       89.53591
H         30.82794      -12.61125       91.72289
H         29.17873      -12.61505       92.36585
N         30.92049      -11.03098       86.40275
C         31.85474      -10.52178       85.40661
C         31.51179      -10.90665       83.98215
O         30.57070      -11.66127       83.78301
H         30.32161      -10.32837       86.85751
H         32.89112      -10.82871       85.66958
H         31.80130       -9.41255       85.44676
N         32.20249      -10.41183       82.90502
C         33.34560       -9.49384       82.98527
C         33.09698       -8.14904       82.29180
O         33.93741       -7.27210       82.44183
C         34.59064      -10.15505       82.34639
C         34.98621      -11.44758       83.06482
O         34.32817      -10.43024       80.99222
H         31.90402      -10.72350       81.96764
H         33.58066       -9.25785       84.04227
H         35.44379       -9.43992       82.42758
H         35.20435      -10.49076       80.52999
H         35.21904      -11.23741       84.12975
H         34.16949      -12.19779       83.00980
H         35.89047      -11.87838       82.58431
N         32.02420       -7.92521       81.47564
C         31.81096       -6.67988       80.72692
C         30.41302       -6.10356       81.00252
O         29.60772       -6.80310       81.60153
C         32.09316       -6.93840       79.20127
C         31.50451       -8.24738       78.61112
C         33.61464       -6.94335       78.96383
C         29.98567       -8.35914       78.68788
H         31.35307       -8.68724       81.32074
H         32.52150       -5.90550       81.07670
H         31.69675       -6.11220       78.58715
H         31.95920       -9.13441       79.10363
H         31.78080       -8.29250       77.53419
H         34.05751       -5.97684       79.29013
H         34.10641       -7.76747       79.52208
H         33.84047       -7.06028       77.88207
H         29.66643       -9.29115       78.17561
H         29.64089       -8.42967       79.73493
H         29.50612       -7.49107       78.19033
N         30.01682       -4.83640       80.63875
C         30.89687       -3.78323       80.11388
C         30.08699       -2.69802       79.36954
O         28.86639       -2.71602       79.41611
C         31.67959       -3.17562       81.31491
C         32.96342       -2.44584       81.00561
O         33.63147       -1.85065       82.01157
O         33.46188       -2.46137       79.89300
H         29.04682       -4.57780       80.87874
H         31.59348       -4.22377       79.38957
H         31.98557       -3.97738       82.01640
H         30.98866       -2.51349       81.88102
N         30.71244       -1.71954       78.65244
C         30.03516       -0.59832       77.99521
C         29.04757       -1.07643       76.93824
O         29.44150       -1.89087       76.11442
C         31.09587        0.34736       77.37549
C         30.50671        1.64214       76.85472
C         29.73507        1.67615       75.67761
C         30.72767        2.84089       77.55712
C         29.18374        2.87948       75.22732
C         30.17288        4.04070       77.10409
C         29.39930        4.05991       75.94184
H         31.73259       -1.75514       78.57751
H         29.52646       -0.00548       78.77785
H         31.68383       -0.15530       76.57677
H         31.80609        0.59375       78.19603
H         29.55803        0.77704       75.10399
H         31.31773        2.84703       78.46515
H         28.58743        2.89629       74.32428
H         30.34061        4.95543       77.65767
H         28.96899        4.99003       75.59425
N         27.76930       -0.58179       76.83697
C         27.19642        0.47767       77.65576
C         26.92438        0.00745       79.06963
O         27.33245        0.69768       79.99245
C         25.96340        0.92190       76.85535
C         25.51817       -0.33927       76.15350
C         26.85526       -0.98477       75.78056
H         27.84916        1.37642       77.70952
H         25.18955        1.47694       77.42768
H         26.32634        1.59383       76.04227
H         24.99059       -0.96430       76.89614
H         24.82183       -0.19431       75.30026
H         26.72733       -2.08650       75.71026
H         27.24450       -0.58239       74.81950
N         26.29973       -1.17400       79.32591
C         26.09291       -1.68127       80.67456
C         25.16353       -0.74933       81.44290
O         24.02827       -0.58652       81.01863
C         25.51558       -3.11042       80.58911
C         25.37563       -3.79382       81.95258
C         24.85381       -5.19253       81.78094
O         25.48765       -6.01156       81.13342
O         23.68288       -5.55039       82.34089
H         26.01958       -1.76889       78.53706
H         27.08593       -1.75931       81.16237
H         26.20783       -3.72074       79.96612
H         24.52584       -3.08407       80.08006
H         24.67497       -3.21525       82.59152
H         26.36540       -3.83804       82.45625
N         25.54388       -0.08061       82.57019
C         26.86108       -0.17143       83.16470
H         27.63475        0.17951       82.45156
H         26.91268        0.47571       84.06598
H         27.07504       -1.21710       83.46860
H         24.85701        0.53667       83.03079
Ca        25.39073      -13.96741       90.61801
O         25.33558      -10.44665       89.80496
H         24.48870       -9.94069       89.88959
H         25.74475      -10.10703       88.96964
O         22.82461      -12.50494       89.94841
H         22.76242      -11.81079       90.65160
H         22.14778      -13.18038       90.20487
O         25.01372      -12.82212       87.58127
H         25.31393      -12.09442       86.98089
H         24.81170      -13.57822       86.97468

Ca 1.0



