%chk=apoCaM-CA-Ng.loop2.water3.frame1208.chk
%nprocshared=20
%mem=10GB
%nosave
#b3lyp/svp scf=(tight,noincore,xqc) Test 
#IOP(5/87=12) Density=Current Pop=(MK,readradii) iop(6/33=2) iop(6/42=6)

apoCaM-CA-Ng.loop2.water3.frame1208 

   -2  1 
C         10.10716       79.36894       95.70637
C          9.42350       79.44593       94.36796
O          8.54030       80.27720       94.21717
H         11.19284       79.57131       95.58985
H          9.68627       80.12259       96.40531
H          9.95621       78.36243       96.15020
N          9.75010       78.63150       93.32262
C         10.78333       77.59625       93.36723
C         10.16927       76.22190       93.10439
O          8.99223       76.14394       92.78079
C         11.93011       77.94674       92.39075
C         11.52114       77.77762       90.95857
O         12.12173       76.98130       90.25949
O         10.43358       78.40620       90.47346
H          9.21936       78.76021       92.44972
H         11.23396       77.56069       94.37789
H         12.79501       77.27475       92.58830
H         12.26640       78.98992       92.57299
N         10.90911       75.08823       93.28477
C         10.38240       73.72204       93.21390
C         10.00910       73.22622       91.81496
O          9.58043       72.08329       91.72526
C          9.22224       73.53758       94.20913
H         11.89071       75.19480       93.58304
H         11.19229       73.04001       93.55734
H          9.54627       73.84578       95.22642
H          8.32811       74.12733       93.92535
H          8.91883       72.47033       94.25606
N         10.21572       73.95732       90.67838
C          9.97122       73.40925       89.33207
C         10.62186       74.25260       88.23545
O         11.17079       75.30293       88.52301
C          8.45724       73.20055       89.07312
C          7.68680       74.48932       89.15487
O          6.84281       74.64134       90.02320
O          7.94194       75.48891       88.28760
H         10.63634       74.88900       90.77740
H         10.48354       72.42309       89.27356
H          8.05244       72.48856       89.82275
H          8.29316       72.74322       88.07481
N         10.66528       73.81619       86.94396
C         11.38983       74.55415       85.91755
C         10.74097       75.87414       85.54900
O          9.61169       76.13663       85.93681
H         10.25768       72.90083       86.70136
H         11.47524       73.94632       84.99210
H         12.42129       74.73810       86.29272
N         11.44755       76.77188       84.80435
C         10.94562       78.07704       84.38151
C         11.23203       78.29237       82.91027
O         12.37316       78.11397       82.50134
C         11.66610       79.20503       85.14045
C         11.39962       79.16947       86.61965
N         12.42268       79.07487       87.49839
O         10.25156       79.25313       87.03013
H         12.42362       76.53496       84.56664
H          9.85630       78.18537       84.58541
H         11.29528       80.18372       84.76067
H         12.75941       79.15443       84.94309
H         13.39780       79.01716       87.17112
H         12.24158       79.07398       88.51094
N         10.27925       78.78009       82.06961
C         10.62504       79.12801       80.69872
C          9.49256       79.76221       79.91571
O          8.39434       79.89892       80.43515
H          9.33335       78.96015       82.43746
H         10.95439       78.20746       80.17032
H         11.46366       79.85360       80.72972
N          9.66100       80.16091       78.62136
C         10.92741       80.07066       77.89910
C         11.91186       81.13387       78.37468
O         13.00897       80.78438       78.78813
C         10.71988       80.18333       76.36058
C          9.89704       79.01228       75.81415
O         10.08618       81.38890       76.01798
H          8.83273       80.52051       78.12137
H         11.37345       79.06330       78.05653
H         11.73079       80.13678       75.88757
H         10.35819       81.60794       75.08846
H          9.80709       79.10248       74.71064
H         10.39849       78.04870       76.04523
H          8.87671       79.00433       76.25056
N         11.60892       82.45958       78.26412
C         12.59468       83.52224       78.46960
C         12.95956       83.71695       79.94679
O         12.26716       83.16928       80.79315
C         12.07650       84.87435       77.86629
C         10.84482       85.42792       78.63822
C         11.81284       84.73481       76.35407
C         10.44759       86.83749       78.20894
H         10.67831       82.70587       77.90650
H         13.49859       83.21542       77.90123
H         12.87903       85.62207       77.95663
H         11.09267       85.50040       79.71844
H          9.96949       84.75487       78.53204
H         11.57882       85.71693       75.89741
H         12.72196       84.34906       75.84573
H         10.96974       84.04773       76.14214
H         10.11542       86.86499       77.15217
H          9.60781       87.19544       78.84099
H         11.30941       87.52007       78.35203
N         13.97767       84.53894       80.36521
C         14.98978       85.13328       79.49107
C         14.78863       86.63057       79.31244
O         13.93766       87.22538       79.95831
C         16.40493       84.82499       80.02727
C         16.66962       83.34610       80.13523
O         17.57433       82.83755       79.49290
O         15.93276       82.57848       80.96153
H         14.07266       84.71357       81.37861
H         14.92023       84.70282       78.47551
H         16.53473       85.28401       81.03150
H         17.16371       85.27169       79.34878
N         15.50537       87.27433       78.34632
C         15.32325       88.67136       77.96241
C         13.90360       88.90768       77.44668
O         13.49023       88.17218       76.55920
C         16.28661       89.00957       76.79179
C         16.11167       90.43559       76.31978
C         15.43008       90.70279       75.11835
C         16.59515       91.50753       77.08680
C         15.22095       92.02047       74.70336
C         16.39437       92.82494       76.66122
C         15.70313       93.08106       75.47366
H         16.19230       86.71711       77.81437
H         15.57127       89.32368       78.82383
H         16.05335       88.31424       75.95359
H         17.34967       88.83431       77.06542
H         15.03728       89.89308       74.51568
H         17.12314       91.32189       78.01365
H         14.67926       92.21870       73.78731
H         16.76821       93.64811       77.25569
H         15.53890       94.10094       75.15090
N         13.13227       89.96709       77.84528
C         13.50324       90.97091       78.82640
C         13.34415       90.46140       80.24589
O         14.23575       90.70300       81.04773
C         12.58233       92.14969       78.48169
C         11.32062       91.48278       77.98661
C         11.88489       90.31307       77.18015
H         14.53129       91.36291       78.69606
H         12.45862       92.91046       79.28203
H         13.02083       92.66029       77.59221
H         10.77114       91.10884       78.86936
H         10.62162       92.13538       77.42258
H         11.14891       89.48497       77.14568
H         12.13518       90.63356       76.14450
N         12.24684       89.75323       80.63920
C         12.02554       89.36004       82.02191
C         11.80441       90.62810       82.84835
O         10.81869       91.30165       82.57999
C         10.78627       88.43757       82.10347
C         10.48890       87.94666       83.52664
C          9.27554       87.06043       83.53513
O          8.18973       87.41002       84.25129
O          9.26641       86.02066       82.89501
H         11.54936       89.47504       79.93779
H         12.88820       88.75403       82.34670
H         10.96599       87.55396       81.45058
H          9.89464       88.97730       81.71196
H         10.30029       88.81735       84.19079
H         11.35812       87.37973       83.92333
N         12.63139       91.07387       83.84152
C         13.87684       90.47385       84.27771
H         14.69553       91.21193       84.13988
H         13.80476       90.22477       85.35615
H         14.16515       89.56307       83.73305
H         12.36467       91.94559       84.32573
Ca         9.18140       77.22240       89.02685
O          6.84826       77.72625       86.61088
H          6.01606       77.94749       87.09980
H          6.78344       78.23481       85.76401
O          6.67636       77.92011       90.87409
H          6.05169       78.65995       90.66896
H          6.18916       77.10572       90.59434
O          7.26148       80.27840       88.53534
H          7.47145       81.23777       88.41012
H          6.27724       80.22585       88.43939

Ca 1.0



