%chk=apoCaM-CA-Ng.loop2.water4.frame1307.chk
%nprocshared=20
%mem=10GB
%nosave
#b3lyp/svp scf=(tight,noincore,xqc) Test 
#IOP(5/87=12) Density=Current Pop=(MK,readradii) iop(6/33=2) iop(6/42=6)

apoCaM-CA-Ng.loop2.water4.frame1307 

   -2  1 
C         41.88010       18.67216       78.90715
C         42.84171       19.82751       78.84514
O         43.80754       19.73750       78.10143
H         40.87332       19.01247       78.58148
H         42.20280       17.85811       78.22322
H         41.82565       18.26578       79.93717
N         42.65045       20.98367       79.54345
C         41.52164       21.23626       80.43839
C         41.93119       21.77077       81.81465
O         41.05023       21.87689       82.65744
C         40.52342       22.18003       79.73956
C         41.19209       23.39539       79.16021
O         41.13670       23.60570       77.95915
O         41.89942       24.22637       79.94015
H         43.31217       21.75463       79.36296
H         40.97209       20.29572       80.64778
H         39.71444       22.47485       80.44223
H         40.05026       21.62247       78.90102
N         43.21269       22.12225       82.13658
C         43.59556       22.58245       83.47234
C         42.81643       23.81455       83.90311
O         42.15929       23.76109       84.93343
C         45.10008       22.88361       83.52858
H         43.95244       22.04783       81.42550
H         43.39575       21.76316       84.19948
H         45.68114       21.97327       83.27038
H         45.37305       23.69078       82.81552
H         45.38916       23.20256       84.55349
N         42.85377       24.95985       83.16648
C         42.16946       26.19357       83.55133
C         41.09796       26.55204       82.54336
O         41.30084       26.33951       81.35940
C         43.18205       27.34698       83.75497
C         44.02035       27.75203       82.56399
O         43.91366       27.20211       81.48130
O         44.91467       28.74830       82.70497
H         43.39706       24.95086       82.29158
H         41.66363       26.07069       84.53422
H         43.87948       27.05088       84.56789
H         42.62394       28.24628       84.09522
N         39.92381       27.12685       82.93849
C         38.86866       27.47615       81.99514
C         39.34066       28.45481       80.94204
O         40.48104       28.89521       80.99318
H         39.76556       27.31930       83.93909
H         38.00457       27.91490       82.53894
H         38.52732       26.54776       81.48759
N         38.50919       28.82048       79.92587
C         38.96255       29.64027       78.80612
C         38.30836       31.00545       78.77509
O         38.73780       31.82022       77.96830
C         38.73488       28.88079       77.48626
C         39.46947       27.56218       77.48449
N         38.79713       26.39229       77.37636
O         40.68676       27.55223       77.58563
H         37.54017       28.46476       79.91970
H         40.05140       29.84633       78.90014
H         39.09931       29.48561       76.62789
H         37.64381       28.71233       77.34960
H         37.77038       26.37529       77.29396
H         39.30529       25.49605       77.37919
N         37.29776       31.36105       79.62106
C         36.78346       32.71957       79.65748
C         37.79195       33.65824       80.30343
O         38.82017       33.18704       80.77041
H         36.88058       30.67154       80.26209
H         35.86351       32.74984       80.28030
H         36.52080       33.03358       78.62383
N         37.58832       35.00209       80.41780
C         36.44681       35.72652       79.86716
C         36.88420       36.76643       78.83194
O         36.01210       37.33705       78.19165
C         35.65701       36.40812       81.00905
C         35.11618       35.38313       82.01308
O         36.49005       37.32333       81.67561
H         38.30021       35.54372       80.93273
H         35.76260       35.03121       79.34110
H         34.79077       36.94531       80.55598
H         35.89850       37.97309       82.13728
H         34.53772       35.90284       82.80611
H         34.44359       34.66217       81.50258
H         35.94590       34.82501       82.49703
N         38.19850       37.09780       78.63872
C         38.66336       38.11030       77.69414
C         39.77048       37.49714       76.83483
O         40.71223       36.97086       77.41216
C         39.19485       39.35414       78.47123
C         38.05037       39.95499       79.33440
C         39.75071       40.41006       77.48981
C         38.45312       41.17656       80.16053
H         38.92537       36.66097       79.21921
H         37.82435       38.47833       77.07516
H         40.02456       39.03606       79.14133
H         37.69598       39.18570       80.05132
H         37.19504       40.23936       78.68215
H         38.94681       40.78893       76.82401
H         40.19802       41.26616       78.03167
H         40.56471       39.98745       76.86519
H         39.30099       40.92743       80.83173
H         38.72746       42.03172       79.51038
H         37.58855       41.49870       80.77879
N         39.80441       37.55752       75.46991
C         38.81986       38.24924       74.64176
C         39.41240       38.71253       73.31362
O         40.55586       38.40810       73.00353
C         37.56040       37.36736       74.44400
C         37.81066       36.07292       73.70883
O         36.87750       35.31362       73.50354
O         39.04021       35.73464       73.27329
H         40.64116       37.15981       75.01617
H         38.53849       39.19713       75.14101
H         36.79267       37.94030       73.88317
H         37.12402       37.11257       75.43100
N         38.66660       39.48410       72.47649
C         39.15204       39.95009       71.18544
C         40.28686       40.96871       71.33891
O         40.05499       41.97146       72.00300
C         38.00970       40.65342       70.41045
C         38.48347       41.08880       69.04176
C         38.81117       40.12973       68.06859
C         38.63303       42.45332       68.73824
C         39.28918       40.52791       66.81760
C         39.11743       42.84727       67.48709
C         39.44618       41.88549       66.52812
H         37.70322       39.72322       72.75751
H         39.44317       39.05648       70.60480
H         37.67428       41.53568       71.00134
H         37.13199       39.98129       70.29528
H         38.70237       39.07374       68.28189
H         38.39569       43.21110       69.47460
H         39.54437       39.78282       66.07553
H         39.24436       43.89849       67.26312
H         39.82469       42.19167       65.56174
N         41.48663       40.87400       70.67795
C         41.90365       39.79521       69.79705
C         42.79666       38.78914       70.51682
O         43.13499       37.78548       69.90532
C         42.72360       40.54593       68.74396
C         43.48307       41.54259       69.61231
C         42.38572       42.01252       70.56686
H         41.06963       39.26709       69.30353
H         43.35638       39.90538       68.09258
H         42.02313       41.12282       68.09766
H         44.24680       40.97872       70.19068
H         44.00127       42.36060       69.06920
H         42.79492       42.35766       71.54058
H         41.81814       42.83964       70.08398
N         43.28774       39.02647       71.77214
C         44.24235       38.14357       72.43510
C         45.49312       38.01127       71.56896
O         46.12190       39.02591       71.30097
C         44.66626       38.71335       73.81156
C         43.50992       38.81746       74.81789
C         43.99443       39.40363       76.11425
O         43.51782       40.44678       76.53298
O         44.95842       38.78286       76.82112
H         43.02139       39.89494       72.25415
H         43.75931       37.15999       72.60282
H         45.11461       39.72271       73.66669
H         45.44502       38.04698       74.24594
H         43.09014       37.80814       75.01114
H         42.70160       39.46352       74.41697
N         45.93433       36.82037       71.07243
C         45.28208       35.55201       71.31348
H         44.24565       35.56993       70.91656
H         45.83631       34.74019       70.79645
H         45.26915       35.33088       72.40145
H         46.78468       36.81565       70.48752
Ca        42.94970       25.97228       78.96415
O         43.04811       29.23473       79.40034
H         42.79552       29.34931       78.45009
H         42.70997       30.05036       79.84816
O         45.07613       23.93011       78.04077
H         44.39292       23.62633       77.39147
H         45.71364       24.46126       77.50036
O         45.26699       27.56689       77.83161
H         45.36613       28.45536       77.40625
H         46.16355       27.36291       78.19846
O         42.85683       26.00270       75.80003
H         41.92234       26.15638       75.51104
H         43.27349       26.90075       75.77962

Ca 1.0



