%chk=apoCaM-CA-Ng.loop2.water4.frame1234.chk
%nprocshared=20
%mem=10GB
%nosave
#b3lyp/svp scf=(tight,noincore,xqc) Test 
#IOP(5/87=12) Density=Current Pop=(MK,readradii) iop(6/33=2) iop(6/42=6)

apoCaM-CA-Ng.loop2.water4.frame1234 

   -2  1 
C         70.43620       32.99247       25.48000
C         69.33164       32.14978       24.89811
O         68.67481       32.65050       23.99658
H         71.14152       33.25950       24.66427
H         70.00039       33.92707       25.88944
H         71.03070       32.51845       26.27515
N         69.03739       30.87148       25.28026
C         69.68918       30.08027       26.32478
C         68.64496       29.54166       27.30542
O         67.50030       29.96677       27.24575
C         70.55075       28.97391       25.66417
C         69.79239       27.97826       24.83365
O         69.23089       28.32717       23.80901
O         69.79209       26.67781       25.18030
H         68.28315       30.40155       24.75496
H         70.39919       30.67036       26.92593
H         71.11051       28.42694       26.44906
H         71.31781       29.45447       25.01871
N         68.96324       28.57615       28.22016
C         68.01030       27.96014       29.14057
C         66.75679       27.49541       28.41069
O         65.65348       27.88673       28.76678
C         67.71224       28.88654       30.32251
H         69.91941       28.19765       28.23539
H         68.49625       27.05928       29.57959
H         68.66154       29.13645       30.84367
H         67.21915       29.82242       29.99192
H         67.05489       28.36132       31.05030
N         66.87820       26.63306       27.36767
C         65.74611       26.10191       26.60705
C         66.15859       24.87661       25.79060
O         67.30555       24.45375       25.85506
C         64.99168       27.22044       25.81344
C         65.79737       28.21985       25.00594
O         65.70705       29.40396       25.28607
O         66.54344       27.88027       23.93946
H         67.83360       26.32541       27.13465
H         65.00703       25.67341       27.32008
H         64.43427       27.81923       26.56545
H         64.21396       26.77708       25.16075
N         65.24272       24.21769       25.02572
C         65.52010       22.97632       24.32451
C         65.57890       23.21377       22.81119
O         66.84603       23.69874       22.46573
H         64.28758       24.59294       24.94017
H         64.70281       22.26809       24.58427
H         66.47075       22.49942       24.65135
N         65.30045       21.96743       22.09884
C         65.69295       21.98193       20.67790
C         65.08169       23.13426       19.89158
O         63.88330       23.36381       19.98027
C         65.27067       20.65518       20.02471
C         65.77042       20.56900       18.60143
N         64.90314       20.50297       17.56536
O         66.97325       20.57505       18.38366
H         64.27211       21.78824       22.18169
H         66.80392       22.02647       20.61508
H         64.16169       20.57382       20.05426
H         65.69276       19.80224       20.59812
H         63.88558       20.51203       17.72559
H         65.25142       20.45737       16.59639
N         65.84751       23.79571       18.97904
C         65.30181       24.73662       18.02135
C         64.96989       26.06678       18.64809
O         65.88319       26.67249       19.18773
H         66.83689       23.52661       18.86812
H         64.45746       24.24972       17.50908
H         66.07337       24.94247       17.24847
N         63.73551       26.64881       18.61309
C         62.52149       26.07219       18.03606
C         62.65427       25.75015       16.55335
O         62.40651       24.60244       16.20424
C         61.29567       26.99418       18.28619
C         60.91088       27.02243       19.77047
O         61.55104       28.30851       17.85587
H         63.66066       27.57720       19.05853
H         62.30065       25.11207       18.55478
H         60.40409       26.57724       17.75907
H         61.22820       28.38493       16.92185
H         61.73600       27.41327       20.40081
H         60.01765       27.66602       19.91798
H         60.65515       25.99667       20.11499
N         63.00403       26.67878       15.61424
C         63.05355       26.32526       14.19030
C         64.12131       25.26163       13.93130
O         65.07420       25.20515       14.69600
C         63.21926       27.55920       13.25248
C         64.57831       28.28199       13.44602
C         62.01639       28.50541       13.43181
C         64.78104       29.45720       12.48439
H         63.20040       27.64223       15.91744
H         62.06054       25.88016       13.96781
H         63.18624       27.19186       12.20314
H         65.39755       27.55593       13.25538
H         64.68443       28.65773       14.48476
H         62.00014       28.95367       14.44623
H         62.03152       29.32177       12.68321
H         61.06859       27.94739       13.27434
H         65.80028       29.87586       12.61922
H         64.66691       29.12853       11.43118
H         64.05604       30.27111       12.68581
N         64.02418       24.31286       12.95049
C         62.94463       24.19065       11.97269
C         63.54222       24.05496       10.57394
O         64.61635       23.48529       10.44474
C         62.09693       22.95654       12.35680
C         60.75867       22.83259       11.66950
O         59.96737       21.78481       11.96538
O         60.34801       23.68544       10.90110
H         64.75345       23.58077       12.93766
H         62.28305       25.07564       12.00172
H         61.86374       23.02228       13.44209
H         62.69388       22.03459       12.18842
N         62.87316       24.49167        9.47133
C         63.39057       24.38473        8.10805
C         63.11934       25.68017        7.35030
O         62.01253       26.18888        7.47912
C         62.79917       23.12866        7.41350
C         61.29078       23.05756        7.31027
C         60.57945       22.12681        8.09037
C         60.58064       23.87894        6.41685
C         59.18766       22.03918        7.99671
C         59.18830       23.78577        6.32381
C         58.49201       22.86992        7.11605
H         61.92799       24.87840        9.59416
H         64.48363       24.18800        8.12141
H         63.15343       22.25890        8.01091
H         63.23362       23.00291        6.39730
H         61.09963       21.47119        8.77783
H         61.10055       24.58173        5.77999
H         58.64903       21.32514        8.60642
H         58.64903       24.42117        5.63328
H         57.41446       22.79923        7.04291
N         64.02089       26.26486        6.49539
C         65.30875       25.69730        6.10445
C         66.43454       25.92708        7.10171
O         67.50942       25.37615        6.90705
C         65.65459       26.45652        4.80636
C         64.29008       26.90100        4.30045
C         63.65090       27.34180        5.60410
H         65.14299       24.62170        5.87393
H         66.19208       27.40171        5.06039
H         66.28321       25.89114        4.08649
H         64.32366       27.69207        3.52136
H         63.73566       26.01735        3.91211
H         64.14060       28.27773        5.95961
H         62.55754       27.51940        5.51378
N         66.29663       26.83161        8.11246
C         67.37543       27.24687        9.00639
C         67.67385       28.72470        8.79181
O         66.76937       29.46892        8.43844
C         66.93980       27.01863       10.46510
C         66.97175       25.53749       10.84316
C         68.38289       25.05163       11.02114
O         68.82213       24.15379       10.32169
O         69.16503       25.59872       11.97270
H         65.39222       27.31363        8.22514
H         68.30316       26.67587        8.80146
H         65.90767       27.40971       10.57675
H         67.58260       27.57424       11.18215
H         66.45542       24.95403       10.05690
H         66.44596       25.39479       11.80982
N         68.91341       29.25606        9.00106
C         70.06065       28.48435        9.43361
H         70.94209       29.15007        9.54829
H         69.85514       28.00629       10.41382
H         70.31366       27.70962        8.67966
H         69.04960       30.26770        8.85009
Ca        66.83905       25.80600       23.22132
O         69.43214       23.71429       21.20377
H         69.13166       23.63882       20.26346
H         70.08563       22.97989       21.31843
O         70.39088       23.91750       24.23381
H         71.37003       23.93313       24.38099
H         70.09711       23.04552       24.59894
O         68.44004       26.54617       20.74007
H         67.80894       27.28823       20.91669
H         68.94397       26.83236       19.93766
O         71.14745       26.20234       22.11827
H         71.48272       27.05763       22.48701
H         71.74771       26.00862       21.35522

Ca 1.0



