%chk=apoCaM-CA-Ng.loop3.water5.frame384.chk
%nprocshared=20
%mem=10GB
%nosave
#b3lyp/svp scf=(tight,noincore,xqc) Test 
#IOP(5/87=12) Density=Current Pop=(MK,readradii) iop(6/33=2) iop(6/42=6)

apoCaM-CA-Ng.loop3.water5.frame384 

   0  1 
C         37.14107      124.33369        7.16643
C         37.95313      124.73860        5.97076
O         39.17017      124.74231        6.06443
H         36.05232      124.38280        6.95459
H         37.39827      123.29658        7.46537
H         37.36396      125.02083        8.01042
N         37.34132      125.11747        4.80917
C         38.03205      125.55865        3.59698
C         38.73783      126.91740        3.76668
O         39.29203      127.40883        2.79791
C         38.97794      124.43747        3.08783
C         39.47366      124.59156        1.67071
O         39.10734      125.51238        0.95788
O         40.30784      123.66310        1.16614
H         36.31085      125.08107        4.76957
H         37.24567      125.70597        2.82257
H         38.42825      123.47160        3.11628
H         39.85508      124.35620        3.75958
N         38.72573      127.59964        4.95298
C         39.33011      128.91887        5.14782
C         40.47165      128.88429        6.16359
O         41.04687      129.93365        6.43030
C         38.22200      129.91911        5.56220
C         37.58137      129.62399        6.93595
C         36.41368      130.57451        7.22292
C         35.80188      130.28785        8.60235
N         34.64479      131.14631        8.85235
H         38.25257      127.19158        5.76132
H         39.76325      129.28776        4.19355
H         37.43466      129.89617        4.77653
H         38.64606      130.94706        5.58648
H         38.35295      129.72601        7.72990
H         37.17403      128.59418        6.96928
H         35.63463      130.42931        6.44189
H         36.76439      131.62862        7.18770
H         36.56930      130.46273        9.38916
H         35.48023      129.22358        8.65804
H         34.92353      132.15302        8.80523
H         33.89768      130.95263        8.14612
H         34.26702      130.94219        9.80582
N         40.85559      127.72719        6.77310
C         41.90112      127.63858        7.79150
C         43.27197      128.00452        7.22777
O         43.41455      128.14033        6.02023
C         41.89107      126.19289        8.34364
C         42.82995      125.90864        9.47435
O         42.72308      126.49853       10.53726
O         43.75489      124.94375        9.33039
H         40.35779      126.86063        6.53360
H         41.64018      128.34606        8.60884
H         42.11837      125.49912        7.50514
H         40.86630      125.96031        8.70733
N         44.33533      128.19302        8.06647
C         45.67330      128.51798        7.59540
C         46.35306      127.37453        6.86706
O         47.44319      127.59359        6.35707
H         44.18810      128.14910        9.08363
H         46.31774      128.78960        8.45778
H         45.61081      129.40602        6.92882
N         45.77702      126.14243        6.74817
C         46.34360      125.08190        5.92737
C         45.24933      124.10093        5.52955
O         45.40667      122.89954        5.67550
C         47.60411      124.44539        6.58015
C         47.38213      123.77554        7.91881
N         48.43092      123.22972        8.57972
O         46.26747      123.72198        8.41349
H         44.85570      125.97376        7.17097
H         46.65556      125.53516        4.96019
H         48.36863      125.23720        6.72582
H         48.03247      123.69357        5.88211
H         49.38171      123.26836        8.18324
H         48.29644      122.77154        9.49357
N         44.10314      124.58961        4.96756
C         43.04084      123.77687        4.39348
C         42.29245      122.85229        5.33776
O         41.42798      122.14009        4.84805
H         44.00740      125.61206        4.86777
H         43.48030      123.16239        3.58059
H         42.29206      124.45960        3.93474
N         42.53261      122.79859        6.67722
C         41.85550      121.86079        7.57100
C         42.83185      121.37683        8.62374
O         43.49610      122.18794        9.25178
C         40.62739      122.50600        8.23373
C         39.99145      121.54474        9.21844
C         39.42320      120.32725        8.79514
C         40.00949      121.84868       10.58679
C         38.90052      119.42850        9.73322
C         39.49824      120.94705       11.52165
C         38.94627      119.73035       11.09909
O         38.46921      118.84304       11.99510
H         43.21897      123.44550        7.08756
H         41.48209      120.98280        6.99805
H         39.88241      122.78405        7.46197
H         40.95306      123.43073        8.75283
H         39.39534      120.06535        7.74469
H         40.44300      122.77655       10.93097
H         38.47641      118.48854        9.40134
H         39.54279      121.19250       12.57473
H         38.51138      119.00409       12.94887
N         42.93194      120.05187        8.90488
C         43.91642      119.52682        9.83957
C         45.28035      119.70056        9.19551
O         46.16678      120.25300        9.83189
C         43.56603      118.06008       10.24495
C         42.21075      118.07463       11.01380
C         44.65874      117.45321       11.14783
C         41.66917      116.70012       11.40629
H         42.30442      119.39332        8.41819
H         43.89047      120.10673       10.79175
H         43.48032      117.43947        9.32542
H         41.43549      118.55154       10.38606
H         42.31672      118.68475       11.93950
H         45.63698      117.44832       10.64776
H         44.76238      118.02994       12.09067
H         44.43584      116.39431       11.38763
H         40.69979      116.83242       11.93376
H         41.49946      116.08155       10.50128
H         42.34996      116.17102       12.10220
N         45.49384      119.33618        7.89440
C         46.77684      119.56227        7.23138
C         47.85142      118.64618        7.79138
O         49.02201      118.89340        7.54012
C         46.67899      119.35521        5.70707
O         45.82021      120.28882        5.10906
H         44.71015      118.93207        7.35935
H         47.07196      120.62219        7.40842
H         46.35631      118.32021        5.45850
H         47.68432      119.50734        5.25817
H         44.90451      120.12390        5.44979
N         47.52067      117.56360        8.55477
C         48.46919      116.65825        9.18028
C         49.37643      117.41596       10.13653
O         50.59174      117.33107       10.02139
C         49.22303      115.85092        8.11422
H         46.52974      117.34789        8.70924
H         47.88816      115.92501        9.78403
H         49.87940      115.09850        8.59899
H         48.49201      115.31253        7.47225
H         49.84341      116.50465        7.46792
N         48.82682      118.20320       11.10607
C         49.60298      118.98280       12.06220
C         49.19287      118.61884       13.47229
O         48.01635      118.72333       13.79336
C         49.36493      120.47430       11.82820
H         47.79916      118.27647       11.15440
H         50.69276      118.80496       11.93024
H         49.96110      121.06861       12.55461
H         49.68407      120.75126       10.80136
H         48.29255      120.72892       11.95143
N         50.12121      118.18714       14.37385
C         49.81257      117.80544       15.74763
C         48.85641      116.62833       15.74553
O         47.77747      116.70429       16.31929
C         49.29182      119.00546       16.57996
C         50.31276      120.15110       16.63869
C         49.82859      121.26214       17.52668
O         50.53670      121.60795       18.61918
O         48.79819      121.86091       17.26162
H         51.10486      118.10857       14.07386
H         50.75155      117.45790       16.23408
H         49.10251      118.65346       17.61868
H         48.33232      119.38655       16.16967
H         50.49334      120.55678       15.61999
H         51.27363      119.76343       17.04130
N         49.20527      115.48848       15.09049
C         48.33587      114.33547       15.03159
H         47.37649      114.61038       14.54375
H         48.81869      113.53037       14.43810
H         48.13868      113.95621       16.05641
H         50.11660      115.44001       14.60959
Ca        45.02756      124.23285       11.04553
O         46.63672      126.54073       10.46806
H         47.16934      126.55161        9.63397
H         46.16685      127.41145       10.48223
O         42.70611      122.91020       12.33760
H         42.02437      123.57183       12.61614
H         42.74078      122.25893       13.08194
O         45.51462      121.62671       12.71856
H         46.12559      121.36310       13.45108
H         46.11007      121.78712       11.94494
O         45.33824      125.23911       13.80127
H         44.54235      125.69253       13.42449
H         44.97870      124.42079       14.22734
O         47.83838      123.96784       11.99950
H         48.67228      124.47092       11.82351
H         47.92180      123.66065       12.93690

Ca 1.0



