%chk=apoCaM-CA-Ng.loop1.water3.frame270.chk
%nprocshared=20
%mem=10GB
%nosave
#b3lyp/svp scf=(tight,noincore,xqc) Test 
#IOP(5/87=12) Density=Current Pop=(MK,readradii) iop(6/33=2) iop(6/42=6)

apoCaM-CA-Ng.loop1.water3.frame270 

   0  1 
C         14.60967       20.19693       27.45204
C         14.46588       21.66075       27.74979
O         15.35228       22.24983       28.35091
H         15.57009       19.80144       27.84287
H         13.76845       19.63576       27.90915
H         14.58615       20.04318       26.35072
N         13.36320       22.32132       27.31167
C         13.18171       23.76265       27.43942
C         12.68437       24.18791       28.82473
O         12.37711       25.35627       28.96096
C         12.17488       24.25833       26.36447
C         12.63583       23.98453       24.95181
O         12.86335       25.00783       24.10800
O         12.78194       22.84122       24.55103
H         12.66799       21.77931       26.77490
H         14.13849       24.28482       27.21419
H         12.05819       25.36036       26.46241
H         11.17854       23.79150       26.52211
N         12.52761       23.33633       29.88276
C         11.84473       23.73539       31.12280
C         12.71585       23.60566       32.36632
O         13.36809       22.57843       32.48974
C         10.60508       22.84157       31.30194
C          9.57844       23.08973       30.19118
C          8.31776       22.25228       30.40725
C          7.26415       22.58079       29.34300
N          6.04683       21.80094       29.55701
H         12.81685       22.35211       29.79106
H         11.48298       24.76922       31.05476
H         10.12234       23.08018       32.27393
H         10.90522       21.77002       31.32106
H         10.01726       22.85006       29.19774
H          9.29854       24.16406       30.21071
H          7.89620       22.47827       31.41144
H          8.57765       21.17189       30.36146
H          7.67161       22.36144       28.33095
H          7.01552       23.66498       29.39364
H          5.34370       22.05882       28.82763
H          6.25766       20.77943       29.48171
H          5.64752       22.01115       30.50081
N         12.72112       24.51059       33.40999
C         11.98844       25.78524       33.52684
C         10.48553       25.60675       33.36860
O          9.92870       26.02849       32.36537
C         12.60969       26.87616       32.63332
C         14.01310       27.18939       33.07107
O         14.54748       26.57094       34.14356
O         14.68683       27.97845       32.43187
H         13.29213       24.25487       34.23111
H         12.12555       26.19707       34.55111
H         12.02926       27.81187       32.72063
H         12.62271       26.56018       31.57389
N          9.72942       25.00864       34.33210
C         10.25917       24.66562       35.64524
C          9.26636       23.92561       36.51990
O          8.21821       23.52291       36.03602
H          8.72670       24.87114       34.13446
H         10.55211       25.60999       36.14457
H         11.15087       24.01281       35.54228
N          9.53675       23.63763       37.82638
C         10.70682       24.13606       38.55123
C         10.55891       25.61826       38.89670
O          9.48497       26.17824       38.71863
C         10.94973       23.32027       39.85025
C          9.86003       23.44235       40.89171
O          8.72974       23.03897       40.67108
O         10.14489       23.96738       42.09840
H          8.86784       23.02358       38.31022
H         11.60439       23.98346       37.91330
H         11.90061       23.66495       40.31054
H         11.08284       22.24794       39.59159
N         11.60355       26.30119       39.45073
C         11.49937       27.65608       39.97667
C         11.19507       28.75223       38.97271
O         11.04175       29.88021       39.42047
H         12.50062       25.81138       39.58578
H         12.45649       27.92301       40.47600
H         10.70377       27.66258       40.75351
N         11.08355       28.53197       37.63016
C         10.72559       29.58392       36.68140
C          9.40355       29.22327       36.04262
O          9.30783       28.17636       35.41492
C         11.81736       29.76558       35.60666
C         13.15254       30.18145       36.22897
O         11.40762       30.76294       34.70565
H         11.23503       27.58605       37.25585
H         10.60881       30.56194       37.19898
H         11.94671       28.79724       35.06944
H         11.91411       30.62099       33.86413
H         13.04044       31.14537       36.77104
H         13.51656       29.40634       36.93465
H         13.91190       30.31098       35.42892
N          8.32340       30.04567       36.18305
C          7.01460       29.70784       35.63131
C          7.03976       29.76830       34.09576
O          6.08933       29.31098       33.47928
C          5.87884       30.61186       36.23836
C          5.95583       30.76670       37.78946
C          4.46979       30.10269       35.86055
C          5.96141       29.45557       38.57864
H          8.44151       30.90994       36.72723
H          6.79747       28.66234       35.94638
H          5.98637       31.63959       35.82547
H          5.10069       31.38919       38.13359
H          6.86275       31.33269       38.07833
H          4.31029       29.06407       36.21927
H          3.69136       30.75415       36.31192
H          4.29245       30.12737       34.77019
H          6.84925       28.84345       38.31677
H          6.01866       29.68762       39.66353
H          5.03840       28.87016       38.39862
N          8.09347       30.31466       33.40851
C          8.14716       30.40828       31.95050
C          9.31880       29.60456       31.42190
O         10.25232       29.35306       32.16767
C          8.31515       31.88888       31.52417
C          7.23857       32.80861       32.11339
O          8.34175       32.01076       30.12374
H          8.89309       30.70619       33.92289
H          7.21409       29.99729       31.50730
H          9.29292       32.25265       31.91341
H          7.45626       31.71906       29.78171
H          7.26937       32.78385       33.22370
H          7.42945       33.85465       31.79175
H          6.22862       32.50122       31.77206
N          9.32794       29.14654       30.13645
C         10.43747       28.35570       29.60440
C         11.71335       29.18381       29.47908
O         11.65270       30.40361       29.55479
C         10.06499       27.69391       28.24846
C          9.82731       28.70063       27.11725
O          8.90869       26.91164       28.40109
H          8.49509       29.31705       29.55463
H         10.62502       27.53040       30.32495
H         10.90033       27.04642       27.90672
H          9.17250       26.10636       28.91642
H         10.74124       29.30152       26.92929
H          9.57836       28.15267       26.18322
H          8.98563       29.38396       27.34953
N         12.91860       28.56414       29.31415
C         14.18261       29.28135       29.17614
C         15.41570       28.44296       29.54117
O         16.33423       29.02584       30.10071
C         14.30615       29.97594       27.80132
C         14.29869       29.01434       26.59909
C         14.41123       29.81332       25.28490
C         14.45560       28.93960       24.01906
N         13.20883       28.20542       23.80139
H         12.92624       27.54684       29.35373
H         14.17589       30.08868       29.94354
H         15.24513       30.57189       27.78790
H         13.45724       30.68385       27.68437
H         13.35349       28.43243       26.61052
H         15.15652       28.31172       26.67497
H         15.35367       30.40289       25.31429
H         13.56130       30.52601       25.20083
H         15.31034       28.23014       24.07550
H         14.62626       29.60849       23.14535
H         13.28078       27.67520       22.90259
H         13.04323       27.52530       24.57461
H         12.40458       28.87056       23.73437
N         15.51238       27.09553       29.31345
C         16.64938       26.28488       29.75850
C         17.34894       25.68616       28.56228
O         16.73123       24.94540       27.81036
C         16.16846       25.19060       30.74148
C         17.24929       24.16967       31.17485
C         18.52737       24.76002       31.73289
O         19.58345       24.54095       31.16207
O         18.54233       25.49571       32.86241
H         14.75656       26.60619       28.81571
H         17.38195       26.90708       30.31606
H         15.33784       24.61171       30.28082
H         15.75412       25.69192       31.63212
H         17.51088       23.55483       30.28644
H         16.80664       23.48270       31.92894
N         18.66602       25.96133       28.34521
C         19.43131       25.41216       27.24746
H         20.28393       24.82957       27.65575
H         18.82532       24.74361       26.60175
H         19.82751       26.24319       26.62816
H         19.16598       26.58608       28.99606
Ca        16.65609       25.89014       33.98467
O         16.71119       27.87420       37.07867
H         16.76141       28.86261       37.11197
H         16.29494       27.61789       37.93986
O         17.76775       28.37876       32.93222
H         18.41000       28.56524       32.20274
H         17.13670       29.14069       32.91574
O         19.48627       27.40297       35.29403
H         20.13845       27.96650       34.80655
H         19.86431       26.48904       35.24729

Ca 1.0



