%chk=apoCaM-CA-Ng.loop2.water3.frame268.chk
%nprocshared=20
%mem=10GB
%nosave
#b3lyp/svp scf=(tight,noincore,xqc) Test 
#IOP(5/87=12) Density=Current Pop=(MK,readradii) iop(6/33=2) iop(6/42=6)

apoCaM-CA-Ng.loop2.water3.frame268 

   -2  1 
C         13.31657       37.25509       14.44871
C         11.95338       37.81043       14.73919
O         10.97019       37.24686       14.28636
H         13.82366       36.98985       15.39973
H         13.24877       36.34686       13.81214
H         13.92109       38.01827       13.91556
N         11.82479       38.91407       15.52429
C         10.54350       39.54467       15.83632
C         10.00528       40.26757       14.61573
O         10.70328       41.11919       14.08066
C         10.71782       40.55717       16.98827
C         11.13864       39.91160       18.28695
O         11.33776       40.68277       19.37158
O         11.29126       38.70242       18.37773
H         12.68522       39.31010       15.93481
H          9.81674       38.77660       16.18461
H          9.75113       41.07500       17.17027
H         11.47627       41.31890       16.70304
N          8.76282       39.98791       14.12278
C          8.24337       40.61841       12.91268
C          8.71013       39.88664       11.66314
O          8.42436       40.35676       10.57089
C          6.71800       40.72564       12.97690
H          8.19599       39.25772       14.58089
H          8.62786       41.66155       12.85101
H          6.32968       41.25185       12.07811
H          6.25230       39.72016       13.03828
H          6.42543       41.31605       13.87230
N          9.47546       38.75700       11.74951
C         10.11210       38.09050       10.62666
C          9.07175       37.52972        9.67871
O          9.00879       37.94136        8.52808
C         11.12925       39.05676        9.97323
C         12.06861       38.39258        9.00503
O         12.92408       39.06435        8.45250
O         12.00710       37.06804        8.76237
H          9.67496       38.35707       12.66885
H         10.69933       37.23324       11.02950
H         11.75871       39.49696       10.77773
H         10.60025       39.88515        9.45715
N          8.22797       36.54967       10.11133
C          7.19494       35.96389        9.27375
C          7.46878       34.51792        8.92164
O          6.65646       33.95708        8.19932
H          8.32848       36.19243       11.07448
H          7.10438       36.51218        8.31234
H          6.21857       36.04862        9.79787
N          8.58025       33.84818        9.35647
C          8.89487       32.47838        8.95248
C          8.80213       31.56348       10.17643
O          8.67677       32.06615       11.28617
C         10.28032       32.51877        8.24792
C         10.71481       31.32964        7.41846
N         11.89762       31.37577        6.76299
O         10.00604       30.34784        7.28806
H          9.24936       34.31871        9.98400
H          8.13514       32.12897        8.22061
H         11.06003       32.74946        9.00665
H         10.25331       33.36480        7.52547
H         12.49679       32.21141        6.81883
H         12.20945       30.58226        6.18349
N          8.74707       30.20918       10.04230
C          8.49031       29.28865       11.13641
C          9.58891       28.26619       11.26170
O          9.95935       27.66462       10.26154
H          8.79265       29.78936        9.10995
H          7.54951       28.74866       10.89639
H          8.33139       29.81032       12.10460
N         10.10503       27.95345       12.48551
C         11.10221       26.90153       12.66031
C         12.48473       27.33251       12.18617
O         13.33289       26.47167       12.01709
C         11.14761       26.36980       14.11897
C         11.59231       27.40883       15.16235
O          9.90574       25.81251       14.47683
H          9.70450       28.42103       13.31144
H         10.78333       26.03675       12.03388
H         11.89033       25.54304       14.15329
H          9.25111       26.55076       14.58186
H         12.60396       27.79098       14.92733
H         10.89303       28.26754       15.21334
H         11.62711       26.93259       16.16488
N         12.78904       28.64966       11.98398
C         14.09388       29.10812       11.50232
C         13.92947       30.32620       10.60452
O         12.85275       30.89868       10.53150
C         15.06869       29.43694       12.67778
C         14.43326       30.45636       13.66204
C         15.52764       28.15455       13.39327
C         15.38780       30.94830       14.75043
H         12.07560       29.35887       12.19676
H         14.53676       28.32403       10.84892
H         15.98755       29.88735       12.24085
H         13.54060       30.00750       14.14902
H         14.10220       31.35250       13.09534
H         15.97758       27.45248       12.65912
H         16.31291       28.37578       14.14377
H         14.68768       27.65011       13.90688
H         15.71599       30.12101       15.41103
H         16.27471       31.43394       14.29163
H         14.86371       31.69438       15.38482
N         14.98972       30.76719        9.86728
C         14.89780       31.93714        9.00683
C         15.89384       31.79761        7.86100
O         16.75579       32.64133        7.67368
C         15.03234       33.20673        9.88289
C         14.83966       34.49883        9.13970
O         14.68332       34.51303        7.92897
O         14.87688       35.66810        9.80451
H         15.86892       30.22883        9.88785
H         13.90111       31.95081        8.52849
H         16.03392       33.21572       10.36918
H         14.26416       33.16998       10.68386
N         15.81056       30.69536        7.06114
C         16.71966       30.36796        5.95852
C         18.15744       30.31858        6.47986
O         18.34712       29.77176        7.55844
C         16.30933       28.97757        5.40243
C         17.12859       28.50069        4.22683
C         16.98842       29.09187        2.95801
C         18.03107       27.43623        4.38924
C         17.75263       28.63400        1.87828
C         18.79459       26.98487        3.30988
C         18.65708       27.58350        2.05556
H         15.06011       30.02122        7.28293
H         16.60884       31.13032        5.16008
H         15.23977       28.98224        5.09471
H         16.40113       28.24926        6.23824
H         16.29035       29.90594        2.80540
H         18.15223       26.96209        5.35489
H         17.64505       29.09281        0.90366
H         19.49371       26.17055        3.44786
H         19.25001       27.23098        1.22145
N         19.23226       30.84228        5.80014
C         20.59997       30.76301        6.30212
C         20.91669       31.82041        7.34791
O         22.02907       31.83192        7.85635
C         21.46527       31.04768        5.05841
C         20.53388       30.68382        3.91251
C         19.23397       31.28608        4.42579
H         20.77651       29.72076        6.65242
H         21.62793       32.14806        4.96021
H         22.46328       30.55998        5.06384
H         20.86243       31.06909        2.92399
H         20.42710       29.57683        3.86372
H         19.31870       32.39668        4.41116
H         18.35676       31.00574        3.83046
N         20.03052       32.82562        7.60544
C         20.36325       34.01195        8.37786
C         20.69035       33.66318        9.81700
O         21.78592       33.97499       10.26198
C         19.19935       35.02842        8.30920
C         19.60475       36.41238        8.83911
C         18.39251       37.28257        8.95828
O         17.64059       37.60092        7.88820
O         18.01680       37.62992       10.06659
H         19.11680       32.81128        7.13855
H         21.24373       34.48907        7.89134
H         18.33441       34.62600        8.88342
H         18.86904       35.15875        7.25396
H         20.35851       36.87955        8.16946
H         20.04807       36.29989        9.85091
N         19.77829       33.02311       10.60359
C         20.01320       32.70037       11.99725
H         21.00331       33.05448       12.35440
H         19.22964       33.18059       12.62063
H         19.96031       31.60096       12.13786
H         18.86881       32.74884       10.20242
Ca        15.49894       37.35832        8.47445
O         15.80336       40.22537        7.48718
H         16.75290       40.46620        7.63115
H         15.74367       40.01425        6.52157
O         13.67732       37.18199        6.06997
H         13.38231       36.25995        5.86378
H         12.84042       37.71018        6.09383
O         14.92527       38.70694       11.29647
H         14.43894       39.45908       11.71850
H         15.81065       38.70330       11.73989

Ca 1.0



