%chk=apoCaM-CA-Ng.loop2.water4.frame681.chk
%nprocshared=20
%mem=10GB
%nosave
#b3lyp/svp scf=(tight,noincore,xqc) Test 
#IOP(5/87=12) Density=Current Pop=(MK,readradii) iop(6/33=2) iop(6/42=6)

apoCaM-CA-Ng.loop2.water4.frame681 

   -2  1 
C        -10.88588       61.85592       68.53079
C        -11.81159       62.22122       67.40474
O        -11.34073       62.45479       66.30088
H        -10.12571       62.65205       68.67004
H        -11.44049       61.73184       69.48572
H        -10.37604       60.89762       68.29738
N        -13.15684       62.24331       67.60858
C        -14.13897       62.54498       66.57686
C        -14.80179       61.24643       66.15116
O        -15.33397       60.53127       66.98989
C        -15.14510       63.57793       67.12180
C        -16.30299       63.80467       66.18959
O        -17.55588       63.53632       66.60637
O        -16.11906       64.22035       65.05707
H        -13.51433       61.96951       68.53748
H        -13.65067       62.99136       65.68125
H        -14.61971       64.54309       67.29909
H        -15.54883       63.22311       68.09426
N        -14.78747       60.88222       64.83492
C        -15.28841       59.59977       64.33566
C        -14.32696       58.48796       64.74823
O        -13.26636       58.82322       65.26109
C        -15.39684       59.69399       62.80538
H        -14.37901       61.54443       64.15622
H        -16.30005       59.41938       64.76175
H        -14.40341       59.91927       62.36327
H        -15.77774       58.78060       62.32279
H        -16.09583       60.51850       62.54711
N        -14.56705       57.14625       64.62141
C        -15.77683       56.48435       64.12512
C        -16.69394       56.08540       65.27299
O        -16.28295       55.38345       66.18411
C        -15.45338       55.24658       63.22297
C        -14.64604       54.14580       63.88591
O        -14.42999       53.09485       63.30398
O        -14.19859       54.32924       65.13821
H        -13.82491       56.55216       65.00657
H        -16.36212       57.17003       63.49755
H        -14.93073       55.57561       62.29895
H        -16.42627       54.79970       62.91739
N        -17.99279       56.49057       65.26248
C        -18.96545       56.10870       66.26894
C        -18.61159       56.66996       67.62725
O        -18.15764       57.80577       67.66543
H        -18.32986       57.07468       64.48265
H        -19.09645       55.01268       66.25391
H        -19.93864       56.56159       65.98091
N        -18.88444       56.04430       68.81168
C        -19.54941       54.75048       69.00052
C        -18.83022       53.94570       70.08361
O        -17.87635       54.43793       70.66629
C        -21.00684       55.04060       69.42448
C        -21.77992       55.70893       68.31161
N        -22.21401       54.99256       67.24743
O        -22.03212       56.90266       68.38039
H        -18.70074       56.59313       69.66752
H        -19.55742       54.13440       68.08456
H        -20.97723       55.71164       70.31132
H        -21.56145       54.12477       69.71762
H        -22.04714       53.97712       67.19292
H        -22.74992       55.44661       66.49222
N        -19.27234       52.70706       70.44898
C        -18.68774       51.97861       71.56833
C        -17.34042       51.33079       71.29124
O        -16.71585       50.89040       72.24695
H        -20.10689       52.31264       69.99047
H        -19.36870       51.14999       71.86165
H        -18.62435       52.66053       72.44377
N        -16.88988       51.10161       70.02499
C        -15.73243       50.24509       69.74836
C        -14.42252       50.99896       69.90852
O        -14.18801       51.94406       69.16879
C        -15.84189       49.64824       68.31584
C        -14.61873       48.81250       67.91632
O        -16.96921       48.81305       68.21695
H        -17.48331       51.40393       69.23763
H        -15.75111       49.37239       70.44008
H        -15.91734       50.47522       67.58237
H        -17.77937       49.37952       68.27649
H        -13.68421       49.39813       67.98698
H        -14.51804       47.92155       68.56841
H        -14.72567       48.48239       66.86046
N        -13.48584       50.57673       70.80683
C        -12.12443       51.10469       70.84909
C        -11.26832       50.36490       69.80900
O        -11.13539       49.15246       69.92549
C        -11.51386       50.95366       72.28539
C        -10.06320       51.51049       72.31620
C        -12.40108       51.65861       73.33585
C         -9.36096       51.40380       73.67269
H        -13.71579       49.77842       71.41896
H        -12.15262       52.19207       70.63476
H        -11.47805       49.87302       72.54818
H        -10.06916       52.56864       72.00861
H         -9.44128       50.95278       71.58571
H        -12.45563       52.75128       73.14416
H        -13.42972       51.24290       73.33357
H        -12.01216       51.49331       74.36200
H         -9.33914       50.34865       74.01616
H         -8.31634       51.76936       73.57366
H         -9.85495       52.03582       74.43895
N        -10.62869       51.02759       68.79367
C         -9.74662       50.41393       67.80633
C         -8.28629       50.85919       67.94090
O         -7.45761       50.26456       67.27244
C        -10.16482       50.82363       66.37463
C        -11.60207       50.56401       66.04904
O        -12.57065       51.16358       66.75608
O        -11.90164       49.85788       65.10162
H        -10.77984       52.02460       68.69050
H         -9.77938       49.30767       67.92319
H         -9.51748       50.30220       65.63619
H         -9.98920       51.91479       66.25502
N         -7.89243       51.91470       68.72772
C         -6.49648       52.35222       68.79723
C         -6.41746       53.88038       68.96029
O         -5.83926       54.33925       69.93382
C         -5.82685       51.50463       69.91018
C         -4.32554       51.58688       70.08833
C         -3.78965       51.70055       71.38546
C         -3.44401       51.45035       68.99917
C         -2.40616       51.67050       71.58864
C         -2.05890       51.43949       69.20683
C         -1.54122       51.54256       70.50039
H         -8.58050       52.41636       69.29746
H         -5.98663       52.11813       67.83855
H         -6.01855       50.44192       69.64829
H         -6.34520       51.69652       70.87587
H         -4.44133       51.77460       72.24712
H         -3.81946       51.34236       67.99105
H         -2.00470       51.73190       72.59248
H         -1.38481       51.33445       68.36623
H         -0.47053       51.51344       70.66105
N         -6.97945       54.73870       68.03871
C         -6.98627       56.20432       68.13004
C         -7.48045       56.74652       69.45691
O         -6.98307       57.76669       69.91440
C         -7.99269       56.62093       67.04470
C         -7.76305       55.57156       65.98947
C         -7.66380       54.30245       66.83521
H         -5.96933       56.58929       67.89543
H         -9.03476       56.47174       67.41410
H         -7.89598       57.67529       66.70444
H         -8.51729       55.53708       65.17501
H         -6.76859       55.77725       65.53397
H         -8.66124       53.91400       67.12438
H         -7.10256       53.54039       66.25550
N         -8.49413       56.11735       70.10690
C         -9.04917       56.55619       71.37725
C         -7.95677       56.46998       72.42161
O         -7.64475       57.46706       73.05625
C        -10.27073       55.72350       71.86420
C        -11.50538       55.66526       70.93859
C        -11.48146       54.66587       69.83111
O        -12.58757       54.56659       69.07089
O        -10.53299       53.93631       69.65579
H         -8.83824       55.27284       69.66882
H         -9.41117       57.60266       71.26380
H        -10.62277       56.24234       72.78309
H         -9.98779       54.70351       72.17205
H        -11.70958       56.66858       70.51074
H        -12.37748       55.35164       71.54883
N         -7.29590       55.29160       72.60698
C         -6.18783       55.15314       73.52382
H         -5.38314       55.86880       73.25044
H         -6.52354       55.34176       74.56400
H         -5.77418       54.12328       73.45756
H         -7.56223       54.46784       72.04575
Ca       -13.25450       53.70793       67.08172
O        -16.07384       52.54328       66.11339
O        -10.97372       54.50859       65.76617
H        -15.68264       51.76562       65.64109
H        -10.73254       55.43352       66.01403
H        -17.02982       52.31914       66.23171
H        -10.89218       54.01184       66.61758
O        -13.12296       56.57610       67.46850
H        -13.61744       57.42029       67.60370
H        -12.22666       56.84657       67.15043
O        -15.28916       55.09832       68.94881
H        -15.64116       54.73483       69.79682
H        -15.49611       56.06529       68.98345

Ca 1.0



