%chk=apoCaM-CA-Ng.loop2.water3.frame805.chk
%nprocshared=20
%mem=10GB
%nosave
#b3lyp/svp scf=(tight,noincore,xqc) Test 
#IOP(5/87=12) Density=Current Pop=(MK,readradii) iop(6/33=2) iop(6/42=6)

apoCaM-CA-Ng.loop2.water3.frame805 

   -2  1 
C         28.72482       94.35794       79.53266
C         28.43161       95.47123       80.49281
O         29.17648       95.64907       81.44621
H         29.64642       93.81314       79.82998
H         27.87485       93.64439       79.51955
H         28.86990       94.77354       78.51323
N         27.35311       96.27708       80.28653
C         27.00119       97.39014       81.15614
C         27.15550       98.67899       80.36940
O         26.19326       99.40795       80.16910
C         25.58233       97.16256       81.71880
C         25.18230       98.23267       82.69846
O         25.90929       98.43462       83.81438
O         24.19201       98.91587       82.49234
H         26.75956       96.10444       79.45969
H         27.69641       97.45146       82.02281
H         25.55898       96.18851       82.25399
H         24.85009       97.11448       80.88244
N         28.39022       99.01499       79.90151
C         28.68302      100.23568       79.15876
C         29.28882       99.88912       77.80170
O         29.64150       98.73411       77.60232
C         29.68275      101.04286       80.00024
H         29.17685       98.37766       80.10555
H         27.75606      100.82634       79.01100
H         29.23749      101.26950       80.99191
H         30.60890      100.44833       80.16144
H         29.97897      101.99929       79.54080
N         29.48634      100.79996       76.80049
C         28.99346      102.17985       76.77191
C         27.47871      102.20533       76.60868
O         26.85931      101.14966       76.57979
C         29.69897      102.95875       75.63013
C         29.39681      102.44151       74.24889
O         28.26363      102.49693       73.79914
O         30.38854      101.94493       73.48755
H         29.98952      100.45869       75.96587
H         29.27325      102.71522       77.69389
H         30.79515      102.89999       75.80858
H         29.42906      104.03482       75.66662
N         26.81381      103.38128       76.42495
C         25.39297      103.41268       76.13157
C         24.55253      103.06854       77.33697
O         25.08800      102.95247       78.43084
H         27.33267      104.27091       76.40830
H         25.19190      102.72330       75.28565
H         25.10265      104.43868       75.81682
N         23.20032      102.94196       77.24804
C         22.45668      102.93283       75.99059
C         22.60834      101.55854       75.34338
O         22.28492      100.58211       76.00833
C         20.96469      103.21944       76.29557
C         20.07912      103.34395       75.07683
N         18.76286      103.61576       75.23373
O         20.53667      103.21233       73.95106
H         22.67688      102.80060       78.12778
H         22.80634      103.75821       75.33188
H         20.90204      104.18469       76.84536
H         20.55580      102.42251       76.95528
H         18.35962      103.73544       76.17493
H         18.14473      103.70991       74.41432
N         23.05531      101.38375       74.06025
C         23.11843      100.04086       73.48887
C         23.47152       99.99483       72.01266
O         22.63134       99.56897       71.23263
H         23.30190      102.20449       73.48639
H         22.11174       99.57936       73.60142
H         23.84539       99.42268       74.05926
N         24.70246      100.36432       71.55663
C         25.09564      100.29665       70.14364
C         26.31717       99.36490       69.91270
O         27.10209       99.17367       71.05042
C         25.43751      101.70310       69.61281
C         24.21524      102.62621       69.63896
O         26.47852      102.26574       70.36791
H         25.39030      100.71558       72.23802
H         24.26356       99.92195       69.50696
H         25.76039      101.58796       68.54980
H         26.86801      102.99255       69.81559
H         23.39502      102.19088       69.02854
H         23.85490      102.77731       70.67793
H         24.48271      103.61363       69.20685
N         26.02142       98.11522       69.20396
C         27.21024       97.27673       68.90566
C         28.21255       97.96375       67.96346
O         27.83329       98.30347       66.85095
C         26.73238       95.93749       68.24910
C         27.93318       94.99120       67.95671
C         25.68584       95.24234       69.14312
C         27.55020       93.72013       67.19339
H         25.54397       98.35485       68.30314
H         27.71532       97.01348       69.86152
H         26.23819       96.18280       67.28131
H         28.43708       94.71160       68.90729
H         28.67338       95.51639       67.31718
H         25.27681       94.33598       68.65431
H         26.13146       94.96130       70.12032
H         24.81569       95.90727       69.32376
H         26.87206       93.07314       67.78399
H         27.06529       93.98213       66.22860
H         28.46683       93.13127       66.97740
N         29.53303       98.09554       68.31378
C         30.58190       98.51714       67.37724
C         31.62588       97.41021       67.13202
O         32.47835       97.63497       66.28226
C         31.35162       99.77961       67.86601
C         30.63552      101.10006       67.71598
O         31.02971      101.89662       66.87845
O         29.63675      101.47991       68.52639
H         29.82005       97.81219       69.26223
H         30.14623       98.73929       66.37832
H         32.24725       99.88561       67.21419
H         31.73215       99.64717       68.90194
N         31.68834       96.23803       67.83921
C         32.80350       95.29972       67.67106
C         32.81783       94.24247       68.77528
O         31.90068       93.43325       68.82358
C         32.78818       94.56278       66.30395
C         33.91540       93.54154       66.26742
C         33.62271       92.16499       66.29532
C         35.26041       93.95253       66.28540
C         34.65399       91.22280       66.36230
C         36.28891       93.00553       66.34729
C         35.98565       91.64251       66.39213
H         31.00321       96.05426       68.58472
H         33.73763       95.89123       67.72422
H         32.88088       95.26127       65.44643
H         31.80889       94.04405       66.20777
H         32.59654       91.81984       66.29885
H         35.51256       95.00508       66.27205
H         34.41998       90.16666       66.40590
H         37.32177       93.32823       66.37504
H         36.78187       90.91146       66.45554
N         33.86236       94.13889       69.65947
C         34.02987       93.04497       70.60925
C         33.10165       93.14455       71.80852
O         33.26657       92.36089       72.73373
C         35.50520       93.18036       71.01622
C         35.69927       94.67820       71.01025
C         34.97775       95.06707       69.72733
H         33.90295       92.04843       70.13108
H         35.79490       92.65794       71.95264
H         36.13484       92.77653       70.18895
H         35.13312       95.09091       71.87671
H         36.74959       95.03405       71.06908
H         34.65632       96.12844       69.81188
H         35.62259       94.92190       68.83546
N         32.10976       94.07587       71.87506
C         31.25699       94.25370       73.04179
C         30.34782       93.05680       73.31637
O         29.66350       93.08397       74.33062
C         30.42621       95.55071       72.89725
C         31.34115       96.78544       72.74886
C         30.55232       98.05284       72.70393
O         29.79375       98.41008       73.75467
O         30.62438       98.78424       71.73144
H         31.97892       94.71864       71.08848
H         31.91609       94.38510       73.92876
H         29.80542       95.67985       73.81068
H         29.74672       95.47407       72.01785
H         31.94774       96.72350       71.82118
H         32.03796       96.84203       73.61093
N         30.28834       91.96662       72.49595
C         29.46597       90.81761       72.81136
H         28.39780       91.11424       72.86742
H         29.58205       90.03931       72.02696
H         29.78231       90.38253       73.78427
H         30.83947       91.92518       71.62841
Ca        28.82629      100.32048       70.23443
O         32.20599      101.59277       71.11960
H         32.55754      100.75032       71.50303
H         32.50968      102.29525       71.74799
O         27.34055       99.64687       73.98645
H         26.99455       98.80974       74.38488
H         26.63184      100.31487       74.15546
O         29.33635      103.69048       71.02071
H         29.19670      103.82035       70.04938
H         29.98613      104.39328       71.27313

Ca 1.0



