%chk=apoCaM-CA-Ng.loop2.water4.frame1210.chk
%nprocshared=20
%mem=10GB
%nosave
#b3lyp/svp scf=(tight,noincore,xqc) Test 
#IOP(5/87=12) Density=Current Pop=(MK,readradii) iop(6/33=2) iop(6/42=6)

apoCaM-CA-Ng.loop2.water4.frame1210 

   -2  1 
C         11.74914       70.92109      107.74451
C         10.96156       71.65557      106.68588
O         10.88985       72.87074      106.79655
H         12.77841       71.33885      107.76629
H         11.28148       71.08559      108.73699
H         11.86409       69.83627      107.59060
N         10.36662       71.06456      105.60538
C         10.30061       69.63013      105.32791
C          8.87832       69.22113      104.94011
O          7.99278       70.06405      104.89097
C         11.35663       69.23830      104.26615
C         11.09636       69.86042      102.92989
O         11.08211       71.07482      102.80698
O         10.81208       69.08646      101.86640
H          9.93070       71.69711      104.91578
H         10.53801       69.04488      106.23226
H         11.36256       68.13460      104.14790
H         12.36598       69.53733      104.62306
N          8.59335       67.91154      104.68604
C          7.26328       67.36188      104.43335
C          6.58744       67.78487      103.13154
O          5.50988       67.25459      102.89374
C          6.33887       67.60981      105.63537
H          9.36263       67.22821      104.74682
H          7.38339       66.25739      104.35346
H          6.81172       67.21878      106.56101
H          6.11907       68.68812      105.76845
H          5.37344       67.07707      105.49566
N          7.12357       68.65941      102.22119
C          6.46407       68.92967      100.93856
C          7.24951       68.36939       99.76391
O          8.37536       67.92084       99.92771
C          6.00597       70.40178      100.78401
C          6.93963       71.54197      101.13016
O          6.56466       72.36556      101.95062
O          8.10891       71.76797      100.50203
H          8.03410       69.10297      102.40275
H          5.51976       68.34732      100.87423
H          5.12471       70.51999      101.45376
H          5.63453       70.55665       99.74899
N          6.62056       68.22555       98.55952
C          7.20421       67.53304       97.42453
C          8.31921       68.32416       96.80429
O          8.07286       69.42913       96.34346
H          5.64120       68.53554       98.46908
H          6.42724       67.39068       96.64251
H          7.53912       66.52191       97.74549
N          9.57981       67.81521       96.74426
C         10.69622       68.55316       96.15801
C         10.51189       68.73725       94.65525
O          9.58299       68.17694       94.08659
C         12.02572       67.82227       96.45978
C         12.30249       67.67990       97.94453
N         13.40198       67.01549       98.36570
O         11.53970       68.15740       98.77272
H          9.75298       66.88813       97.16401
H         10.73592       69.55580       96.63124
H         12.87707       68.37558       96.01031
H         11.98757       66.80802       96.00476
H         14.05672       66.59889       97.68847
H         13.59390       66.91069       99.37346
N         11.36968       69.52640       93.94361
C         11.24913       69.73359       92.50517
C          9.96375       70.45654       92.12146
O          9.20701       70.83534       93.00174
H         12.15240       69.98606       94.43278
H         11.29082       68.74064       92.01001
H         12.10986       70.33791       92.15030
N          9.60972       70.66976       90.81656
C         10.41034       70.24253       89.67443
C         11.66478       71.07800       89.48085
O         12.49276       70.65116       88.69108
C          9.59213       70.26528       88.35671
C          8.45036       69.24297       88.38523
O          9.08620       71.55714       88.13154
H          8.69190       71.10954       90.64192
H         10.72364       69.18818       89.84050
H         10.27026       69.97708       87.51845
H          8.80836       71.59760       87.17921
H          8.86371       68.22132       88.52924
H          7.73166       69.46063       89.20112
H          7.90682       69.26031       87.41680
N         11.86598       72.28230       90.10964
C         13.08211       73.06915       89.88857
C         13.81916       73.33689       91.20474
O         13.22215       73.16522       92.25586
C         12.76871       74.41760       89.15658
C         11.90991       75.38469       90.01666
C         12.13532       74.15714       87.78033
C         11.84761       76.80531       89.44601
H         11.14160       72.66232       90.73288
H         13.75085       72.47764       89.24206
H         13.72985       74.92214       88.96466
H         12.36799       75.48824       91.02194
H         10.88242       74.98396       90.14579
H         12.01741       75.09949       87.20787
H         12.79318       73.49393       87.17971
H         11.13991       73.67822       87.88748
H         11.27088       77.45740       90.13579
H         12.87376       77.22106       89.35595
H         11.35374       76.83526       88.45536
N         15.10053       73.82440       91.25100
C         15.99613       73.91523       90.10185
C         16.14216       75.33847       89.61715
O         15.77978       76.27200       90.31894
C         17.36933       73.29223       90.44364
C         17.30262       71.84033       90.85470
O         16.24425       71.23105       90.87914
O         18.43617       71.20375       91.20477
H         15.48198       74.09516       92.17246
H         15.59435       73.35853       89.24160
H         17.82489       73.86693       91.27862
H         18.04401       73.36481       89.56323
N         16.59956       75.55446       88.35433
C         16.73067       76.87050       87.74821
C         15.37373       77.54179       87.54753
O         14.53279       76.93379       86.89633
C         17.38403       76.73522       86.35077
C         17.74110       78.09319       85.80386
C         16.84532       78.81453       84.99484
C         18.97502       78.66624       86.14625
C         17.18502       80.09405       84.54228
C         19.31185       79.94080       85.68851
C         18.41667       80.65652       84.88995
H         16.86975       74.72952       87.79310
H         17.41631       77.46982       88.38089
H         16.71576       76.18762       85.64652
H         18.31358       76.12952       86.42130
H         15.88200       78.39679       84.72850
H         19.67201       78.12462       86.77370
H         16.49037       80.65403       83.92950
H         20.26502       80.37421       85.96010
H         18.67713       81.64796       84.54430
N         15.10695       78.82488       87.94971
C         16.01725       79.70357       88.67248
C         16.13052       79.32743       90.13173
O         17.22962       79.22499       90.65605
C         15.36032       81.09260       88.56087
C         14.56529       80.96954       87.27596
C         13.97248       79.57786       87.45168
H         16.99448       79.74334       88.14248
H         14.60346       81.23934       89.36492
H         16.07718       81.93996       88.61559
H         13.81887       81.77660       87.12018
H         15.27287       80.95455       86.41889
H         13.18347       79.61147       88.23584
H         13.53931       79.18661       86.50648
N         14.98726       79.12775       90.84763
C         14.93544       78.89837       92.28110
C         15.27829       80.20618       92.98649
O         14.56020       81.17434       92.77649
C         13.50044       78.44848       92.64794
C         13.29544       78.13792       94.13368
C         11.87302       77.71494       94.37914
O         11.60549       76.48987       94.86941
O         10.95252       78.47966       94.13419
H         14.09199       79.15807       90.33802
H         15.62129       78.06505       92.54194
H         13.26929       77.52776       92.06808
H         12.77951       79.23839       92.33774
H         13.50917       79.03660       94.74996
H         13.98541       77.32171       94.43800
N         16.33914       80.35651       93.82663
C         17.27574       79.30375       94.14299
H         18.04647       79.69045       94.84358
H         16.74930       78.45607       94.62803
H         17.78821       78.96002       93.22126
H         16.49309       81.28017       94.26126
Ca         9.73871       70.26001      100.29985
O          8.39382       71.96843       97.69057
H          7.47476       71.61146       97.78379
H          8.35400       72.86729       98.10328
O         10.93391       73.52325      100.15749
H         10.02373       73.91148      100.12434
H         11.43080       73.99740       99.44415
O         13.27815       70.58316      100.23277
H         13.61327       69.66130      100.09831
H         13.93396       71.15627       99.76184
O         11.65423       71.77388       97.70840
H         11.05171       71.99128       96.95339
H         12.44799       71.36358       97.28198

Ca 1.0



