%chk=apoCaM-CA-Ng.loop2.water4.frame1318.chk
%nprocshared=20
%mem=10GB
%nosave
#b3lyp/svp scf=(tight,noincore,xqc) Test 
#IOP(5/87=12) Density=Current Pop=(MK,readradii) iop(6/33=2) iop(6/42=6)

apoCaM-CA-Ng.loop2.water4.frame1318 

   -2  1 
C         46.08025       20.28464       87.38851
C         45.45334       21.64666       87.52130
O         46.16936       22.60531       87.26895
H         46.94879       20.22048       88.07577
H         45.41975       19.42934       87.59353
H         46.44667       20.16962       86.34582
N         44.15331       21.88564       87.86720
C         43.11539       20.90221       88.19968
C         42.46587       21.18780       89.56761
O         41.57686       20.43972       89.94911
C         42.07266       20.88985       87.04259
C         41.39180       22.21939       86.85119
O         40.65715       22.52260       85.77018
O         41.52944       23.09057       87.68310
H         43.87345       22.87760       87.84989
H         43.52719       19.88214       88.25939
H         41.30464       20.10051       87.19306
H         42.62841       20.65163       86.11009
N         42.85119       22.24440       90.35270
C         42.26322       22.58316       91.65041
C         41.66725       23.99997       91.65717
O         41.30713       24.48416       92.72109
C         43.36494       22.47605       92.71070
H         43.61613       22.85704       90.03857
H         41.45988       21.86898       91.93563
H         44.18750       23.19145       92.49532
H         42.95661       22.69187       93.72142
H         43.77963       21.44536       92.72130
N         41.50176       24.70488       90.50119
C         41.01373       26.08003       90.39722
C         39.60864       26.11203       89.81539
O         39.04547       25.05923       89.54637
C         42.00264       26.87506       89.49821
C         42.00981       26.33794       88.08075
O         40.91876       26.46944       87.28973
O         42.98540       25.73349       87.66452
H         41.72924       24.24186       89.62405
H         40.97197       26.55390       91.40213
H         43.01604       26.77572       89.94718
H         41.75931       27.95716       89.46929
N         38.99988       27.30650       89.55654
C         37.69103       27.42063       88.93175
C         37.79184       28.06463       87.56393
O         38.87962       28.42668       87.13775
H         39.49728       28.18210       89.77687
H         37.02702       28.02359       89.58699
H         37.22011       26.42840       88.80562
N         36.66757       28.23245       86.81291
C         36.65889       28.84370       85.48613
C         35.82795       30.10651       85.50619
O         34.73706       30.09600       86.06239
C         36.06586       27.89399       84.42507
C         36.90284       26.66576       84.18062
N         36.34926       25.43345       84.23393
O         38.08265       26.78548       83.88450
H         35.76620       27.91939       87.20694
H         37.68556       29.10720       85.14827
H         36.02817       28.44374       83.45895
H         35.02403       27.61268       84.69601
H         35.35001       25.30808       84.45104
H         36.91828       24.59936       84.03567
N         36.23804       31.21198       84.81783
C         35.41271       32.40374       84.72160
C         35.45292       33.21903       85.99688
O         36.27321       32.92838       86.85726
H         37.11199       31.17398       84.27172
H         34.38517       32.08189       84.45552
H         35.78310       33.05517       83.90631
N         34.60356       34.26258       86.22893
C         33.46267       34.60042       85.37552
C         33.82326       35.39354       84.12035
O         32.93234       35.58579       83.30522
C         32.37459       35.33918       86.19475
C         31.84105       34.45939       87.33479
O         32.88052       36.53396       86.73301
H         34.69323       34.73668       87.14144
H         32.98271       33.65558       85.04372
H         31.49656       35.55422       85.54069
H         32.79962       37.22708       86.02765
H         31.41469       33.51772       86.92590
H         32.64050       34.19670       88.05886
H         31.03961       34.99558       87.88421
N         35.07768       35.87158       83.87318
C         35.44808       36.52150       82.61155
C         35.93559       35.42099       81.67296
O         36.77371       34.64427       82.11091
C         36.54981       37.60581       82.84843
C         36.05933       38.67739       83.86060
C         36.94629       38.27181       81.51373
C         37.10541       39.74942       84.18813
H         35.82889       35.67581       84.55158
H         34.57101       37.04915       82.18092
H         37.45106       37.10533       83.26775
H         35.79419       38.18006       84.81741
H         35.14788       39.18010       83.46872
H         37.80032       38.96471       81.64369
H         37.27209       37.51449       80.77396
H         36.09241       38.84277       81.09132
H         36.69752       40.44290       84.95332
H         38.02919       39.28106       84.58831
H         37.35787       40.36122       83.29813
N         35.50190       35.23880       80.38690
C         34.71451       36.19864       79.60741
C         35.13103       36.18465       78.13346
O         35.79289       35.25729       77.69253
C         33.19755       35.94929       79.74093
C         32.78738       34.59190       79.23202
O         33.26222       33.47471       79.81553
O         32.01008       34.49691       78.29545
H         35.92279       34.44186       79.88683
H         34.94362       37.21700       79.96925
H         32.65287       36.73447       79.16990
H         32.88567       36.03653       80.79906
N         34.78385       37.22076       77.31559
C         35.07704       37.24953       75.88409
C         36.12501       38.31110       75.58908
O         35.92733       39.43865       76.01498
C         33.76086       37.51128       75.11400
C         33.92330       37.39371       73.61044
C         33.34774       36.30514       72.93092
C         34.64485       38.35063       72.86958
C         33.51090       36.16366       71.54986
C         34.80582       38.20390       71.48825
C         34.24357       37.10916       70.82982
H         34.28979       38.02827       77.72482
H         35.43545       36.26123       75.54812
H         33.32555       38.50179       75.37148
H         33.03890       36.73803       75.45791
H         32.78305       35.55566       73.47077
H         35.08800       39.21040       73.35181
H         33.07241       35.31676       71.03865
H         35.37009       38.93837       70.92783
H         34.37336       36.99482       69.76143
N         37.23535       38.06529       74.81074
C         37.52283       36.83162       74.08548
C         37.92324       35.67490       74.97059
O         37.33283       34.61006       74.87308
C         38.68148       37.20641       73.14448
C         38.45059       38.69098       72.93795
C         38.11984       39.12240       74.36073
H         36.64305       36.57702       73.45529
H         39.65929       37.12362       73.66942
H         38.73843       36.58981       72.22172
H         39.30641       39.22939       72.47874
H         37.54895       38.82934       72.30235
H         39.04690       39.09358       74.97729
H         37.67911       40.14083       74.39729
N         38.95150       35.82394       75.85027
C         39.47174       34.73568       76.66084
C         40.49380       33.96744       75.83270
O         41.46853       34.57624       75.41353
C         40.15171       35.30264       77.92470
C         39.16898       36.09817       78.79864
C         39.87680       36.68047       79.98686
O         39.92322       37.89065       80.14076
O         40.46445       35.87216       80.88906
H         39.41352       36.74323       75.91613
H         38.63471       34.09484       77.00925
H         40.98894       35.97266       77.62476
H         40.57140       34.46248       78.52109
H         38.34764       35.43689       79.14872
H         38.71981       36.92569       78.20665
N         40.37540       32.64427       75.52914
C         39.27150       31.81331       75.95088
H         38.31951       32.20472       75.53706
H         39.41598       30.77937       75.57081
H         39.22249       31.77729       77.05913
H         41.11542       32.20276       74.96052
Ca        40.23200       24.73596       85.99269
O         36.80153       24.53613       86.97069
H         35.85285       24.43479       86.70861
H         36.80085       24.35209       87.94154
O         38.26049       22.46631       84.28683
H         38.85198       22.28127       83.51474
H         37.90902       21.58068       84.55396
O         40.98019       25.05274       82.99062
H         40.90379       24.07763       83.14517
H         41.83408       25.30579       83.42367
O         38.07971       21.96223       88.21032
H         38.94980       22.23460       88.59550
H         37.41492       22.22356       88.89617

Ca 1.0



