%chk=apoCaM-CA-Ng.loop4.water3.frame482.chk
%nprocshared=20
%mem=10GB
%nosave
#b3lyp/svp scf=(tight,noincore,xqc) Test 
#IOP(5/87=12) Density=Current Pop=(MK,readradii) iop(6/33=2) iop(6/42=6)

apoCaM-CA-Ng.loop4.water3.frame482 

   -3  1 
C         21.84871       67.20558       76.30406
C         20.37640       66.99095       76.12255
O         20.00670       65.95381       75.59623
H         22.35070       67.19742       75.31374
H         22.05959       68.17262       76.80503
H         22.26425       66.38424       76.92609
N         19.47302       67.91755       76.56053
C         18.02660       67.76398       76.45370
C         17.55746       66.52250       77.19092
O         17.16323       65.55436       76.56670
C         17.47861       68.00656       75.01896
C         18.05500       67.20237       73.88980
O         17.86147       65.87820       73.82054
O         18.65418       67.76581       72.98696
H         19.82388       68.76282       77.03481
H         17.54558       68.60258       77.00657
H         17.67710       69.07619       74.78499
H         16.37403       67.87452       75.02309
N         17.56897       66.54656       78.56099
C         17.08425       65.53956       79.51231
C         15.56566       65.38488       79.44685
O         14.90233       65.78890       80.39238
C         17.85394       64.19196       79.44955
C         17.41945       63.21330       80.58158
C         19.37536       64.41951       79.49609
C         17.67865       63.69907       82.01722
H         17.94253       67.40457       78.99678
H         17.30283       65.97198       80.51330
H         17.62935       63.69768       78.48290
H         17.96807       62.25798       80.44854
H         16.33568       62.98993       80.48377
H         19.67714       64.96385       80.41461
H         19.90664       63.44604       79.46747
H         19.70828       65.01311       78.61968
H         17.35074       62.91821       82.73532
H         18.75767       63.88316       82.19362
H         17.10820       64.62050       82.24974
N         14.93872       64.83572       78.36933
C         13.49272       64.79632       78.22170
C         12.85898       63.65820       79.02530
O         12.00640       63.98746       79.83855
C         13.09154       64.85459       76.73209
C         13.48408       66.15135       76.06090
O         14.13680       67.12228       76.73147
O         13.19400       66.33076       74.88920
H         15.49340       64.48268       77.58690
H         13.06429       65.74379       78.62791
H         11.98596       64.76398       76.65521
H         13.57497       64.04579       76.16475
N         13.18325       62.32605       78.95731
C         14.21169       61.69191       78.14530
C         13.80566       61.49232       76.69532
O         12.70896       61.89040       76.33042
H         12.69948       61.70173       79.62260
H         14.37664       60.67035       78.55005
H         15.15949       62.24236       78.27097
N         14.59301       60.83091       75.78849
C         15.85704       60.15687       76.10365
C         16.91310       61.12390       76.62067
O         16.75990       62.31895       76.41490
C         16.34810       59.34277       74.87547
C         16.68558       60.19591       73.68449
O         16.05188       60.08407       72.64768
O         17.72117       61.05041       73.73769
H         14.22279       60.74236       74.82892
H         15.62610       59.43472       76.91628
H         15.53853       58.63225       74.59860
H         17.24455       58.73745       75.10252
N         17.96825       60.72861       77.39232
C         18.28572       59.36301       77.77322
C         17.82908       59.07766       79.17392
O         17.14834       59.90010       79.77093
H         18.55962       61.46079       77.81166
H         19.38270       59.21551       77.66980
H         17.78905       58.60937       77.14334
N         18.15498       57.89166       79.75532
C         17.66718       57.49583       81.06982
C         18.73656       57.62685       82.14171
O         18.40521       57.42040       83.30160
C         16.92991       56.13454       80.98494
C         17.73414       54.92823       80.46302
C         18.79435       54.46341       81.41601
N         18.45569       53.98970       82.63705
O         19.96459       54.47808       81.07195
H         18.78689       57.25667       79.24556
H         16.89037       58.21685       81.40727
H         16.08783       56.27938       80.27274
H         16.47860       55.89055       81.97057
H         18.17149       55.15786       79.46972
H         17.03669       54.07584       80.31252
H         17.47011       53.94542       82.93231
H         19.17484       53.64221       83.28338
N         19.99510       58.08616       81.85800
C         20.94174       58.50314       82.89152
C         22.20288       57.65725       82.92544
O         23.05151       57.94096       83.75900
C         21.28552       60.01831       82.73070
C         20.01717       60.88308       82.79662
C         22.06597       60.33862       81.44146
H         20.27451       58.23219       80.87828
H         20.48354       58.38907       83.89890
H         21.93051       60.31369       83.58857
H         20.28715       61.95992       82.75975
H         19.34044       60.66300       81.94345
H         19.47019       60.69643       83.74481
H         23.01522       59.76430       81.40496
H         21.47238       60.11280       80.53234
H         22.32758       61.41868       81.41781
N         22.38884       56.58799       82.09698
C         23.57461       55.74215       82.16495
C         24.30699       55.64725       80.83669
O         25.33818       54.98553       80.83726
C         23.17215       54.32091       82.62163
C         22.58714       54.28874       84.01097
N         23.32112       54.65999       85.08505
O         21.44455       53.89376       84.17350
H         21.65490       56.32831       81.42614
H         24.30839       56.14453       82.89599
H         24.06122       53.65341       82.62719
H         22.43757       53.90508       81.89980
H         24.29516       54.97607       84.97759
H         22.91626       54.61580       86.03226
N         23.88756       56.24450       79.67372
C         24.60780       56.01866       78.41753
C         24.17291       56.90059       77.25492
O         23.00399       57.23404       77.11661
C         24.53776       54.52593       77.99510
C         23.12443       53.99599       77.86952
C         22.35648       54.22142       76.71507
C         22.56836       53.24450       78.91838
C         21.06175       53.70167       76.61156
C         21.26974       52.73947       78.82160
C         20.51285       52.96106       77.66829
O         19.26598       52.45478       77.58590
H         23.05523       56.85241       79.67342
H         25.67548       56.27399       78.60306
H         25.06432       53.91614       78.75394
H         25.10402       54.33655       77.05783
H         22.75902       54.78384       75.88840
H         23.13906       53.05661       79.81731
H         20.48799       53.87300       75.70935
H         20.85363       52.17164       79.64424
H         18.71278       52.57274       76.80073
N         25.11618       57.21118       76.31456
C         24.92657       57.89196       75.03585
C         24.59074       59.37175       75.10912
O         24.72269       60.00795       74.07049
C         23.97003       57.11973       74.10443
C         24.53075       55.72742       73.76726
C         23.60170       54.96459       72.86859
O         23.31141       55.40253       71.76664
O         23.09886       53.78072       73.26770
H         26.07620       56.87082       76.48308
H         25.92587       57.88799       74.54054
H         23.85972       57.67868       73.14869
H         22.96529       57.03811       74.57050
H         24.69634       55.14600       74.69704
H         25.51119       55.83700       73.25438
N         24.21480       60.02560       76.24806
C         24.12594       61.48351       76.26694
C         25.51401       62.09885       76.37966
O         25.63234       63.30507       76.20987
C         23.26040       61.99709       77.43433
C         21.80500       61.50551       77.43090
C         21.02631       61.97148       76.23359
O         21.27457       61.53977       75.11978
O         20.02242       62.85099       76.39352
H         24.07086       59.51163       77.12609
H         23.67331       61.83282       75.31443
H         23.24254       63.11063       77.41179
H         23.72976       61.68282       78.39191
H         21.32517       61.92545       78.33922
H         21.75186       60.39909       77.50379
N         26.60714       61.34750       76.70374
C         27.92438       61.92411       76.84478
H         28.25582       62.35192       75.87602
H         27.90975       62.71723       77.62232
H         28.64603       61.13853       77.15617
H         26.51574       60.33861       76.88958
Ca        18.79220       63.45402       74.61662
O         15.52599       64.12346       74.16908
H         15.37113       65.06772       73.91532
H         14.91383       63.60857       73.58655
O         20.77985       63.72182       72.34329
H         21.04322       64.40817       73.00683
H         20.93034       62.85932       72.80535
O         17.40944       63.51760       71.73473
H         18.03616       64.10344       71.24059
H         17.53326       62.62269       71.32987

Ca 1.0



