%chk=apoCaM-CA-Ng.loop3.water5.frame318.chk
%nprocshared=20
%mem=10GB
%nosave
#b3lyp/svp scf=(tight,noincore,xqc) Test 
#IOP(5/87=12) Density=Current Pop=(MK,readradii) iop(6/33=2) iop(6/42=6)

apoCaM-CA-Ng.loop3.water5.frame318 

   0  1 
C         62.52549       76.83238       49.46526
C         63.36432       75.61855       49.75413
O         63.10625       74.56948       49.18091
H         61.48848       76.65565       49.82260
H         62.92355       77.72731       49.98874
H         62.50285       77.04235       48.37575
N         64.35548       75.67795       50.69255
C         65.19588       74.55143       51.08748
C         64.42235       73.36972       51.66881
O         65.06664       72.37248       51.96645
C         66.21634       74.19641       49.98003
C         67.27186       75.27102       49.81755
O         68.17574       75.11315       49.01312
O         67.26573       76.38118       50.58466
H         64.51580       76.57026       51.18080
H         65.82373       74.85897       51.95015
H         65.70387       74.03437       49.01426
H         66.76839       73.27205       50.26268
N         63.08581       73.43026       51.97660
C         62.43123       72.42619       52.81777
C         61.54576       71.51119       51.98486
O         60.42906       71.19370       52.37020
C         61.68447       73.13888       53.97745
C         62.61674       74.06160       54.79973
C         61.85996       75.08569       55.66386
C         61.05966       74.48676       56.82547
N         60.39037       75.54980       57.58083
H         62.52854       74.25797       51.72800
H         63.19724       71.75152       53.25884
H         61.19642       72.40207       54.65194
H         60.89314       73.76371       53.50987
H         63.21628       74.68204       54.10209
H         63.32804       73.46168       55.40903
H         61.17763       75.66728       55.00439
H         62.60423       75.79407       56.08875
H         61.74731       73.93387       57.50324
H         60.29639       73.77993       56.43678
H         59.80583       75.12583       58.33643
H         61.09878       76.18388       58.01828
H         59.76960       76.10815       56.94986
N         62.04761       71.01269       50.82356
C         61.45194       69.95290       50.01330
C         62.59366       69.00608       49.60703
O         63.74877       69.40432       49.68325
C         60.69812       70.61286       48.82348
C         60.06688       69.67217       47.81856
O         60.75457       68.92315       47.15985
O         58.75426       69.70085       47.54559
H         62.94899       71.39605       50.50753
H         60.71995       69.38035       50.62509
H         61.39896       71.27899       48.27507
H         59.89550       71.25715       49.25137
N         62.37986       67.71776       49.22039
C         63.49121       66.83918       48.85696
C         64.15247       67.20199       47.53223
O         65.09464       66.52302       47.15050
H         61.42402       67.33269       49.23421
H         63.11822       65.79921       48.75851
H         64.24808       66.85008       49.67472
N         63.71797       68.25130       46.77965
C         64.24622       68.63805       45.48529
C         65.00104       69.96285       45.59586
O         65.50563       70.43865       44.58857
C         63.07093       68.75855       44.48650
C         62.23754       67.50419       44.36787
N         62.78873       66.33570       43.97268
O         61.04170       67.55003       44.61871
H         62.97901       68.85090       47.13494
H         64.96652       67.88057       45.11134
H         63.47062       69.01551       43.48831
H         62.39710       69.57523       44.81659
H         63.79133       66.27555       43.74971
H         62.20707       65.48839       43.88920
N         65.14005       70.60050       46.79900
C         65.87790       71.82952       47.01822
C         65.33441       72.95706       46.18732
O         66.13377       73.65435       45.57718
H         64.71630       70.20223       47.64040
H         66.94810       71.66809       46.76049
H         65.82256       72.07387       48.09309
N         63.98971       73.11342       45.99679
C         63.51302       73.78268       44.78470
C         62.51101       72.91565       44.06098
O         62.03201       71.95004       44.63180
C         63.13697       75.26588       44.98924
C         61.69216       75.60731       45.29383
C         61.01551       76.50093       44.43698
C         61.01772       75.10601       46.41761
C         59.70708       76.90080       44.70729
C         59.69942       75.50659       46.68491
C         59.04535       76.41315       45.83430
O         57.78881       76.82984       46.09194
H         63.36010       72.46857       46.50093
H         64.37517       73.80308       44.08076
H         63.40051       75.78821       44.04339
H         63.80252       75.69587       45.76852
H         61.50630       76.91201       43.56286
H         61.50951       74.41742       47.08889
H         59.21321       77.60199       44.04441
H         59.18915       75.12250       47.55850
H         57.30029       76.54542       46.87690
N         62.20203       73.14647       42.76405
C         61.40872       72.20102       41.99049
C         62.30502       71.04460       41.56474
O         61.93399       69.89749       41.76184
C         60.66703       72.93356       40.84321
C         59.87841       74.16915       41.37819
C         59.72344       71.97512       40.09403
C         58.99079       73.90503       42.60518
H         62.65282       73.93844       42.27970
H         60.60317       71.77145       42.62667
H         61.40307       73.31282       40.10023
H         59.25780       74.58801       40.55734
H         60.59833       74.96212       41.67295
H         60.29773       71.14814       39.62744
H         58.96078       71.54008       40.77288
H         59.19967       72.51945       39.27874
H         59.60829       73.62714       43.48651
H         58.45216       74.83537       42.87964
H         58.25009       73.10413       42.41251
N         63.54370       71.29275       41.05267
C         64.53375       70.26681       40.71747
C         64.03497       69.32178       39.63956
O         64.31285       68.13265       39.71378
C         65.83395       70.94280       40.24023
O         66.32204       71.83895       41.20534
H         63.81724       72.27962       40.93850
H         64.79018       69.67486       41.62593
H         65.62615       71.51696       39.31228
H         66.61814       70.19046       39.99811
H         66.61164       71.29883       41.98572
N         63.25128       69.78968       38.62764
C         62.69328       68.98179       37.54962
C         61.92660       67.76963       38.06927
O         62.03571       66.69642       37.49020
C         63.78571       68.60649       36.53645
H         62.99269       70.78745       38.63559
H         61.96545       69.62647       37.00991
H         64.55216       67.94816       36.99725
H         63.34040       68.08439       35.66235
H         64.28517       69.52741       36.16592
N         61.14962       67.87005       39.18651
C         60.39463       66.75541       39.74841
C         58.93252       67.12563       39.91180
O         58.60393       68.30357       39.95167
C         60.98809       66.35773       41.10065
H         61.11684       68.77073       39.68176
H         60.45853       65.86773       39.08061
H         60.97610       67.22328       41.79420
H         60.41303       65.52287       41.55596
H         62.04067       66.02520       40.96941
N         57.98835       66.14065       39.94318
C         56.54393       66.35595       40.02567
C         56.08492       67.42421       39.03305
O         55.30619       68.29315       39.40467
C         56.09614       66.70984       41.46855
C         56.48354       65.65664       42.51662
C         56.02178       66.07698       43.88666
O         56.76511       66.92134       44.63544
O         55.00357       65.59594       44.35901
H         58.30656       65.16630       39.82335
H         56.05695       65.39362       39.74855
H         54.98473       66.79479       41.47734
H         56.51543       67.69337       41.75309
H         57.58009       65.48310       42.55129
H         55.99083       64.69831       42.24220
N         56.59455       67.46668       37.76966
C         56.27557       68.52203       36.82610
H         55.50673       69.22438       37.21371
H         57.19432       69.10971       36.61352
H         55.90103       68.08005       35.88141
H         57.28674       66.76089       37.47751
Ca        58.10337       68.35355       45.81335
O         58.40082       68.85960       43.03503
H         58.71306       68.09638       42.49108
H         58.75255       69.66057       42.57446
O         58.97974       65.56385       45.94845
H         58.30087       64.84711       45.87287
H         59.80396       65.10389       46.24432
O         56.81800       67.05252       47.75276
H         56.71927       67.23235       48.71909
H         55.92902       67.24316       47.35986
O         56.13746       70.01347       45.60468
H         55.96128       70.96017       45.38991
H         55.26644       69.61477       45.84897
O         58.95783       71.00158       44.81259
H         58.73397       71.78142       45.37728
H         59.91293       70.82284       44.99276

Ca 1.0



