%chk=apoCaM-CA-Ng.loop2.water4.frame780.chk
%nprocshared=20
%mem=10GB
%nosave
#b3lyp/svp scf=(tight,noincore,xqc) Test 
#IOP(5/87=12) Density=Current Pop=(MK,readradii) iop(6/33=2) iop(6/42=6)

apoCaM-CA-Ng.loop2.water4.frame780 

   -2  1 
C        109.36816        5.86107       -3.87509
C        110.49205        4.92048       -3.55958
O        111.59597        5.37689       -3.29677
H        108.54206        5.71634       -3.14862
H        109.71232        6.91646       -3.82285
H        108.99440        5.66061       -4.90136
N        110.28361        3.57409       -3.58617
C        111.34807        2.61243       -3.32828
C        111.85290        2.75355       -1.90104
O        111.10042        2.49852       -0.97007
C        110.84704        1.17696       -3.59629
C        111.92926        0.15017       -3.41068
O        112.94277        0.19319       -4.08979
O        111.77785       -0.83151       -2.50136
H        109.34209        3.23055       -3.83401
H        112.17089        2.81948       -4.04896
H        110.48004        1.10891       -4.64382
H        109.99575        0.94494       -2.91879
N        113.12819        3.17684       -1.66504
C        113.69159        3.32933       -0.32613
C        112.87702        4.31437        0.49945
O        112.42364        5.29412       -0.07528
C        115.13231        3.84065       -0.41256
H        113.72324        3.40271       -2.47719
H        113.70536        2.32373        0.13288
H        115.75314        3.13555       -1.00392
H        115.16101        4.84009       -0.89925
H        115.56867        3.92649        0.60588
N        112.61198        4.16261        1.83321
C        113.13180        3.11082        2.70931
C        112.00425        2.20624        3.16157
O        110.86385        2.46176        2.80727
C        113.88925        3.72854        3.91113
C        113.01987        4.51145        4.86576
O        112.44566        5.52554        4.50460
O        112.90105        4.10698        6.14497
H        111.98443        4.85871        2.25818
H        113.86581        2.47974        2.18139
H        114.70306        4.38676        3.53673
H        114.36862        2.90678        4.48519
N        112.24864        1.09930        3.91931
C        111.18006        0.21309        4.35768
C        111.29643       -1.15019        3.71524
O        112.25954       -1.39166        3.00044
H        113.21914        0.86201        4.17600
H        110.19937        0.63610        4.08297
H        111.20917        0.11862        5.46406
N        110.36021       -2.12506        3.90630
C        109.13980       -1.96665        4.69616
C        108.19788       -0.96945        4.03366
O        107.87736       -1.13567        2.86409
C        108.43093       -3.33116        4.84360
C        107.24327       -3.30927        5.78344
N        106.54995       -4.44646        6.01260
O        106.90809       -2.27981        6.35148
H        110.53739       -3.04012        3.46075
H        109.42076       -1.63842        5.72155
H        109.16023       -4.06192        5.25578
H        108.10354       -3.69242        3.84376
H        106.81838       -5.32699        5.55014
H        105.74543       -4.44645        6.65703
N        107.70674        0.08951        4.73557
C        106.85033        1.09537        4.12909
C        106.42337        2.11165        5.16311
O        105.62449        1.78679        6.02953
H        107.97017        0.18865        5.72819
H        105.94565        0.63615        3.67469
H        107.42982        1.58915        3.31765
N        106.99619        3.34421        5.17165
C        106.74821        4.37417        6.18367
C        106.44720        5.75630        5.52478
O        106.67068        5.67136        4.15430
C        108.00419        4.48048        7.07657
C        108.20761        3.17050        7.86580
O        109.12835        4.75786        6.27627
H        107.72825        3.53016        4.47001
H        105.90067        4.09620        6.85001
H        107.85523        5.30715        7.80643
H        109.93605        4.67498        6.84645
H        108.37785        2.31156        7.18309
H        109.08654        3.25549        8.53782
H        107.31490        2.95785        8.49271
N        105.07854        6.23218        5.77827
C        104.72824        7.53035        5.13937
C        105.26154        8.73288        5.92230
O        104.87640        8.90785        7.07057
C        103.17554        7.59590        5.00748
C        102.61361        8.98063        4.58009
C        102.68265        6.48753        4.05786
C        103.10324        9.49627        3.23072
H        104.89046        6.27076        6.80749
H        105.14431        7.57386        4.10909
H        102.73777        7.39798        6.01190
H        102.87559        9.73633        5.35123
H        101.50337        8.92421        4.55222
H        101.57463        6.49812        3.99089
H        103.10508        6.61973        3.03920
H        102.99176        5.48690        4.42623
H        102.80623        8.81653        2.40768
H        102.65468       10.49373        3.03622
H        104.20160        9.60981        3.24111
N        106.13179        9.61945        5.33829
C        106.64469       10.81869        6.00753
C        106.45104       12.11800        5.20931
O        106.76019       13.16167        5.76907
C        108.15525       10.66986        6.27223
C        108.48943        9.47940        7.12559
O        109.09633        9.65506        8.31469
O        108.24354        8.34916        6.73684
H        106.47602        9.40901        4.39423
H        106.13050       10.95113        6.98592
H        108.52313       11.58175        6.79412
H        108.69187       10.58705        5.30328
N        105.99129       12.16455        3.91950
C        105.86850       13.42120        3.17442
C        106.21694       13.22185        1.69182
O        105.34987       13.40862        0.84902
C        104.44878       13.98283        3.42489
C        104.18200       15.32052        2.76904
C        103.09002       15.46935        1.89487
C        104.99780       16.43530        3.03786
C        102.82102       16.70679        1.30217
C        104.72933       17.66901        2.43561
C        103.64102       17.80513        1.57037
H        105.70369       11.30033        3.44715
H        106.59169       14.16834        3.56466
H        104.32048       14.11967        4.52077
H        103.69894       13.23094        3.09299
H        102.43970       14.63102        1.67815
H        105.84099       16.35474        3.71103
H        101.97430       16.81468        0.63651
H        105.36301       18.52173        2.64302
H        103.43114       18.76220        1.11017
N        107.47381       12.84245        1.28354
C        107.86832       12.63259       -0.11307
C        107.36884       11.30698       -0.68976
O        107.82859       10.92505       -1.75814
C        109.40188       12.67946       -0.03953
C        109.68316       12.04300        1.29810
C        108.60990       12.68740        2.17588
H        107.54923       13.45934       -0.78475
H        109.93638       12.23717       -0.90842
H        109.71269       13.74529        0.04684
H        109.47289       10.95962        1.18170
H        110.71927       12.15140        1.68006
H        108.41871       12.03527        3.05017
H        108.91588       13.69683        2.52510
N        106.39313       10.58449       -0.07762
C        105.85348        9.33359       -0.56697
C        104.47413        9.65001       -1.10756
O        104.22561        9.39631       -2.27730
C        105.80271        8.26530        0.55860
C        107.16657        7.82455        1.15129
C        107.90183        8.85158        1.99172
O        109.02014        8.52143        2.65516
O        107.43940        9.95152        2.18702
H        105.94008       10.96037        0.75920
H        106.46893        8.92298       -1.39943
H        105.33587        7.35643        0.11775
H        105.14888        8.59846        1.38781
H        107.83056        7.47655        0.33160
H        106.96038        6.95554        1.80971
N        103.55821       10.29665       -0.32749
C        102.28463       10.77908       -0.81670
H        101.46383       10.34493       -0.21161
H        102.26056       11.88604       -0.71093
H        102.12023       10.53408       -1.88622
H        103.78610       10.51649        0.65173
Ca       108.62353        6.72432        3.84758
O        111.32114        9.55086        4.39798
H        110.93532        9.69313        5.29800
H        110.82822       10.17961        3.81274
O        111.46909        7.39228        1.74754
O        111.09445        7.21539        6.82622
H        111.04620        7.43681        0.85333
H        110.59548        7.04462        7.66419
H        111.67250        8.33397        1.97209
H        111.95871        6.75092        6.95550
O        108.95980        4.41538        2.16133
H        109.61497        4.70969        1.48083
H        109.45569        4.47033        3.01710

Ca 1.0



