%chk=apoCaM-CA-Ng.loop2.water3.frame379.chk
%nprocshared=20
%mem=10GB
%nosave
#b3lyp/svp scf=(tight,noincore,xqc) Test 
#IOP(5/87=12) Density=Current Pop=(MK,readradii) iop(6/33=2) iop(6/42=6)

apoCaM-CA-Ng.loop2.water3.frame379 

   -2  1 
C          7.65031       99.00048        8.63898
C          6.23208       98.83996        9.09874
O          5.39136       99.64545        8.72488
H          8.31583       99.12433        9.51918
H          7.96091       98.10141        8.06787
H          7.75452       99.89499        7.98776
N          5.90211       97.82033        9.94117
C          4.55608       97.62016       10.47314
C          4.53888       97.88023       11.96811
O          5.59288       98.08451       12.55654
C          4.00408       96.22501       10.10206
C          4.77667       95.07169       10.69033
O          4.16936       94.22450       11.54279
O          5.93723       94.86970       10.37207
H          6.65448       97.18998       10.24816
H          3.86792       98.37086       10.02764
H          3.99025       96.11862        8.99576
H          2.95285       96.15638       10.45468
N          3.35150       97.96379       12.63974
C          3.26736       98.37066       14.04297
C          3.81885       99.78703       14.22749
O          4.23167      100.39836       13.25190
C          1.82233       98.25679       14.54102
H          2.47941       97.77280       12.12296
H          3.88436       97.67047       14.65028
H          1.47237       97.20813       14.41915
H          1.75304       98.50752       15.61974
H          1.15285       98.92852       13.96502
N          3.91715      100.35171       15.46480
C          4.71955      101.54873       15.72271
C          3.89925      102.72133       16.21773
O          3.16970      102.58090       17.18996
C          5.82011      101.17460       16.73321
C          6.68721      100.10863       16.12764
O          7.29305      100.38891       14.96402
O          6.80282       99.00840       16.64233
H          3.52119       99.85464       16.27725
H          5.23511      101.88649       14.79610
H          5.37060      100.82113       17.68713
H          6.45335      102.06326       16.94525
N          4.01760      103.94166       15.60653
C          3.25748      105.10281       16.04804
C          3.56361      106.41980       15.33331
O          2.73102      107.30756       15.44382
H          4.66156      104.02398       14.80912
H          3.40766      105.27415       17.13586
H          2.18360      104.86683       15.88389
N          4.72573      106.66604       14.64863
C          4.99974      107.93318       13.95946
C          5.27671      107.68251       12.48317
O          5.28815      106.53377       12.06361
C          6.20188      108.64274       14.62068
C          5.91212      109.01110       16.05516
N          6.68132      108.53909       17.06356
O          4.97804      109.75798       16.30759
H          5.46901      105.95591       14.62077
H          4.12242      108.61404       14.01292
H          6.43306      109.58701       14.08325
H          7.09955      107.98926       14.55761
H          7.47963      107.91606       16.87495
H          6.48056      108.80331       18.03973
N          5.50632      108.72804       11.63068
C          5.79632      108.54853       10.21261
C          7.16250      109.08448        9.85508
O          7.83276      109.65340       10.70558
H          5.47752      109.69199       11.99513
H          5.02686      109.07117        9.60553
H          5.77707      107.47381        9.93658
N          7.65741      108.88143        8.59795
C          8.99715      109.30627        8.19053
C          9.95414      108.12623        8.09229
O         11.15110      108.36507        7.99658
C          8.95960      110.13915        6.88413
C          8.48125      109.34781        5.65362
O          8.17832      111.29442        7.05893
H          7.07899      108.35085        7.93062
H          9.42782      109.95435        8.98494
H          9.99747      110.47319        6.66461
H          7.23011      111.01101        7.13965
H          7.43900      108.98881        5.77698
H          8.51887      109.99594        4.75325
H          9.13942      108.47629        5.47254
N          9.51771      106.83518        8.15549
C         10.40390      105.68211        8.26854
C         10.07976      104.97526        9.57153
O          9.00368      105.18159       10.12160
C         10.24367      104.76298        7.01405
C         10.69895      105.48223        5.71570
C         10.94885      103.39893        7.13724
C         12.19324      105.83175        5.65576
H          8.50603      106.64041        8.17388
H         11.45892      106.01138        8.35957
H          9.15926      104.53586        6.90071
H         10.11565      106.41448        5.59064
H         10.46627      104.83189        4.84453
H         10.51204      102.80763        7.96602
H         10.79280      102.80450        6.21134
H         12.03729      103.51183        7.31370
H         12.48653      106.52581        6.46734
H         12.82227      104.92014        5.71197
H         12.41435      106.33422        4.69149
N         10.99185      104.14485       10.14560
C         10.73557      103.42430       11.37995
C         11.76096      103.78911       12.46072
O         11.82781      103.10551       13.47174
C         10.70832      101.91554       11.03751
C         10.01314      101.09096       12.08684
O          9.56459      101.61630       13.09488
O          9.81579       99.77024       11.91219
H         11.90251      103.99823        9.68215
H          9.72665      103.68093       11.77078
H         11.73482      101.54423       10.82647
H         10.09546      101.77709       10.12116
N         12.55896      104.89451       12.34222
C         13.57381      105.25604       13.32914
C         14.72636      104.26498       13.23273
O         15.23590      104.10780       12.13104
C         14.12440      106.67316       13.03383
C         15.09769      107.11841       14.10195
C         16.46618      107.24948       13.81168
C         14.64301      107.39838       15.40360
C         17.36468      107.63909       14.81026
C         15.54370      107.79691       16.39621
C         16.90412      107.91295       16.10086
H         12.43276      105.51976       11.53310
H         13.10660      105.28909       14.33601
H         13.29768      107.41559       12.98482
H         14.61526      106.66345       12.03521
H         16.84039      107.03502       12.81875
H         13.59189      107.31115       15.64901
H         18.41939      107.72638       14.58408
H         15.18744      108.01278       17.39543
H         17.60122      108.21508       16.87191
N         15.23920      103.58479       14.30416
C         16.38720      102.70013       14.18613
C         16.03337      101.35531       13.56247
O         16.95146      100.61390       13.24131
C         16.88563      102.57927       15.62747
C         15.58668      102.63423       16.40972
C         14.82160      103.74009       15.68130
H         17.18716      103.17404       13.57296
H         17.54862      101.71141       15.83168
H         17.44435      103.51083       15.87860
H         15.05786      101.67005       16.23729
H         15.69144      102.79275       17.50407
H         13.73082      103.59977       15.83291
H         15.13878      104.74644       16.02915
N         14.74114      100.96132       13.36291
C         14.39039       99.70755       12.69695
C         14.61530       99.76299       11.18704
O         14.38435       98.74617       10.54632
C         12.91974       99.33632       12.98210
C         12.72230       98.82772       14.41684
C         11.30241       98.40337       14.65535
O         10.58040       98.97680       15.63657
O         10.80489       97.51649       13.97852
H         13.97889      101.55626       13.71760
H         15.01897       98.88093       13.09529
H         12.60155       98.51375       12.30509
H         12.28423      100.21638       12.78765
H         13.00986       99.61167       15.14817
H         13.36803       97.93646       14.57450
N         15.06143      100.88017       10.54125
C         15.28053      100.92987        9.10784
H         16.35045      101.14627        8.90664
H         15.02017       99.97639        8.60100
H         14.65847      101.73613        8.66661
H         15.26457      101.73989       11.06518
Ca         8.41982       99.09609       13.52736
O          6.69837      100.98975       11.90420
H          5.94573      100.84406       11.27857
H          6.94189      101.94124       11.78405
O          7.56566       96.59616       14.91061
H          6.66148       96.22217       15.06074
H          8.07736       96.35146       15.72213
O          8.74607       96.54009       11.79843
H          7.93797       96.00678       12.00603
H          8.96423       96.30939       10.86060

Ca 1.0



