%chk=apoCaM-CA-Ng.loop1.water3.frame1032.chk
%nprocshared=20
%mem=10GB
%nosave
#b3lyp/svp scf=(tight,noincore,xqc) Test 
#IOP(5/87=12) Density=Current Pop=(MK,readradii) iop(6/33=2) iop(6/42=6)

apoCaM-CA-Ng.loop1.water3.frame1032 

   0  1 
C         23.15677       25.67592       64.16122
C         22.55745       26.27787       65.39726
O         21.37919       26.59970       65.37134
H         24.21474       25.38307       64.32272
H         22.57755       24.77339       63.87399
H         23.11380       26.41239       63.33073
N         23.31905       26.49601       66.50910
C         22.79562       27.10168       67.73031
C         23.28719       28.53171       67.83359
O         23.93406       28.91157       68.80011
C         23.09335       26.23424       68.97782
C         24.55657       26.07699       69.30809
O         25.31325       25.50297       68.54250
O         25.03116       26.54391       70.47922
H         24.32346       26.27621       66.45967
H         21.68760       27.17854       67.67386
H         22.64451       25.22676       68.84349
H         22.59067       26.71163       69.84812
N         22.95107       29.39775       66.84058
C         23.28337       30.81536       66.84428
C         22.18962       31.61958       67.54304
O         22.53032       32.29741       68.50171
C         23.63050       31.32811       65.42839
C         24.78743       30.52025       64.81969
C         25.18787       31.06658       63.44333
C         26.32331       30.26054       62.78793
N         27.57331       30.33134       63.54853
H         22.39830       29.02150       66.06033
H         24.21741       30.96412       67.43440
H         23.93673       32.39419       65.51065
H         22.76736       31.28472       64.73848
H         24.48085       29.45673       64.70663
H         25.65086       30.57392       65.51381
H         25.49746       32.13036       63.53521
H         24.30266       31.01827       62.77158
H         26.50045       30.68059       61.77325
H         26.01488       29.19803       62.66870
H         27.47467       29.86147       64.47586
H         28.32264       29.83395       63.01576
H         27.85942       31.32866       63.68045
N         20.85720       31.58501       67.22486
C         20.23967       30.79474       66.16535
C         19.55886       29.56651       66.76293
O         19.58042       29.38862       67.97417
C         19.32048       31.68489       65.30480
C         18.15018       32.18299       66.08590
O         17.25751       31.30790       66.57565
O         18.01963       33.37507       66.31116
H         20.21823       32.11371       67.84099
H         20.98927       30.41733       65.46781
H         18.94944       31.12567       64.42531
H         19.91565       32.54525       64.92589
N         18.99984       28.63232       65.94999
C         18.47195       27.35926       66.41693
C         17.23729       27.44096       67.29088
O         16.75888       28.51778       67.60846
H         19.03279       28.78489       64.93244
H         19.26572       26.81721       66.97411
H         18.20513       26.75079       65.52708
N         16.65643       26.26732       67.67690
C         15.45775       26.13330       68.51018
C         14.88097       24.72360       68.33704
O         15.65077       23.77396       68.37875
C         15.76909       26.33493       70.00980
C         16.20374       27.72634       70.35713
O         15.46022       28.67259       70.14984
O         17.40164       27.93171       70.93563
H         17.08607       25.40659       67.30452
H         14.70468       26.88179       68.20262
H         16.54575       25.60724       70.33130
H         14.84594       26.13199       70.59762
N         13.54459       24.46208       68.20768
C         12.48964       25.44965       68.34455
C         12.38442       26.42231       67.19843
O         13.06855       26.28255       66.19708
H         13.25259       23.47493       68.13008
H         12.64985       26.00142       69.29587
H         11.50826       24.93312       68.41970
N         11.51944       27.46535       67.31993
C         11.32528       28.51801       66.32588
C         12.63022       29.22995       65.99389
O         13.42242       29.50066       66.88335
C         10.24904       29.51774       66.82919
C         10.02600       30.69749       65.87607
O         10.60056       30.01439       68.09544
H         10.97493       27.51788       68.19572
H         10.92908       28.06171       65.39149
H          9.29492       28.93978       66.89814
H          9.76477       30.07550       68.62910
H          9.20167       31.33497       66.25969
H         10.93969       31.32734       65.81142
H          9.75849       30.33776       64.86101
N         12.87425       29.58243       64.69509
C         14.05046       30.28258       64.18308
C         14.18138       31.68888       64.75990
O         14.09970       31.86267       65.96719
C         15.37371       29.47933       64.34906
C         15.23779       27.96574       64.05366
C         16.46681       30.09408       63.45081
C         14.69399       27.60004       62.67250
H         12.15857       29.34002       63.99338
H         13.89741       30.37896       63.08370
H         15.70627       29.54686       65.40562
H         14.56781       27.52527       64.80927
H         16.22984       27.48219       64.18629
H         17.41442       29.53287       63.54846
H         16.16828       30.06841       62.38144
H         16.65774       31.15160       63.72073
H         15.35747       27.96945       61.86617
H         14.63439       26.49354       62.59352
H         13.67231       28.00640       62.53033
N         14.48835       32.74163       63.94935
C         14.75107       34.08147       64.46725
C         13.48953       34.82162       64.91019
O         13.61230       35.92733       65.39863
C         15.50284       34.94399       63.41238
C         14.65545       35.26342       62.17099
O         16.67503       34.28627       63.00285
H         14.64546       32.54419       62.94933
H         15.43769       33.98532       65.34002
H         15.77353       35.92684       63.86632
H         17.34902       34.42204       63.71889
H         15.24388       35.89219       61.47031
H         14.34818       34.34278       61.63553
H         13.74351       35.83160       62.45168
N         12.24008       34.32021       64.67367
C         11.04063       35.12604       64.89441
C         10.81040       35.38500       66.37642
O         10.53784       34.44243       67.10549
C          9.81959       34.43229       64.23754
C          8.54382       35.26511       64.35723
O         10.07741       34.23224       62.86865
H         12.14558       33.40230       64.22699
H         11.18525       36.09276       64.36224
H          9.62969       33.45502       64.74215
H         10.36746       33.28972       62.75022
H          8.26854       35.41455       65.42081
H          8.68323       36.25381       63.86996
H          7.70822       34.73395       63.85394
N         10.91391       36.65427       66.88662
C         10.66704       37.00167       68.28570
C         11.52393       36.14929       69.20053
O         10.98860       35.33818       69.94581
C          9.15868       36.90881       68.63175
C          8.24837       37.81976       67.78160
C          8.62393       39.31032       67.85690
C          7.62392       40.17935       67.08263
N          8.03645       41.58344       67.09214
H         11.19788       37.41832       66.25596
H         10.96506       38.05590       68.46512
H          9.02889       37.19922       69.69854
H          8.80267       35.86202       68.52027
H          7.20861       37.69134       68.15619
H          8.27605       37.49274       66.72105
H          9.62778       39.46052       67.40832
H          8.64589       39.64213       68.91818
H          6.61606       40.08617       67.54549
H          7.56113       39.82862       66.02869
H          8.09979       41.93774       68.07410
H          8.96502       41.68591       66.62090
H          7.33160       42.15247       66.57005
N         12.88083       36.28230       69.18430
C         13.76445       35.40507       69.94275
C         14.74105       34.65809       69.01122
O         15.11237       33.49944       69.69523
C         14.48250       36.12119       71.10274
C         13.51599       36.43934       72.24731
C         14.24640       37.08180       73.38932
O         14.31105       36.46149       74.58314
O         14.78867       38.16522       73.24134
H         13.28432       37.02146       68.59441
H         13.15667       34.59440       70.40461
H         14.98562       37.04342       70.75368
H         15.25809       35.43877       71.51656
H         13.06573       35.48541       72.60354
H         12.70023       37.10857       71.90264
N         15.97524       35.37033       68.62026
C         15.80988       36.66862       67.96684
H         16.77681       36.97169       67.50915
H         15.05395       36.63131       67.16670
H         15.55924       37.45449       68.70133
H         16.44209       34.75129       67.91774
Ca        15.93475       32.09286       68.16693
O         14.72088       31.51964       71.82938
H         15.16304       32.35987       72.11026
H         15.42954       30.83234       71.89862
O         12.85629       31.55221       69.42715
H         12.68846       31.50188       68.45359
H         12.09481       32.07595       69.78173
O         17.94773       31.07014       70.15415
H         17.68161       30.38733       69.48903
H         17.95918       30.58354       71.01569

Ca 1.0



