%chk=apoCaM-CA-Ng.loop2.water5.frame206.chk
%nprocshared=20
%mem=10GB
%nosave
#b3lyp/svp scf=(tight,noincore,xqc) Test 
#IOP(5/87=12) Density=Current Pop=(MK,readradii) iop(6/33=2) iop(6/42=6)

apoCaM-CA-Ng.loop2.water5.frame206 

   -2  1 
C         33.02953       17.92425       70.78753
C         33.35341       16.63406       71.48442
O         32.92638       15.58539       71.03186
H         32.48576       18.59994       71.47963
H         33.97018       18.41825       70.46424
H         32.39678       17.74528       69.89155
N         34.13321       16.63961       72.59806
C         34.51822       15.42886       73.31946
C         33.30089       14.75419       73.93416
O         32.52818       15.42013       74.60978
C         35.54303       15.78306       74.41846
C         36.15551       14.58690       75.10909
O         37.07715       14.78549       76.06907
O         35.85558       13.44426       74.80010
H         34.49103       17.55036       72.92691
H         35.03318       14.74236       72.60979
H         35.06424       16.43963       75.17648
H         36.38007       16.34286       73.94791
N         33.10554       13.41384       73.77512
C         31.97703       12.68110       74.33924
C         31.19302       11.93601       73.26589
O         30.21039       11.29513       73.61450
C         32.49806       11.69405       75.38829
H         33.81700       12.87383       73.25913
H         31.27410       13.37543       74.85062
H         33.18950       10.95854       74.92439
H         33.04222       12.24447       76.18537
H         31.65535       11.14598       75.86276
N         31.55408       11.97679       71.94693
C         30.82808       11.28751       70.88473
C         30.16438       12.26596       69.92900
O         29.17650       11.89358       69.31049
C         31.73792       10.27243       70.15798
C         32.95345       10.83947       69.45567
O         33.71885       10.07627       68.88974
O         33.22036       12.15903       69.43491
H         32.37558       12.52423       71.67475
H         29.99671       10.69996       71.33365
H         31.13152        9.72422       69.40541
H         32.09633        9.53866       70.91215
N         30.61822       13.54382       69.78027
C         29.93886       14.54867       68.98756
C         28.62822       14.93838       69.62515
O         28.25833       14.38059       70.65057
H         31.47579       13.84111       70.25139
H         29.78897       14.18591       67.94758
H         30.57136       15.46291       68.94985
N         27.87934       15.92823       69.07166
C         26.60284       16.36572       69.62649
C         25.51716       16.14238       68.57500
O         25.85070       15.80802       67.44445
C         26.76826       17.84234       70.05747
C         25.70862       18.42748       70.96472
N         25.78737       19.72695       71.31858
O         24.80919       17.74438       71.42186
H         28.23432       16.39658       68.22332
H         26.35732       15.75676       70.52287
H         26.87744       18.46015       69.14332
H         27.71809       17.93383       70.62983
H         26.55467       20.30727       70.96616
H         25.08612       20.14953       71.94376
N         24.19190       16.23859       68.87381
C         23.15575       15.97359       67.89764
C         23.15389       17.00743       66.79944
O         22.90138       18.17091       67.07863
H         23.88563       16.43621       69.82956
H         22.16021       15.99855       68.39178
H         23.29964       14.94853       67.49211
N         23.39404       16.63637       65.51064
C         23.27549       17.55784       64.37919
C         24.27816       18.71408       64.40918
O         24.12765       19.61748       63.59426
C         23.34954       16.79066       63.02797
C         24.73034       16.17581       62.73517
O         22.33724       15.81278       62.96417
H         23.59641       15.64299       65.33251
H         22.25706       18.00261       64.43897
H         23.14867       17.51079       62.20522
H         22.66131       14.98449       63.40564
H         25.48512       16.97380       62.65191
H         25.04439       15.46510       63.52769
H         24.70634       15.63825       61.76442
N         25.32065       18.76230       65.28813
C         26.27306       19.87118       65.37034
C         26.26503       20.47490       66.76435
O         25.56417       19.97755       67.63913
C         27.71573       19.40659       64.97628
C         28.21125       18.22689       65.85777
C         27.77200       19.07511       63.47876
C         29.65200       17.80023       65.57617
H         25.45400       17.97757       65.94044
H         25.98025       20.69338       64.67904
H         28.41076       20.26085       65.11970
H         27.56626       17.33528       65.71462
H         28.16013       18.53312       66.92406
H         27.41215       19.94033       62.88143
H         28.81020       18.86919       63.15028
H         27.15038       18.19542       63.25299
H         29.75923       17.40124       64.54704
H         30.34505       18.65490       65.72039
H         29.93590       16.98681       66.27733
N         27.04225       21.55860       67.04001
C         27.19200       22.14167       68.36515
C         26.70721       23.59855       68.38456
O         26.91758       24.28260       69.37477
C         28.68614       22.01241       68.74385
C         28.99956       22.15024       70.21252
O         28.03075       22.19309       71.15238
O         30.16773       22.14726       70.56722
H         27.59512       21.98193       66.27620
H         26.59888       21.56758       69.10295
H         29.26784       22.75224       68.15017
H         29.04879       20.99722       68.46622
N         26.00646       24.12363       67.33006
C         25.51751       25.49992       67.27117
C         26.68237       26.47172       67.14347
O         27.50076       26.27196       66.25886
C         24.53922       25.65537       66.07933
C         24.00843       27.06580       65.94695
C         22.74214       27.40820       66.45200
C         24.78481       28.05683       65.31871
C         22.27245       28.72201       66.34335
C         24.30850       29.36426       65.20486
C         23.05486       29.69839       65.72027
H         25.77104       23.51171       66.53692
H         24.91560       25.70156       68.18181
H         23.69179       24.95998       66.27260
H         24.99638       25.34482       65.11451
H         22.12679       26.66575       66.94441
H         25.75790       27.81702       64.91051
H         21.30242       28.98494       66.74455
H         24.91365       30.11786       64.71764
H         22.69023       30.71376       65.63538
N         26.79715       27.58590       67.93464
C         27.87474       28.56407       67.84100
C         29.25782       27.96312       67.99243
O         30.13156       28.26073       67.19052
C         27.59359       29.51702       69.01270
C         26.08710       29.50417       69.05879
C         25.79307       28.01656       68.89008
H         27.78228       29.10884       66.87371
H         27.93284       29.06550       69.97310
H         28.06399       30.51821       68.91092
H         25.62739       29.96886       69.95626
H         25.72324       30.04349       68.15230
H         25.92255       27.44211       69.83278
H         24.75249       27.93253       68.51309
N         29.52023       27.10649       69.01874
C         30.84089       26.54327       69.30314
C         31.39552       25.65685       68.18516
O         32.53625       25.23391       68.31651
C         30.76758       25.69492       70.58368
C         30.42306       26.49174       71.86481
C         30.11762       25.48961       72.92984
O         29.14345       24.61964       72.63556
O         30.79336       25.37670       73.93901
H         28.73487       26.86827       69.64391
H         31.55548       27.37930       69.46274
H         31.72959       25.16832       70.77084
H         29.99315       24.91875       70.38384
H         29.51282       27.11136       71.72952
H         31.26888       27.15453       72.14503
N         30.67607       25.32054       67.07610
C         31.19953       24.50048       66.00099
H         32.24324       24.16967       66.18443
H         30.56219       23.60003       65.87854
H         31.18222       25.08359       65.05613
H         29.71160       25.64470       66.97011
Ca        28.68179       22.55827       73.28490
O         28.93406       23.46595       76.17267
H         29.29745       24.36140       75.95877
H         29.27473       23.27041       77.08120
O         29.55947       20.30649       75.85375
O         31.93863       22.23986       73.94183
H         28.81497       19.69428       76.08038
H         32.34194       23.13824       74.04328
H         30.35867       19.72294       75.81832
H         32.55683       21.75917       73.33599
O         30.05977       19.56162       72.75014
H         29.14343       19.18647       72.75555
H         30.58416       18.94519       73.32089
O         26.04439       22.09927       74.47191
H         26.23798       21.20600       74.85271
H         25.49530       21.91473       73.66923

Ca 1.0



