%chk=apoCaM-CA-Ng.loop2.water4.frame715.chk
%nprocshared=20
%mem=10GB
%nosave
#b3lyp/svp scf=(tight,noincore,xqc) Test 
#IOP(5/87=12) Density=Current Pop=(MK,readradii) iop(6/33=2) iop(6/42=6)

apoCaM-CA-Ng.loop2.water4.frame715 

   -2  1 
C         63.46812      100.64940      -16.13465
C         64.72634      101.19732      -16.74348
O         64.65543      102.19463      -17.44717
H         62.64427      100.70386      -16.87922
H         63.59497       99.57907      -15.86544
H         63.18707      101.23313      -15.23506
N         65.91863      100.56580      -16.55214
C         67.13502      100.97274      -17.24238
C         67.59086      102.36695      -16.84211
O         67.90224      102.58938      -15.68131
C         68.28177       99.97810      -16.97409
C         69.48157      100.31880      -17.81796
O         69.40987      100.26519      -19.03594
O         70.62989      100.71192      -17.23579
H         65.94401       99.73425      -15.94094
H         66.91757      100.93474      -18.33218
H         67.96192       98.94281      -17.22204
H         68.55472      100.00557      -15.89580
N         67.74197      103.32722      -17.79724
C         68.32490      104.63870      -17.53680
C         67.42154      105.48902      -16.65101
O         66.20906      105.34648      -16.76748
C         68.58107      105.35726      -18.86462
H         67.50165      103.08018      -18.76902
H         69.31429      104.46309      -17.06093
H         69.19332      104.70401      -19.52470
H         67.62259      105.58272      -19.37762
H         69.14142      106.30069      -18.70138
N         67.88293      106.37817      -15.72086
C         69.29357      106.71817      -15.52887
C         69.91472      105.93761      -14.38353
O         69.21472      105.40039      -13.54716
C         69.51554      108.24862      -15.37936
C         68.89905      108.91419      -14.16866
O         69.38769      110.09710      -13.74852
O         67.96330      108.41457      -13.56653
H         67.18147      106.83705      -15.12599
H         69.85683      106.42827      -16.43256
H         69.15685      108.78929      -16.28043
H         70.61114      108.42404      -15.31807
N         71.27770      105.85441      -14.31395
C         72.00151      105.17510      -13.25027
C         73.07817      104.24775      -13.79492
O         73.13429      104.03378      -14.99665
H         71.83562      106.33439      -15.03267
H         71.32840      104.62256      -12.56179
H         72.51233      105.97597      -12.68446
N         74.03902      103.70627      -12.98454
C         74.11711      103.94207      -11.54768
C         73.05742      103.12673      -10.81642
O         72.96189      101.92875      -11.01895
C         75.51889      103.60490      -10.99809
C         75.74415      104.09721       -9.57644
N         76.92738      103.86836       -8.96554
O         74.87861      104.72129       -8.97902
H         74.79608      103.16490      -13.43293
H         74.01206      105.03262      -11.36576
H         76.27618      104.11964      -11.62898
H         75.69336      102.51035      -11.05567
H         77.67385      103.34870       -9.44750
H         77.09549      104.21226       -8.00776
N         72.24728      103.74992       -9.92170
C         71.21178      103.05176       -9.15819
C         70.37193      103.94396       -8.23351
O         69.41900      103.41818       -7.66455
H         72.41792      104.74411       -9.82089
H         71.67653      102.24862       -8.54229
H         70.52835      102.56687       -9.88165
N         70.64319      105.26036       -8.00138
C         69.89199      106.13555       -7.11082
C         68.44252      106.32754       -7.55778
O         68.16355      106.69565       -8.68818
C         70.65980      107.47716       -6.92397
C         69.78705      108.59021       -6.34527
O         71.74477      107.27889       -6.04633
H         71.46049      105.70002       -8.42769
H         69.87703      105.67002       -6.10129
H         71.03362      107.86517       -7.89761
H         72.31242      106.54973       -6.40662
H         70.41076      109.48993       -6.16277
H         69.00184      108.87227       -7.08016
H         69.30879      108.27078       -5.39665
N         67.47658      106.10557       -6.62634
C         66.03047      106.18675       -6.80532
C         65.55568      107.62931       -7.05078
O         65.79334      108.50108       -6.23007
C         65.36001      105.58106       -5.52572
C         63.81661      105.70572       -5.55239
C         65.77417      104.09421       -5.35141
C         63.14367      105.10765       -4.31410
H         67.80955      105.83270       -5.69179
H         65.73324      105.53769       -7.65652
H         65.74128      106.15364       -4.64915
H         63.41074      105.20339       -6.45664
H         63.53988      106.78049       -5.59436
H         66.86440      103.92090       -5.44371
H         65.51100      103.73858       -4.33435
H         65.27245      103.45518       -6.10782
H         63.54964      105.57034       -3.38930
H         62.05077      105.28831       -4.36160
H         63.29425      104.00877       -4.27085
N         64.79684      107.89684       -8.15505
C         64.13404      109.14776       -8.50313
C         62.59694      108.98687       -8.59483
O         61.93981      110.00003       -8.79651
C         64.61197      109.57371       -9.91078
C         66.07996      109.92803      -10.00142
O         66.96429      109.21230      -10.72543
O         66.48109      110.92499       -9.43239
H         64.66447      107.14458       -8.81080
H         64.36032      109.93121       -7.74519
H         64.04351      110.46481      -10.25462
H         64.35535      108.74685      -10.59993
N         61.95033      107.78074       -8.47186
C         60.49534      107.61853       -8.57971
C         60.13003      106.41448       -9.48288
O         59.49304      105.49474       -8.99311
C         59.96820      107.48397       -7.12623
C         58.47503      107.32574       -6.91830
C         57.52464      107.90379       -7.78092
C         58.02235      106.61590       -5.78868
C         56.15718      107.75996       -7.52369
C         56.65469      106.48062       -5.53330
C         55.72250      107.05089       -6.40149
H         62.48835      106.94019       -8.23003
H         60.03224      108.53010       -9.01201
H         60.26010      108.40849       -6.58144
H         60.49942      106.64644       -6.62136
H         57.82652      108.46745       -8.65077
H         58.72890      106.17383       -5.09599
H         55.43310      108.20518       -8.19311
H         56.31766      105.93808       -4.65871
H         54.66360      106.94805       -6.20188
N         60.47478      106.33855      -10.81687
C         60.17132      105.20944      -11.70955
C         60.72623      103.83928      -11.31519
O         60.42980      102.87047      -11.99757
C         60.88629      105.58693      -13.01651
C         60.81620      107.08991      -13.00864
C         61.09153      107.42696      -11.54118
H         59.06357      105.16200      -11.81947
H         61.97088      105.33858      -12.92227
H         60.49525      105.08383      -13.92844
H         61.48952      107.59683      -13.73302
H         59.76236      107.35696      -13.24605
H         62.16785      107.44904      -11.28606
H         60.61770      108.40947      -11.33244
N         61.58979      103.70063      -10.27212
C         62.15888      102.42973       -9.84909
C         61.19025      101.77111       -8.89962
O         61.10170      100.55032       -8.87605
C         63.52630      102.58759       -9.13974
C         64.65207      103.19198       -9.98162
C         64.66655      104.65739      -10.14908
O         65.76211      105.13868      -10.75085
O         63.79413      105.38260       -9.71890
H         61.76660      104.51222       -9.68873
H         62.33159      101.77471      -10.73461
H         63.87710      101.55909       -8.90098
H         63.44418      103.14520       -8.18131
H         64.69549      102.74461      -10.99507
H         65.60628      102.98542       -9.45267
N         60.44055      102.53906       -8.06204
C         59.42125      102.01421       -7.19263
H         58.56022      101.66421       -7.80160
H         59.82767      101.18991       -6.57498
H         59.06414      102.82879       -6.52614
H         60.58081      103.55635       -8.04258
Ca        66.58790      107.11394      -11.25475
O         69.80601      107.70353      -11.02799
H         69.89051      108.35725      -11.76313
H         69.82883      108.26308      -10.21258
O         66.38084      104.73670      -13.54017
H         65.52676      104.67932      -14.03493
H         67.00697      104.18966      -14.07277
O         68.24834      104.23671      -10.81537
H         67.91245      103.94838       -9.92930
H         68.82183      103.49316      -11.12113
O         64.53417      107.58167      -12.94187
H         64.27542      107.12929      -12.10123
H         64.33447      106.90660      -13.63291

Ca 1.0



