%chk=holoCaM.loop4.water3.frame103.chk
%nprocshared=20
%mem=10GB
%nosave
#b3lyp/svp scf=(tight,noincore,xqc) Test 
#IOP(5/87=12) Density=Current Pop=(MK,readradii) iop(6/33=2) iop(6/42=6)

holoCaM.loop4.water3.frame103 

   -3  1 
C         85.16842        8.45389       43.40076
C         84.63097        7.70686       42.21429
O         85.35069        7.52428       41.24498
H         86.21580        8.78019       43.22565
H         84.53917        9.34059       43.61805
H         85.15932        7.77902       44.28496
N         83.36634        7.20580       42.25378
C         82.80113        6.32313       41.23973
C         81.51436        6.89455       40.65861
O         80.68294        7.38814       41.40647
C         82.55386        4.96796       41.91496
C         81.96489        3.95748       40.98553
O         82.55359        3.63374       39.96542
O         80.78296        3.39235       41.29410
H         82.79765        7.39250       43.09499
H         83.51992        6.15019       40.40889
H         81.87201        5.10001       42.78264
H         83.52395        4.57241       42.28719
N         81.27932        6.80637       39.31349
C         80.10410        7.36352       38.64065
C         79.23234        6.26312       38.01195
O         78.14241        6.58905       37.55777
C         80.59824        8.36179       37.53259
C         81.67278        9.35857       38.04372
C         79.46389        9.12965       36.82254
C         81.19431       10.35427       39.09759
H         81.98198        6.33435       38.73010
H         79.47686        7.90308       39.38282
H         81.11297        7.75167       36.75597
H         82.07362        9.93149       37.17857
H         82.52265        8.79031       38.46802
H         79.89133        9.81000       36.05504
H         78.77803        8.45491       36.27795
H         78.87260        9.72912       37.54482
H         80.81146        9.82909       39.99482
H         82.05185       10.99107       39.40244
H         80.40705       11.01769       38.68649
N         79.63497        4.95836       37.90245
C         78.91307        3.99833       37.05904
C         79.05253        2.52119       37.45884
O         78.40922        1.70031       36.82103
C         79.31760        4.22221       35.57982
C         80.79036        4.06131       35.29122
O         81.67087        3.75388       36.26205
O         81.19729        4.23586       34.15422
H         80.57829        4.71677       38.22381
H         77.82154        4.20442       37.13578
H         79.03674        5.25749       35.28834
H         78.74740        3.52462       34.92928
N         79.83244        2.09579       38.49650
C         79.92350        0.70310       38.93099
C         80.59863       -0.24451       37.94669
O         80.67249       -1.42783       38.24395
H         80.34807        2.78184       39.04372
H         78.90053        0.33464       39.15887
H         80.51452        0.66413       39.87272
N         81.12081        0.19345       36.76893
C         81.74959       -0.66198       35.75665
C         83.03895       -1.37320       36.19611
O         83.55539       -2.14730       35.40124
C         82.07103        0.20144       34.50469
C         83.00426        1.34770       34.82729
O         83.41618        1.52112       36.09786
O         83.36810        2.11580       33.95389
H         81.02956        1.19211       36.55322
H         81.01579       -1.44482       35.46587
H         81.12588        0.62425       34.10198
H         82.52641       -0.43566       33.71590
N         83.64454       -1.15126       37.39726
C         84.91755       -1.75916       37.76345
C         86.03547       -1.27070       36.86507
O         86.76614       -2.07610       36.30732
H         83.22089       -0.50523       38.07663
H         84.84309       -2.86821       37.75520
H         85.17407       -1.44245       38.79838
N         86.23649        0.06925       36.74226
C         87.33066        0.71433       36.00955
C         87.47710        2.19945       36.47618
O         86.94245        2.45142       37.74211
C         87.05510        0.76518       34.47589
C         86.88865       -0.58715       33.76268
C         86.59964       -0.41194       32.28983
N         85.45965        0.18987       31.87402
O         87.39071       -0.84012       31.46305
H         85.59965        0.64510       37.29809
H         88.27581        0.18114       36.25557
H         87.89509        1.30051       33.97936
H         86.13204        1.36429       34.31640
H         86.03568       -1.15275       34.18349
H         87.82447       -1.17344       33.89173
H         84.76862        0.53397       32.55290
H         85.25545        0.29722       30.86919
N         88.84580        2.71155       36.42631
C         88.88129        4.16786       36.68996
C         89.00050        4.95881       35.40193
O         90.01616        4.87812       34.72451
C         89.98430        4.47266       37.74672
C         90.41917        5.94340       37.77471
C         89.46351        4.09820       39.14959
H         89.32556        2.46301       35.52983
H         87.93336        4.52085       37.15367
H         90.89374        3.87810       37.51026
H         90.90477        6.21837       36.81652
H         89.55391        6.60827       37.96222
H         91.17891        6.10014       38.56913
H         90.23892        4.28240       39.92233
H         88.57759        4.72513       39.40642
H         89.16202        3.03266       39.19883
N         87.97844        5.78916       35.03564
C         88.05787        6.71596       33.91520
C         89.12417        7.75922       34.21916
O         89.59131        7.81841       35.34515
C         86.67226        7.38988       33.73181
C         86.55801        8.31513       32.55134
N         86.71174        7.84847       31.29167
O         86.29241        9.49387       32.73246
H         87.11799        5.78821       35.60168
H         88.32195        6.13567       33.00460
H         86.42604        7.94746       34.66144
H         85.90227        6.60377       33.59807
H         86.91437        6.85319       31.12029
H         86.61462        8.48270       30.48527
N         89.57914        8.61122       33.26569
C         90.57688        9.63237       33.56531
C         90.03331       10.64003       34.57391
O         90.68181       10.87615       35.58326
C         91.14643       10.32535       32.30450
C         90.19001       11.14563       31.47023
C         90.22100       12.54754       31.56077
C         89.30509       10.54161       30.55819
C         89.37348       13.32777       30.77171
C         88.46006       11.32423       29.76815
C         88.48886       12.71754       29.87218
O         87.67088       13.45841       29.09887
H         89.22486        8.49755       32.31262
H         91.46401        9.12992       34.01626
H         91.64993        9.58318       31.64700
H         91.95505       10.99438       32.67499
H         90.90047       13.03874       32.24626
H         89.27707        9.47078       30.42592
H         89.40863       14.40584       30.85912
H         87.78963       10.84507       29.06567
H         87.66679       14.42536       29.13597
N         88.82345       11.23728       34.37840
C         88.22399       12.19909       35.30642
C         88.07839       11.62307       36.70354
O         88.50173       12.27404       37.64875
C         86.84268       12.67251       34.80742
C         86.95091       13.47038       33.49907
C         85.61712       14.01578       33.08357
O         84.69447       13.25974       32.82494
O         85.43627       15.34683       32.98431
H         88.29611       10.97239       33.53489
H         88.87435       13.10005       35.37672
H         86.40712       13.34839       35.57784
H         86.15909       11.80322       34.68030
H         87.34200       12.83366       32.68139
H         87.65235       14.31985       33.65182
N         87.52745       10.39281       36.90533
C         87.40336        9.77002       38.22597
C         88.73307        9.80705       38.95970
O         88.77145       10.30071       40.07851
C         86.89384        8.31728       38.09827
C         85.43797        8.26774       37.60122
C         84.91635        6.86965       37.41687
O         85.61108        5.89494       37.65131
O         83.66440        6.69136       36.96097
H         87.23955        9.85985       36.07143
H         86.66990       10.33707       38.84372
H         86.92811        7.82570       39.09554
H         87.55513        7.75261       37.40676
H         85.34181        8.78649       36.62765
H         84.79724        8.79125       38.34017
N         89.87326        9.37072       38.36092
C         91.18475        9.46483       38.96824
H         91.82396       10.12721       38.34652
H         91.14845        9.88280       39.99586
H         91.64791        8.45957       39.01148
H         89.82125        8.99798       37.40731
Ca        84.86602        2.94524       37.01648
O         85.67112        4.23203       40.06064
H         86.29407        3.86829       40.73749
H         85.77300        5.21205       40.13917
O         84.73165        1.40214       39.61654
H         85.55326        1.41695       40.16848
H         84.07370        0.89783       40.15612
O         84.67578        4.68367       34.75646
H         84.72265        4.38410       33.81477
H         83.78926        5.11523       34.83649

Ca 1.0



