%chk=holoCaM.loop1.water2.frame326.chk
%nprocshared=20
%mem=10GB
%nosave
#b3lyp/svp scf=(tight,noincore,xqc) Test 
#IOP(5/87=12) Density=Current Pop=(MK,readradii) iop(6/33=2) iop(6/42=6)

holoCaM.loop1.water2.frame326 

   0  1 
C        -10.19330       49.64826       63.72804
C        -11.64942       49.28708       63.79514
O        -12.11333       48.53860       62.94981
H         -9.57196       48.73243       63.79919
H         -9.98667       50.15953       62.76389
H         -9.90647       50.33677       64.55162
N        -12.43799       49.79731       64.77877
C        -13.87352       49.55137       64.87893
C        -14.58333       50.10305       63.64477
O        -14.40320       51.27190       63.33310
C        -14.39613       50.21472       66.16916
C        -15.86643       50.03189       66.36834
O        -16.34762       48.91677       66.46594
O        -16.65698       51.11214       66.47561
H        -11.99286       50.40497       65.48500
H        -14.05425       48.45673       64.97081
H        -14.17232       51.30331       66.14612
H        -13.87110       49.76973       67.04364
N        -15.41390       49.31016       62.90376
C        -16.07383       49.74155       61.66939
C        -17.58740       49.88026       61.81531
O        -18.20705       50.30964       60.85154
C        -15.75676       48.71771       60.54541
C        -14.27823       48.69987       60.10702
C        -13.83220       49.96149       59.33920
C        -14.50824       50.08161       57.95818
N        -14.07306       51.28900       57.25890
H        -15.58624       48.34659       63.22503
H        -15.73076       50.75441       61.37687
H        -16.39120       48.89092       59.65546
H        -16.02783       47.70603       60.92239
H        -14.10147       47.82024       59.44967
H        -13.64547       48.56752       61.00447
H        -12.73500       49.89434       59.17262
H        -14.02140       50.87040       59.94509
H        -15.61193       50.12101       58.05454
H        -14.24488       49.18842       57.34747
H        -13.03411       51.29082       57.14336
H        -14.52039       51.31407       56.31361
H        -14.37400       52.13526       57.79494
N        -18.26039       49.54113       62.95223
C        -19.71953       49.65056       63.08206
C        -20.13405       50.30373       64.39957
O        -21.26657       50.12352       64.82609
C        -20.36246       48.26375       62.85066
C        -19.89096       47.21474       63.81449
O        -20.13274       46.03808       63.60029
O        -19.12061       47.56825       64.85834
H        -17.73102       49.13373       63.73394
H        -20.14010       50.28869       62.27430
H        -20.05761       47.94515       61.82796
H        -21.47225       48.32460       62.86305
N        -19.29022       51.15211       65.05119
C        -19.64788       51.91583       66.23748
C        -19.85436       51.13257       67.52440
O        -20.08381       51.79533       68.52699
H        -18.37045       51.35209       64.63311
H        -20.56240       52.51201       66.02593
H        -18.82666       52.63769       66.43817
N        -19.82161       49.76709       67.61639
C        -20.09855       49.09543       68.89008
C        -18.98495       49.26781       69.92556
O        -19.24238       48.99209       71.08970
C        -20.54128       47.62374       68.70762
C        -19.58465       46.74127       67.96098
O        -18.33872       46.54674       68.40818
O        -19.95828       46.14898       66.96241
H        -19.67560       49.20210       66.77130
H        -20.99650       49.58963       69.32572
H        -21.50522       47.62150       68.15255
H        -20.73131       47.17662       69.70710
N        -17.73805       49.71638       69.59638
C        -16.69463       50.00314       70.57441
C        -15.56542       48.99116       70.57435
O        -14.58806       49.22041       71.26917
H        -17.50643       49.87291       68.60852
H        -17.09812       50.02404       71.61054
H        -16.29652       51.01829       70.36051
N        -15.67625       47.80463       69.91086
C        -14.69867       46.72267       70.00496
C        -14.32541       46.20477       68.62136
O        -14.84145       46.68970       67.62765
C        -15.26765       45.58895       70.89860
C        -15.48340       46.05417       72.34805
O        -16.45348       45.05643       70.36464
H        -16.53428       47.61533       69.39274
H        -13.76213       47.08426       70.48322
H        -14.52768       44.76390       70.95715
H        -17.19528       45.68377       70.56685
H        -15.85190       45.20609       72.96243
H        -14.52565       46.41443       72.78016
H        -16.22970       46.87505       72.39934
N        -13.38318       45.22172       68.50172
C        -12.88662       44.72010       67.22479
C        -13.07583       43.20152       67.17783
O        -12.57205       42.52625       68.06288
C        -11.37349       45.09645       67.09688
C        -11.15061       46.61817       67.32719
C        -10.82473       44.67489       65.72295
C         -9.67434       47.02331       67.36304
H        -12.94287       44.85212       69.35572
H        -13.42523       45.19491       66.37547
H        -10.81317       44.55041       67.88843
H        -11.56266       46.90283       68.31810
H        -11.68109       47.21010       66.54950
H        -10.96697       43.59201       65.56510
H        -11.33826       45.23599       64.91480
H         -9.73587       44.85848       65.64393
H         -9.17887       46.86492       66.38503
H         -9.59461       48.10361       67.60646
H         -9.13871       46.44616       68.14752
N        -13.73378       42.59342       66.14127
C        -13.77730       41.13086       65.98324
C        -12.65594       40.69596       65.05447
O        -11.93472       41.54446       64.56986
C        -15.14114       40.62871       65.42681
C        -16.34995       41.06678       66.25061
O        -15.31288       40.98488       64.08039
H        -14.07020       43.18550       65.37179
H        -13.60799       40.64147       66.96714
H        -15.13200       39.51845       65.45981
H        -15.38519       41.96835       64.02877
H        -16.24375       40.73690       67.30500
H        -16.45561       42.16622       66.20584
H        -17.27241       40.61504       65.82538
N        -12.44286       39.38534       64.75282
C        -11.38118       38.95736       63.84134
C        -11.54148       39.56846       62.45347
O        -10.55575       40.09054       61.94951
C        -11.27347       37.41812       63.75931
C        -10.80674       36.82576       65.09868
O        -12.50229       36.86034       63.37394
H        -13.04915       38.67468       65.18567
H        -10.39924       39.30600       64.23834
H        -10.49313       37.17649       62.99891
H        -12.31878       35.91951       63.11513
H        -11.53107       37.03408       65.91232
H        -10.68172       35.72674       65.00547
H         -9.82092       37.25679       65.38141
N        -12.73587       39.57782       61.78414
C        -12.87700       40.16036       60.44462
C        -12.35329       41.59188       60.40332
O        -11.56811       41.92274       59.52674
C        -14.33264       40.07336       59.89032
C        -15.37434       40.99690       60.55482
C        -16.74095       40.92990       59.85075
C        -17.75684       41.95939       60.39052
N        -18.15959       41.69087       61.77149
H        -13.56495       39.17138       62.24410
H        -12.26096       39.55043       59.74659
H        -14.68117       39.01900       59.94233
H        -14.28658       40.36024       58.81637
H        -15.03141       42.04118       60.44953
H        -15.47668       40.73153       61.62220
H        -17.16522       39.90564       59.92004
H        -16.58445       41.16979       58.77588
H        -18.66356       41.92195       59.74636
H        -17.33474       42.98713       60.31511
H        -18.88540       42.38965       62.05316
H        -18.57181       40.73272       61.84478
H        -17.34835       41.78476       62.42051
N        -12.72776       42.47609       61.36499
C        -12.30738       43.87497       61.42374
C        -10.79559       43.98636       61.52170
O        -10.19748       44.60709       60.65398
C        -13.02372       44.55321       62.61645
C        -14.52853       44.65086       62.31052
C        -15.38705       44.95068       63.49479
O        -16.33424       44.22210       63.74292
O        -15.20876       46.04446       64.24298
H        -13.35070       42.11947       62.10619
H        -12.62533       44.39946       60.49368
H        -12.63958       45.58080       62.79858
H        -12.84157       43.94422       63.52589
H        -14.91199       43.69977       61.90143
H        -14.67961       45.42943       61.53239
N        -10.11054       43.39135       62.53387
C         -8.66947       43.42618       62.67008
H         -8.18050       44.00957       61.86292
H         -8.40353       43.87995       63.64712
H         -8.27666       42.38761       62.64105
H        -10.62924       42.86988       63.24082
Ca       -17.15354       46.57344       65.21653
O        -16.78197       44.08070       67.76230
H        -16.35208       43.36328       68.29286
H        -17.74431       44.00078       67.97956
O        -18.81603       43.76692       65.25301
H        -19.35260       43.45485       64.48206
H        -18.98610       43.09677       65.96102

Ca 1.0



