%chk=holoCaM.loop1.water2.frame179.chk
%nprocshared=20
%mem=10GB
%nosave
#b3lyp/svp scf=(tight,noincore,xqc) Test 
#IOP(5/87=12) Density=Current Pop=(MK,readradii) iop(6/33=2) iop(6/42=6)

holoCaM.loop1.water2.frame179 

   0  1 
C          9.56167       66.75275       90.73416
C          8.97985       67.90959       91.48035
O          8.30749       67.67982       92.47672
H         10.23811       66.18833       91.41056
H          8.74094       66.08590       90.39833
H         10.13926       67.09198       89.85026
N          9.21765       69.19299       91.08303
C          8.69632       70.31823       91.83763
C          7.18235       70.36258       91.69198
O          6.68749       70.60182       90.59913
C          9.37112       71.63675       91.40602
C          9.13418       72.73962       92.39612
O          8.36384       72.52048       93.47932
O          9.71512       73.80167       92.26293
H          9.82742       69.36523       90.26893
H          8.99531       70.14670       92.89787
H          9.05614       71.93919       90.38345
H         10.47076       71.46977       91.39754
N          6.39103       70.05920       92.75492
C          4.94124       69.94463       92.68614
C          4.27111       71.26058       92.31653
O          3.45281       71.25012       91.40735
C          4.38712       69.37048       94.01345
C          2.90423       68.97773       93.87141
C          2.32574       68.22214       95.07751
C          2.30438       69.05201       96.36716
N          1.57894       68.34426       97.42318
H          6.85354       69.80702       93.63527
H          4.70226       69.18713       91.90529
H          4.53867       70.09340       94.84394
H          4.95427       68.44203       94.24887
H          2.80766       68.29462       92.99842
H          2.28931       69.88105       93.67308
H          2.89207       67.27924       95.24764
H          1.27966       67.95015       94.81628
H          1.79838       70.02325       96.17443
H          3.34502       69.25271       96.70333
H          1.59404       68.91905       98.29614
H          0.58279       68.20168       97.13530
H          2.02340       67.41732       97.61558
N          4.57822       72.43231       92.95095
C          3.90838       73.69929       92.63798
C          4.72638       74.60268       91.72116
O          4.22705       75.65838       91.35583
C          3.44516       74.40867       93.93211
C          4.54508       74.90068       94.83791
O          5.72001       74.77838       94.53692
O          4.22119       75.50867       95.99474
H          5.33481       72.42659       93.65122
H          2.98161       73.48924       92.06053
H          2.80446       73.70471       94.50543
H          2.82385       75.28910       93.65877
N          5.94674       74.23053       91.24158
C          6.66730       74.99146       90.23480
C          7.09898       76.35558       90.71104
O          6.75877       77.34533       90.07889
H          6.36251       73.33616       91.53576
H          6.03833       75.08168       89.32173
H          7.58592       74.43097       89.95378
N          7.91197       76.46595       91.79405
C          8.52046       77.71300       92.24187
C         10.04630       77.63974       92.10986
O         10.72958       78.51244       92.62720
C          8.03619       78.05132       93.67199
C          8.46452       77.10640       94.75786
O          9.20517       76.17147       94.52283
O          8.04011       77.31057       96.01854
H          8.14979       75.60658       92.30330
H          8.18762       78.56579       91.61035
H          6.92486       78.08180       93.65657
H          8.40187       79.06257       93.95033
N         10.64171       76.66497       91.35354
C         12.07156       76.58335       91.10359
C         12.87077       75.92065       92.20778
O         14.07146       75.78362       92.01633
H         10.05612       76.00465       90.82438
H         12.47398       77.59253       90.86401
H         12.22633       75.95077       90.20251
N         12.31119       75.48539       93.37637
C         13.08891       74.85776       94.44502
C         12.48674       73.53596       94.91460
O         11.39429       73.16553       94.51033
C         13.23548       75.83573       95.63616
C         14.05200       77.08010       95.25410
O         11.97933       76.19282       96.15896
H         11.31178       75.64158       93.53770
H         14.11218       74.61906       94.07925
H         13.80733       75.33911       96.44823
H         11.57207       76.86559       95.55320
H         15.06213       76.77633       94.90403
H         13.55360       77.65633       94.44631
H         14.16995       77.73839       96.13985
N         13.20481       72.76249       95.77697
C         12.79039       71.47791       96.33166
C         12.85308       71.56423       97.85589
O         13.87227       71.97209       98.39666
C         13.72360       70.36225       95.76161
C         13.48337       70.12743       94.23993
C         13.61164       69.03110       96.52326
C         12.12136       69.50616       93.87450
H         14.14589       73.09236       96.04302
H         11.74989       71.22246       96.04932
H         14.77554       70.70161       95.89075
H         14.26847       69.43772       93.86048
H         13.59443       71.08752       93.69357
H         14.29171       68.27345       96.07810
H         13.91521       69.15796       97.58199
H         12.57606       68.64939       96.49787
H         12.00276       68.49968       94.32768
H         11.27184       70.14518       94.18557
H         12.05690       69.37500       92.77396
N         11.80685       71.11616       98.60790
C         11.78751       71.07047      100.06705
C         12.09527       69.65553      100.52415
O         12.35965       68.80460       99.69270
C         10.39276       71.50786      100.60972
C          9.99300       72.92376      100.18145
O          9.39633       70.57251      100.26509
H         11.02304       70.67388       98.12086
H         12.56725       71.74127      100.49019
H         10.42995       71.53467      101.71820
H          9.05008       70.79023       99.36329
H         10.74410       73.66004      100.53370
H          9.90762       72.98364       99.07801
H          9.00605       73.17856      100.62589
N         12.06088       69.31905      101.83963
C         12.24412       67.94824      102.31060
C         11.19941       67.02141      101.69369
O         11.57471       65.99447      101.14600
C         12.18242       67.88061      103.85641
C         13.36227       68.62749      104.49520
O         10.96812       68.41459      104.31987
H         11.86011       70.05902      102.52719
H         13.25183       67.57930      102.01000
H         12.26109       66.80713      104.14974
H         10.83256       68.07012      105.24059
H         13.31340       68.53522      105.60029
H         14.32254       68.18586      104.15206
H         13.35441       69.70592      104.23463
N          9.87255       67.33679      101.72653
C          8.82097       66.47155      101.19002
C          9.03278       66.16171       99.71754
O          9.05506       64.99543       99.34964
C          7.42013       67.11863      101.34390
C          6.98482       67.45292      102.78217
C          6.98388       66.23233      103.70997
C          6.39790       66.58864      105.08154
N          6.43839       65.43588      105.97994
H          9.60549       68.23653      102.14984
H          8.82387       65.50950      101.74600
H          6.66764       66.41767      100.91769
H          7.37380       68.05986      100.75264
H          5.95232       67.86295      102.72119
H          7.63199       68.24346      103.21643
H          8.02588       65.87259      103.84671
H          6.37408       65.41991      103.25801
H          5.34254       66.91961      104.95473
H          6.97645       67.42483      105.53355
H          7.43028       65.14731      106.14456
H          6.00644       65.69946      106.89474
H          5.90227       64.63754      105.56854
N          9.17660       67.17187       98.81931
C          9.30799       66.97762       97.37500
C         10.49129       66.07546       97.06659
O         10.31346       65.07111       96.39136
C          9.43133       68.35076       96.66759
C          8.14554       69.18811       96.85960
C          8.25869       70.58737       96.33072
O          9.19413       71.42815       96.80182
O          7.44087       71.00255       95.53309
H          9.20065       68.12887       99.19794
H          8.39113       66.48589       96.97873
H          9.60537       68.21054       95.57795
H         10.30524       68.88171       97.08744
H          7.89434       69.28950       97.93071
H          7.29740       68.66580       96.36435
N         11.71985       66.34388       97.57678
C         12.86605       65.48986       97.36025
H         13.74366       65.89285       97.91098
H         12.65462       64.46711       97.73944
H         13.11074       65.44793       96.27890
H         11.83733       67.16903       98.16736
Ca         8.23097       73.82144       95.31048
O          6.39624       73.54192       97.89970
H          6.11713       74.49200       97.89815
H          6.44740       73.30007       98.85845
O          9.47169       75.13984       97.66411
H          8.73324       75.24495       98.31501
H         10.28116       75.42169       98.15874

Ca 1.0



