%chk=holoCaM-CaMKII.loop4.water2.frame176.chk
%nprocshared=20
%mem=10GB
%nosave
#b3lyp/svp scf=(tight,noincore,xqc) Test 
#IOP(5/87=12) Density=Current Pop=(MK,readradii) iop(6/33=2) iop(6/42=6)

holoCaM-CaMKII.loop4.water2.frame176 

   -3  1 
C         83.19507       62.64519        7.38419
C         81.70177       62.54412        7.36019
O         81.18725       61.52628        6.91931
H         83.60380       61.81628        8.00104
H         83.58956       62.56603        6.35149
H         83.52812       63.60705        7.82761
N         80.93365       63.54455        7.87047
C         79.49161       63.42216        7.97980
C         78.79321       63.53529        6.64026
O         78.97260       64.53573        5.95967
C         78.93589       64.46082        8.95475
C         77.52581       64.10182        9.27148
O         76.64986       64.94740        9.27626
O         77.25871       62.81448        9.57542
H         81.39952       64.36431        8.29067
H         79.29763       62.42636        8.43972
H         79.03955       65.50929        8.59379
H         79.49912       64.36360        9.90768
N         77.96231       62.53953        6.21451
C         77.29977       62.54399        4.91459
C         75.76526       62.49563        4.98684
O         75.17268       62.56369        3.91853
C         77.93353       61.45068        3.99702
C         77.79547       60.01463        4.57154
C         79.40985       61.82071        3.73594
C         78.41172       58.93583        3.67381
H         77.83638       61.72295        6.82212
H         77.49534       63.51065        4.40035
H         77.41736       61.48808        3.01225
H         76.71621       59.78428        4.69822
H         78.29161       59.93543        5.56105
H         79.87246       61.15683        2.98013
H         79.48172       62.85334        3.33218
H         80.00470       61.76724        4.66877
H         77.96556       58.96854        2.65809
H         79.51240       59.05861        3.59661
H         78.23056       57.93398        4.11614
N         75.04459       62.47386        6.15881
C         73.57900       62.64993        6.18459
C         73.15974       63.95892        6.87510
O         71.97077       64.24153        6.92776
C         72.84903       61.42107        6.77307
C         72.99009       61.21579        8.25489
O         72.39848       60.29035        8.78667
O         73.71021       62.05987        9.01308
H         75.54159       62.40328        7.05844
H         73.19744       62.73043        5.14376
H         73.18912       60.50821        6.23760
H         71.76048       61.54086        6.57207
N         74.08512       64.83226        7.36764
C         73.78180       66.15384        7.89577
C         73.08243       66.19596        9.24128
O         72.08590       66.89500        9.35517
H         75.08395       64.60870        7.27663
H         73.21320       66.73677        7.13765
H         74.74777       66.68186        8.04895
N         73.60351       65.55720       10.32895
C         73.15171       65.78681       11.70542
C         74.32554       66.23470       12.60272
O         74.13430       66.34742       13.80527
C         72.35653       64.56365       12.23748
C         73.12185       63.28554       12.30338
O         72.56046       62.21296       12.15025
O         74.44760       63.33627       12.37877
H         74.39287       64.91331       10.18543
H         72.41066       66.61470       11.73701
H         71.50980       64.40944       11.53352
H         71.92118       64.76723       13.23822
N         75.54177       66.59076       12.07485
C         76.64737       67.14890       12.84741
C         77.47626       66.15210       13.63998
O         78.44629       66.58699       14.24297
H         75.66866       66.59228       11.05413
H         76.27515       67.96537       13.50297
H         77.36327       67.60994       12.12979
N         77.20204       64.81715       13.66584
C         78.04693       63.83108       14.34323
C         78.56308       62.80216       13.35451
O         78.17714       62.82261       12.19804
C         77.25245       63.14356       15.47348
C         77.07307       64.08767       16.67073
C         76.31877       63.42463       17.79287
N         75.01452       63.09575       17.64960
O         76.88741       63.19714       18.85065
H         76.37814       64.47148       13.16610
H         78.95226       64.30862       14.77695
H         77.81304       62.26008       15.84887
H         76.27550       62.78364       15.07923
H         76.54442       65.01851       16.37679
H         78.08882       64.36227       17.03508
H         74.51278       63.30183       16.77382
H         74.49969       62.65267       18.42514
N         79.49189       61.88417       13.75610
C         80.03974       60.85518       12.88141
C         79.77050       59.49556       13.50466
O         80.32661       59.18250       14.54771
C         81.55775       61.10611       12.65068
C         82.23002       59.96627       11.86648
C         81.77147       62.42704       11.89125
H         79.84163       61.92500       14.72488
H         79.54413       60.88722       11.88564
H         82.06542       61.17910       13.63842
H         81.75560       59.83037       10.87171
H         83.31012       60.18639       11.72531
H         82.16833       59.01464       12.43111
H         81.29602       62.38012       10.88657
H         81.33758       63.28239       12.44943
H         82.85667       62.62365       11.75768
N         78.89878       58.63990       12.90262
C         78.61287       57.28905       13.37937
C         79.82357       56.38920       13.14600
O         80.78097       56.83066       12.53473
C         77.36281       56.77703       12.61023
C         76.85951       55.41021       12.99217
N         76.48436       55.13273       14.26135
O         76.76593       54.54616       12.13431
H         78.40159       58.97681       12.06954
H         78.37096       57.33731       14.46317
H         77.58234       56.78843       11.51963
H         76.53146       57.49050       12.79325
H         76.54530       55.84809       14.99915
H         76.13702       54.19353       14.50635
N         79.85622       55.10730       13.60106
C         80.92622       54.16946       13.26530
C         80.91440       53.88448       11.77182
O         81.94168       54.02456       11.12407
C         80.73685       52.85352       14.05376
C         81.73031       51.78238       13.65584
C         83.11571       52.00025       13.75775
C         81.26698       50.54839       13.16684
C         84.01759       51.00363       13.36944
C         82.16954       49.55233       12.78693
C         83.54928       49.77761       12.88478
O         84.43089       48.82599       12.51721
H         79.08042       54.77563       14.19030
H         81.91071       54.59717       13.55889
H         79.70319       52.47624       13.89017
H         80.84569       53.06921       15.13849
H         83.50034       52.94124       14.12881
H         80.20520       50.35393       13.07925
H         85.08242       51.18485       13.44476
H         81.79423       48.60720       12.41502
H         84.14632       47.96462       12.17926
N         79.76299       53.47552       11.17179
C         79.63888       53.12452        9.76057
C         80.15954       54.23950        8.86887
O         80.99702       53.96915        8.01915
C         78.16316       52.77961        9.45267
C         77.96761       52.15951        8.06324
C         76.53562       51.74647        7.86601
O         75.64399       52.58013        7.88496
O         76.22884       50.44899        7.67219
H         78.92448       53.40696       11.76454
H         80.24434       52.20868        9.57702
H         77.52781       53.68651        9.56573
H         77.82454       52.02378       10.19660
H         78.61169       51.25671        7.98058
H         78.25692       52.87720        7.26701
N         79.75304       55.52800        9.04978
C         80.27844       56.64907        8.26887
C         81.79303       56.71459        8.40647
O         82.48650       56.66597        7.40000
C         79.62448       57.98811        8.69650
C         78.10345       57.97232        8.44439
C         77.44999       59.28572        8.75991
O         76.78508       59.85370        7.91077
O         77.54346       59.82019        9.98902
H         79.07624       55.71304        9.80405
H         80.03350       56.49406        7.19397
H         80.07381       58.80949        8.09436
H         79.82837       58.19368        9.77167
H         77.61865       57.20062        9.07308
H         77.91124       57.72366        7.37751
N         82.37416       56.76757        9.63314
C         83.80712       56.74929        9.82930
H         84.26991       57.64419        9.36550
H         84.03755       56.74773       10.91718
H         84.23890       55.82734        9.38312
H         81.77480       56.78198       10.46063
Ca        75.68309       62.19696       10.97878
O         74.62777       58.87327       10.53706
H         74.63660       58.07530       11.12235
H         74.11875       58.58514        9.73888
O         75.55872       60.06207       13.39338
H         75.19992       59.41435       14.05048
H         74.78772       60.64371       13.17734

Ca 1.0



