%chk=holoCaM.loop1.water2.frame305.chk
%nprocshared=20
%mem=10GB
%nosave
#b3lyp/svp scf=(tight,noincore,xqc) Test 
#IOP(5/87=12) Density=Current Pop=(MK,readradii) iop(6/33=2) iop(6/42=6)

holoCaM.loop1.water2.frame305 

   0  1 
C         34.52631       43.92743       44.49931
C         34.37758       43.78792       43.01540
O         34.26647       42.67677       42.52206
H         35.49160       44.43139       44.72054
H         33.69491       44.54107       44.90423
H         34.52182       42.93331       44.99330
N         34.37798       44.90038       42.23584
C         34.29755       44.86977       40.78020
C         35.52439       44.15571       40.21569
O         36.63261       44.51594       40.58714
C         34.23043       46.31737       40.25981
C         33.94799       46.41548       38.79485
O         33.56863       45.33898       38.08833
O         33.89790       47.51498       38.27854
H         34.44811       45.81506       42.71035
H         33.35457       44.35459       40.48277
H         35.18166       46.84068       40.49154
H         33.40056       46.85382       40.77428
N         35.39805       43.13715       39.31551
C         36.51829       42.32331       38.83725
C         36.83426       42.54499       37.36161
O         37.83449       42.01044       36.90222
C         36.18308       40.82756       39.02368
C         35.76768       40.45479       40.45128
C         35.30885       38.99251       40.50713
C         34.80754       38.61525       41.90609
N         34.27298       37.25365       41.91464
H         34.46106       42.91500       38.97180
H         37.43532       42.58187       39.40970
H         37.05290       40.20429       38.71958
H         35.33004       40.58756       38.34855
H         34.90398       41.08198       40.74691
H         36.60943       40.63383       41.15498
H         36.14386       38.31978       40.21327
H         34.47422       38.85515       39.78527
H         34.00218       39.31805       42.21746
H         35.64545       38.69470       42.63368
H         33.45153       37.18984       41.26916
H         35.00841       36.57272       41.61620
H         33.95747       37.01445       42.88209
N         36.03213       43.29081       36.55317
C         36.29997       43.54464       35.14139
C         36.49228       45.04077       34.92760
O         37.54850       45.41537       34.43702
C         35.23854       42.86497       34.23958
C         33.82059       42.92104       34.73562
O         33.23297       41.88422       35.00236
O         33.18659       44.08999       34.88662
H         35.17694       43.70326       36.94505
H         37.25998       43.07922       34.82068
H         35.50003       41.78346       34.19230
H         35.31025       43.25973       33.20277
N         35.57322       45.95894       35.34128
C         35.80314       47.39688       35.29805
C         34.71194       48.12713       34.55406
O         35.01054       48.85654       33.61959
H         34.71133       45.63489       35.79006
H         36.79029       47.64594       34.85227
H         35.81265       47.77167       36.34346
N         33.41577       47.99359       34.94457
C         32.29027       48.71217       34.35228
C         31.51064       49.51290       35.40489
O         30.49347       50.09948       35.06157
C         31.36541       47.71216       33.62864
C         30.94988       46.55404       34.48838
O         31.09688       45.41433       34.08374
O         30.43621       46.75895       35.71043
H         33.20750       47.33982       35.71387
H         32.63310       49.44041       33.58488
H         31.88887       47.31007       32.73295
H         30.46145       48.24864       33.27121
N         31.93011       49.59534       36.69854
C         31.22597       50.30367       37.75096
C         29.88435       49.68796       38.08215
O         28.92109       50.43045       38.16849
H         32.81685       49.16242       36.96954
H         31.11764       51.37976       37.48826
H         31.84124       50.24690       38.67533
N         29.77519       48.35638       38.37361
C         28.55630       47.70110       38.86563
C         28.92138       46.27884       39.40592
O         29.11479       45.37484       38.35152
C         27.37782       47.59836       37.83050
C         26.64654       48.89399       37.45085
O         27.77322       46.92733       36.66537
H         30.64308       47.79967       38.33719
H         28.21047       48.28134       39.74877
H         26.59041       46.98500       38.31956
H         28.24992       47.58273       36.09374
H         26.30210       49.42882       38.35952
H         27.26711       49.55410       36.81587
H         25.75842       48.63584       36.83469
N         27.88885       45.74902       40.30984
C         28.24824       44.46388       40.95779
C         27.08887       43.50458       40.73071
O         25.99852       43.72815       41.23726
C         28.63715       44.65655       42.46702
C         30.03674       45.33084       42.54845
C         28.63195       43.32479       43.24458
C         30.49242       45.69352       43.96399
H         27.59088       46.46389       41.01333
H         29.13096       44.00711       40.45567
H         27.87167       45.30215       42.95201
H         30.03014       46.27189       41.96067
H         30.79758       44.65160       42.10053
H         28.84139       43.48868       44.32060
H         27.62907       42.85098       43.21009
H         29.38002       42.62292       42.83351
H         31.49333       46.17346       43.91225
H         29.77888       46.40762       44.42503
H         30.59451       44.79882       44.61018
N         27.26830       42.42843       39.90901
C         26.22618       41.47623       39.54365
C         25.93305       40.51079       40.67970
O         26.56506       40.58310       41.72554
C         26.64405       40.66621       38.27433
C         26.89690       41.57152       37.05910
O         27.74673       39.83177       38.53873
H         28.18325       42.32242       39.46327
H         25.30317       42.03808       39.27816
H         25.80995       40.00479       37.96561
H         28.57960       40.28144       38.24553
H         25.99343       42.17504       36.83270
H         27.74956       42.25147       37.25004
H         27.14518       40.94994       36.17283
N         25.00048       39.53509       40.50634
C         24.72555       38.47642       41.46982
C         25.98304       37.65236       41.72506
O         26.29111       37.40600       42.88051
C         23.56338       37.59215       40.95476
C         23.16796       36.50695       41.96128
O         22.44402       38.41319       40.72710
H         24.47152       39.52705       39.62059
H         24.38645       38.93190       42.42834
H         23.88499       37.10550       40.00225
H         21.96314       38.04761       39.93957
H         24.01119       35.81042       42.14792
H         22.85688       36.96897       42.92308
H         22.31460       35.91974       41.56031
N         26.76334       37.20558       40.69407
C         27.99256       36.43946       40.90855
C         29.00425       37.25830       41.70708
O         29.45971       36.79664       42.74483
C         28.59476       35.96971       39.55633
C         29.69212       34.90647       39.76850
C         30.21790       34.32212       38.44669
C         31.21473       33.18126       38.72082
N         31.72914       32.60629       37.47759
H         26.47409       37.42235       39.72838
H         27.72180       35.51916       41.47218
H         28.98252       36.83159       38.96856
H         27.78433       35.48826       38.96635
H         29.25119       34.07253       40.35795
H         30.53938       35.33912       40.34325
H         30.71181       35.12260       37.85418
H         29.36799       33.91361       37.85641
H         30.70573       32.38046       39.30391
H         32.06600       33.56466       39.32539
H         32.39218       31.83090       37.70963
H         30.94483       32.21627       36.90600
H         32.24122       33.33415       36.92883
N         29.37842       38.50082       41.28362
C         30.34467       39.35819       41.97932
C         29.87499       39.78715       43.37110
O         30.66524       40.38493       44.08877
C         30.63453       40.63178       41.14050
C         31.25637       40.29911       39.77325
C         31.42666       41.51626       38.91105
O         30.36902       42.26601       38.55973
O         32.52152       41.79603       38.46535
H         28.95285       38.84213       40.41395
H         31.29272       38.78767       42.09788
H         31.33628       41.30227       41.68689
H         29.67694       41.17640       40.99359
H         30.61532       39.59890       39.20854
H         32.23979       39.80930       39.93449
N         28.61281       39.54318       43.82051
C         28.15655       39.93839       45.13479
H         27.09219       39.64403       45.26637
H         28.76151       39.43198       45.91575
H         28.23446       41.03898       45.25231
H         27.93662       39.07691       43.21441
Ca        31.34355       45.15498       38.04737
O         30.29661       42.51970       35.09499
H         29.71568       42.44564       34.29665
H         30.60261       41.59430       35.26507
O         28.03828       44.30825       35.85777
H         27.62695       43.69969       35.19583
H         28.75293       44.77108       35.35647

Ca 1.0



