%chk=holoCaM-CaMKII.loop1.water2.frame174.chk
%nprocshared=20
%mem=10GB
%nosave
#b3lyp/svp scf=(tight,noincore,xqc) Test 
#IOP(5/87=12) Density=Current Pop=(MK,readradii) iop(6/33=2) iop(6/42=6)

holoCaM-CaMKII.loop1.water2.frame174 

   0  1 
C         15.59077       63.52072       11.57424
C         15.92028       64.91342       11.12112
O         16.87339       65.47366       11.62812
H         14.70549       63.11521       11.04065
H         16.45621       62.85216       11.38511
H         15.36844       63.53143       12.66243
N         15.18420       65.51601       10.14654
C         15.38326       66.87682        9.63686
C         14.87697       67.91725       10.64069
O         13.83662       68.52360       10.42421
C         14.67054       66.96441        8.26888
C         14.68167       68.32240        7.63278
O         15.81391       69.01337        7.40526
O         13.61957       68.81800        7.29526
H         14.44020       64.94625        9.71371
H         16.45774       67.06028        9.42368
H         13.60958       66.64669        8.37805
H         15.16666       66.25219        7.57735
N         15.57874       68.16546       11.77882
C         15.15333       69.08307       12.82700
C         15.19602       70.52226       12.35214
O         14.16447       71.17744       12.41918
C         15.99404       68.84340       14.10428
C         15.67677       67.43161       14.64809
C         16.44267       67.06990       15.92265
C         16.08536       65.65449       16.42693
N         14.67603       65.53082       16.81401
H         16.46055       67.66781       11.92372
H         14.10131       68.85047       13.11096
H         15.71163       69.58661       14.88184
H         17.07968       68.95539       13.88683
H         15.90991       66.66058       13.88480
H         14.58823       67.40077       14.85746
H         16.22876       67.81229       16.72088
H         17.53215       67.09422       15.70096
H         16.71816       65.43272       17.31375
H         16.32218       64.89927       15.64367
H         14.51959       64.58731       17.23611
H         14.42863       66.26114       17.52040
H         14.04823       65.60926       15.98301
N         16.33207       71.08835       11.84277
C         16.36249       72.48143       11.38349
C         15.39380       72.77205       10.23053
O         15.20689       73.93974        9.91774
C         17.79800       72.93953       11.03280
C         18.44643       72.21681        9.88071
O         19.69391       72.56162        9.51062
O         17.86558       71.33078        9.27592
H         17.19389       70.52260       11.80850
H         16.03564       73.10779       12.24376
H         18.44046       72.80873       11.93020
H         17.77828       74.02414       10.78795
N         14.71242       71.78220        9.58326
C         13.66824       72.03659        8.60605
C         14.17529       72.70519        7.35383
O         13.68131       73.77020        7.01266
H         14.88965       70.79849        9.82013
H         12.86708       72.64570        9.07905
H         13.21044       71.07118        8.31088
N         15.13923       72.10880        6.59845
C         15.63473       72.64476        5.33548
C         15.36115       71.71776        4.14630
O         15.62459       72.13771        3.02847
C         17.13304       73.00394        5.46564
C         18.07534       71.85496        5.73040
O         19.38900       72.10595        5.87978
O         17.67857       70.70602        5.81019
H         15.53886       71.23641        6.94647
H         15.09918       73.59159        5.10676
H         17.23915       73.72701        6.30307
H         17.46520       73.50694        4.53312
N         14.82688       70.46634        4.29279
C         14.46196       69.60331        3.17545
C         15.27985       68.32888        3.09947
O         14.93913       67.48505        2.28106
H         14.63455       70.09616        5.23072
H         14.56625       70.12100        2.19753
H         13.38973       69.33767        3.29579
N         16.40631       68.14079        3.84624
C         17.27002       66.96748        3.72233
C         17.61634       66.37710        5.07872
O         17.27694       66.94572        6.10227
C         18.57587       67.35248        2.97535
C         18.32928       67.65380        1.49138
O         19.22560       68.42964        3.60589
H         16.71490       68.89363        4.47308
H         16.75994       66.16562        3.14328
H         19.27471       66.48930        2.98366
H         18.74305       69.26604        3.37149
H         19.29361       67.89749        0.99682
H         17.89871       66.75828        0.99397
H         17.63391       68.50861        1.36198
N         18.29993       65.20278        5.14145
C         18.77484       64.56794        6.36737
C         20.26772       64.32557        6.20928
O         20.67270       63.76052        5.20084
C         17.99281       63.24665        6.61556
C         16.50235       63.58287        6.89510
C         18.59758       62.46527        7.80434
C         15.58670       62.36134        6.95235
H         18.49494       64.71267        4.25367
H         18.60343       65.21417        7.25822
H         18.06848       62.61533        5.70257
H         16.10399       64.22817        6.08484
H         16.42317       64.14547        7.85212
H         18.06752       61.50799        7.97357
H         19.65595       62.19808        7.60494
H         18.55592       63.07083        8.73589
H         15.86687       61.66777        7.76870
H         14.54470       62.69779        7.13963
H         15.61518       61.82466        5.98060
N         21.14041       64.68410        7.19231
C         22.58312       64.48371        7.09483
C         23.04365       63.36003        8.00027
O         22.26854       62.81870        8.77678
C         23.34841       65.79578        7.43914
C         23.17433       66.87586        6.36949
O         22.98432       66.27384        8.71202
H         20.75953       65.06619        8.06847
H         22.86238       64.16327        6.06690
H         24.44118       65.60367        7.46896
H         22.15711       66.81492        8.62005
H         23.72127       67.79462        6.67557
H         23.59248       66.52226        5.40392
H         22.10461       67.11377        6.23423
N         24.34071       62.95746        7.91507
C         24.96272       61.94603        8.76257
C         24.88409       62.37417       10.21344
O         24.54829       61.56571       11.06608
C         26.44888       61.74621        8.35626
C         26.56503       61.14442        6.94669
O         27.13625       62.97233        8.41474
H         24.93215       63.43120        7.21599
H         24.44658       60.96646        8.64568
H         26.90821       61.02927        9.07515
H         28.09879       62.77857        8.27101
H         27.63354       60.98017        6.69350
H         26.04342       60.16510        6.90659
H         26.12841       61.81357        6.17693
N         25.16904       63.66011       10.54744
C         25.12043       64.19170       11.90270
C         23.72616       64.05101       12.48671
O         23.59451       63.47985       13.56058
C         25.57539       65.67089       11.89810
C         27.04815       65.78129       11.45119
C         27.53269       67.23207       11.37322
C         28.96882       67.33635       10.82216
N         29.95145       66.66228       11.67396
H         25.41247       64.30180        9.77938
H         25.83104       63.62980       12.55005
H         25.48494       66.09309       12.92316
H         24.92294       66.26219       11.21713
H         27.18479       65.33682       10.44496
H         27.66953       65.21097       12.17265
H         27.47331       67.70768       12.37556
H         26.86783       67.79206       10.67897
H         29.23502       68.41332       10.74690
H         29.01097       66.90471        9.79649
H         29.79655       65.62915       11.67555
H         30.90850       66.83873       11.29200
H         29.90097       67.03524       12.64933
N         22.63403       64.53447       11.82928
C         21.28020       64.44775       12.37836
C         20.79905       63.01561       12.57158
O         19.81182       62.82890       13.27080
C         20.26911       65.16032       11.46678
C         20.53029       66.66613       11.35064
C         19.54910       67.28204       10.40813
O         19.50062       66.90053        9.25127
O         18.72685       68.26142       10.82664
H         22.78312       64.99154       10.91921
H         21.28471       64.94540       13.37388
H         19.25134       65.02462       11.88218
H         20.30082       64.68191       10.46114
H         21.54760       66.86738       10.96316
H         20.43638       67.13880       12.35143
N         21.40257       61.95995       11.96222
C         20.94580       60.60086       12.14930
H         19.88506       60.50701       11.83283
H         21.56257       59.90753       11.53902
H         21.04183       60.31638       13.21862
H         22.19268       62.11756       11.32818
Ca        17.95873       68.71263        8.01120
O         21.18946       69.88282        8.97224
H         21.57136       70.73108        8.63282
H         21.92863       69.46300        9.47935
O         20.65493       69.33997        6.13133
H         20.26827       68.45021        5.93414
H         21.43299       69.41932        5.52370

Ca 1.0



