%chk=holoCaM.loop3.water1.frame84.chk
%nprocshared=20
%mem=10GB
%nosave
#b3lyp/svp scf=(tight,noincore,xqc) Test 
#IOP(5/87=12) Density=Current Pop=(MK,readradii) iop(6/33=2) iop(6/42=6)

holoCaM.loop3.water1.frame84 

   0  1 
C         16.35414        9.04320       37.21414
C         15.97090        7.69327       36.68952
O         15.92648        6.73612       37.44874
H         17.25153        9.41312       36.67598
H         15.51394        9.75061       37.04333
H         16.56940        9.00059       38.30185
N         15.64429        7.55884       35.37826
C         15.18462        6.30761       34.79222
C         16.30460        5.26660       34.82700
O         17.38217        5.53593       34.31522
C         14.65358        6.60146       33.37934
C         13.86287        5.46169       32.84090
O         14.47571        4.31036       32.56540
O         12.66828        5.58268       32.64919
H         15.67653        8.40593       34.78776
H         14.30954        5.95849       35.38670
H         15.47489        6.87603       32.68189
H         13.95910        7.46829       33.44933
N         16.13529        4.08589       35.49270
C         17.23052        3.14744       35.76262
C         17.81947        2.46445       34.52736
O         18.91798        1.93606       34.62762
C         16.80612        2.09049       36.81799
C         16.27449        2.68809       38.14577
C         17.26615        3.66920       38.78693
C         16.75441        4.22742       40.11746
N         17.69763        5.21210       40.64912
H         15.21662        3.91301       35.91972
H         18.06200        3.74386       36.19094
H         17.68379        1.45050       37.05444
H         16.01187        1.43641       36.39237
H         16.06878        1.84955       38.84664
H         15.31071        3.21420       37.98228
H         17.41587        4.53356       38.10915
H         18.23935        3.15838       38.94986
H         16.62828        3.39721       40.84666
H         15.76672        4.71793       39.96463
H         18.63778        4.77450       40.78616
H         17.78197        6.01881       39.98737
H         17.34845        5.56648       41.56798
N         17.14722        2.40878       33.34797
C         17.67802        1.84540       32.10183
C         17.58511        2.86866       30.95509
O         17.96757        2.53216       29.84298
C         16.99565        0.48528       31.75754
C         15.52037        0.47807       32.01590
O         15.11891        0.55615       33.16677
O         14.63293        0.62361       31.02534
H         16.18931        2.77712       33.33018
H         18.76188        1.60905       32.19618
H         17.41964       -0.31431       32.40331
H         17.23077        0.20358       30.70796
N         17.17623        4.15788       31.16452
C         17.21071        5.20993       30.15948
C         16.14990        5.14786       29.07304
O         16.16509        6.04874       28.24512
H         16.93830        4.46592       32.11132
H         18.22418        5.23813       29.70002
H         17.06300        6.18352       30.67644
N         15.21478        4.15475       28.96932
C         14.28755        4.09752       27.83215
C         13.11908        5.08724       27.91483
O         12.33178        5.12952       26.98008
C         13.76020        2.65617       27.61149
C         12.65940        2.18296       28.53413
N         12.17082        0.92984       28.40511
O         12.17444        2.92762       29.36826
H         15.24344        3.37111       29.63520
H         14.88814        4.31670       26.92050
H         14.62250        1.95592       27.66442
H         13.34030        2.59618       26.58475
H         12.55530        0.28708       27.69836
H         11.40245        0.60348       29.00886
N         12.90715        5.87219       29.01013
C         11.74016        6.73029       29.16650
C         10.46074        5.93286       29.38488
O          9.48164        6.16848       28.69419
H         13.58763        5.86603       29.78289
H         11.65478        7.43328       28.30844
H         11.88257        7.34256       30.08395
N         10.39757        5.03436       30.40924
C          9.21232        4.29513       30.86606
C          9.45660        3.70772       32.25286
O         10.57349        3.30045       32.54803
C          8.79979        3.09124       29.98531
C          8.11342        3.40673       28.68574
C          8.84059        3.71759       27.52843
C          6.70973        3.33400       28.61712
C          8.17158        3.97098       26.32573
C          6.04488        3.58574       27.41892
C          6.77362        3.90645       26.26702
O          6.14132        4.14713       25.10150
H         11.25561        4.94263       30.95834
H          8.36124        5.00521       30.96753
H          8.04695        2.52794       30.58434
H          9.63134        2.37162       29.83570
H          9.92192        3.75674       27.55651
H          6.12503        3.08316       29.49473
H          8.74056        4.21167       25.43747
H          4.96399        3.52650       27.38932
H          5.17704        4.10467       25.02477
N          8.42658        3.60327       33.14707
C          8.58913        3.03618       34.48242
C          7.52838        1.97897       34.77956
O          6.34693        2.29498       34.79666
C          8.62019        4.16634       35.56108
C          7.29332        4.97259       35.65696
C          9.81900        5.09637       35.28198
C          7.30588        6.06504       36.72452
H          7.49997        3.97144       32.88167
H          9.57567        2.53518       34.55729
H          8.80300        3.67842       36.54530
H          6.46603        4.29789       35.94406
H          7.04985        5.43890       34.67905
H          9.67434        5.65840       34.33493
H          9.96901        5.81908       36.10739
H         10.75641        4.50968       35.20311
H          8.03834        6.86005       36.48147
H          6.30301        6.53863       36.77496
H          7.53933        5.62859       37.71596
N          7.88104        0.69153       35.06012
C          6.91913       -0.28741       35.57090
C          6.51339        0.07959       37.00182
O          7.01123        1.06310       37.53060
C          7.52863       -1.70364       35.53032
O          8.67279       -1.77574       36.33350
H          8.86905        0.41285       34.95882
H          6.02269       -0.30537       34.91200
H          7.79683       -1.94186       34.47692
H          6.78154       -2.45003       35.87955
H          9.02124       -2.69987       36.23789
N          5.63447       -0.69119       37.70512
C          5.29841       -0.44253       39.10796
C          6.54164       -0.50942       39.97593
O          6.76520        0.39645       40.76589
C          4.27945       -1.47162       39.60756
H          5.21063       -1.50525       37.23558
H          4.82608        0.56063       39.21202
H          4.68429       -2.50311       39.53389
H          4.02112       -1.26340       40.66913
H          3.34885       -1.40435       39.00553
N          7.41063       -1.55223       39.85416
C          8.65091       -1.66624       40.61493
C          9.55506       -0.46520       40.38675
O          9.95112        0.16775       41.35551
C          9.39065       -2.95190       40.21961
H          7.18632       -2.28889       39.16675
H          8.41016       -1.74064       41.69910
H          9.64849       -2.94761       39.13854
H         10.32598       -3.05628       40.80988
H          8.74887       -3.83556       40.42377
N          9.91762       -0.09219       39.12560
C         10.81873        1.02553       38.84024
C         10.28818        2.35883       39.36190
O         11.07449        3.28573       39.50156
C         11.07946        1.08506       37.31700
C         12.07912        2.16312       36.86638
C         12.34742        2.11136       35.38387
O         11.83500        1.26130       34.67289
O         13.16389        3.02219       34.82921
H          9.55190       -0.64656       38.34002
H         11.77819        0.80982       39.36104
H         10.11233        1.25952       36.79785
H         11.47429        0.09294       37.00431
H         13.04239        2.02841       37.40179
H         11.67215        3.16822       37.09946
N          8.97614        2.53783       39.67293
C          8.46796        3.78314       40.20163
H          7.36988        3.70757       40.35496
H          8.94908        4.00186       41.17810
H          8.67615        4.61022       39.49349
H          8.30788        1.77737       39.52138
Ca        13.61706        2.53018       31.53420
O         10.89650        0.52974       31.75452
H         10.64384        0.02979       32.57050
H         11.70009        0.06211       31.41506

Ca 1.0



