%chk=holoCaM-CaMKII.loop4.water1.frame371.chk
%nprocshared=20
%mem=10GB
%nosave
#b3lyp/svp scf=(tight,noincore,xqc) Test 
#IOP(5/87=12) Density=Current Pop=(MK,readradii) iop(6/33=2) iop(6/42=6)

holoCaM-CaMKII.loop4.water1.frame371 

   -3  1 
C         53.56831       81.95228       30.20383
C         53.54356       82.10799       28.70954
O         53.47934       81.11212       28.00824
H         53.63001       82.93790       30.71443
H         52.64019       81.44581       30.54172
H         54.44989       81.34950       30.50331
N         53.58177       83.34714       28.15503
C         53.52585       83.61312       26.72004
C         54.74465       83.02802       26.00397
O         55.85685       83.25205       26.46080
C         53.46450       85.13972       26.52656
C         53.17677       85.58350       25.13055
O         53.15104       86.89811       24.87733
O         52.93335       84.78995       24.23815
H         53.62566       84.15301       28.79947
H         52.58134       83.18571       26.31157
H         54.42239       85.59133       26.86318
H         52.64196       85.55444       27.15055
N         54.60483       82.29484       24.85701
C         55.71890       81.64316       24.15306
C         56.02961       82.31791       22.80647
O         57.08543       82.04873       22.25168
C         55.37941       80.12027       23.96855
C         55.06656       79.46905       25.34318
C         56.47974       79.33908       23.22174
C         54.61558       78.00787       25.26237
H         53.65867       82.18790       24.46976
H         56.64285       81.74429       24.76327
H         54.46337       80.05132       23.34327
H         54.22806       80.02046       25.81431
H         55.95242       79.53954       26.01009
H         57.43707       79.37167       23.78080
H         56.18176       78.28417       23.06235
H         56.62862       79.73083       22.19740
H         53.73965       77.90831       24.58963
H         55.42848       77.34768       24.90160
H         54.32832       77.65575       26.27559
N         55.16367       83.18574       22.21338
C         55.38030       83.80364       20.90018
C         55.34366       85.32604       20.94892
O         55.48972       85.94329       19.90251
C         54.36002       83.23097       19.88378
C         52.90257       83.34922       20.26321
O         52.06605       82.76676       19.59296
O         52.51897       84.00408       21.37518
H         54.28294       83.37799       22.69279
H         56.38520       83.53772       20.50412
H         54.57864       82.14331       19.80214
H         54.52119       83.67790       18.87846
N         55.19087       86.00753       22.11807
C         55.17213       87.45645       22.20279
C         53.99288       88.05456       21.47180
O         54.18484       88.94488       20.65655
H         55.10931       85.49358       23.00478
H         56.13044       87.87634       21.82597
H         55.08138       87.74218       23.27279
N         52.73232       87.62044       21.74726
C         51.51439       88.21291       21.19990
C         50.61786       88.74778       22.32377
O         49.48375       89.11966       22.05707
C         50.79142       87.20106       20.28063
C         50.26787       85.95748       20.94177
O         49.69315       85.11686       20.26931
O         50.41810       85.75196       22.25909
H         52.62952       86.83696       22.40601
H         51.75852       89.07684       20.54353
H         51.49909       86.89759       19.47783
H         49.93112       87.71370       19.79884
N         51.09567       88.88189       23.59699
C         50.35669       89.44732       24.71175
C         49.28930       88.55893       25.32248
O         48.71865       88.99958       26.30944
H         52.08344       88.67949       23.78044
H         49.92657       90.42818       24.41654
H         51.08325       89.63795       25.53319
N         48.95624       87.32362       24.83682
C         47.93860       86.48083       25.46989
C         48.47414       85.10998       25.84840
O         49.57683       84.75441       25.45707
C         46.66501       86.43866       24.59552
C         46.77313       85.87911       23.16247
C         46.86379       84.37496       23.08719
N         45.82612       83.65864       22.59631
O         47.87321       83.79414       23.45014
H         49.41281       86.97913       23.98984
H         47.62511       86.94481       26.42934
H         46.34628       87.49938       24.49067
H         45.84655       85.90674       25.12786
H         47.59825       86.35292       22.59074
H         45.82892       86.17660       22.65725
H         44.95761       84.11654       22.28411
H         45.88454       82.63637       22.53749
N         47.73980       84.30924       26.67922
C         48.16220       82.98547       27.12867
C         47.01615       82.00077       26.91081
O         46.00338       82.10770       27.58785
C         48.58438       83.06989       28.63150
C         48.86063       81.70166       29.27593
C         49.84435       83.94110       28.78483
H         46.85620       84.68141       27.05872
H         49.04469       82.63948       26.54712
H         47.75454       83.53761       29.20686
H         49.12693       81.83492       30.34706
H         47.95661       81.06219       29.24866
H         49.70121       81.18425       28.77634
H         49.67733       84.96486       28.39335
H         50.12882       84.03068       29.85502
H         50.69567       83.48468       28.23408
N         47.11035       81.00972       25.97425
C         46.09103       79.97071       25.79833
C         46.08822       79.01316       26.97925
O         46.90947       79.15329       27.86784
C         46.38649       79.14435       24.51812
C         46.15501       79.93685       23.26368
N         47.15940       80.16952       22.38862
O         45.03062       80.34963       23.02039
H         47.94206       80.99185       25.36732
H         45.08439       80.43461       25.70309
H         45.71427       78.26533       24.44307
H         47.42575       78.75809       24.55863
H         48.11224       79.82308       22.57049
H         46.98003       80.69753       21.52164
N         45.21133       77.97376       27.02596
C         45.28407       76.88285       27.99888
C         46.60402       76.13926       27.81172
O         47.33052       75.93901       28.77238
C         44.10640       75.91892       27.75870
C         44.07340       74.76120       28.72387
C         43.47911       74.90026       29.98921
C         44.61052       73.51937       28.34894
C         43.41204       73.80643       30.85946
C         44.55315       72.43196       29.22353
C         43.94648       72.56971       30.48008
O         43.86767       71.52244       31.32556
H         44.49139       77.92042       26.28728
H         45.20199       77.28224       29.03526
H         44.15943       75.53015       26.71832
H         43.14351       76.47089       27.83277
H         43.05124       75.84761       30.29371
H         45.07690       73.39496       27.37944
H         42.93763       73.91772       31.82662
H         44.97408       71.48201       28.91967
H         44.21399       70.64849       31.09439
N         46.98568       75.77246       26.55184
C         48.26726       75.16367       26.19014
C         49.41686       75.89909       26.84653
O         50.23284       75.27446       27.51155
C         48.39565       75.21812       24.63979
C         49.75095       74.77308       24.07068
C         49.72566       74.84693       22.56711
O         50.48283       75.59807       21.97249
O         48.86142       74.08585       21.86791
H         46.34763       76.02596       25.78257
H         48.29953       74.10352       26.52510
H         48.22987       76.26565       24.29894
H         47.58803       74.58762       24.20687
H         49.98226       73.73326       24.37916
H         50.55077       75.44731       24.45086
N         49.53873       77.23692       26.68549
C         50.64758       78.01918       27.20931
C         50.69252       77.96458       28.73271
O         51.73637       77.63286       29.27738
C         50.61180       79.44438       26.59838
C         50.72893       79.31705       25.05876
C         51.01950       80.57441       24.30390
O         52.02626       80.61655       23.61879
O         50.17833       81.62169       24.26621
H         48.80809       77.71145       26.13795
H         51.60397       77.57617       26.84844
H         51.48435       80.00595       26.98516
H         49.68315       79.98829       26.86670
H         49.81409       78.87415       24.62371
H         51.56592       78.62283       24.83882
N         49.58368       78.19252       29.48415
C         49.56695       78.05323       30.92497
H         48.53766       78.22611       31.30924
H         49.87129       77.02281       31.21114
H         50.25244       78.79021       31.39068
H         48.70668       78.42226       29.01981
Ca        50.95175       83.11552       22.75472
O         49.44555       81.49935       20.80849
H         49.10726       81.51974       19.87873
H         50.33948       81.07931       20.74262

Ca 1.0



