%chk=holoCaM.loop1.water2.frame124.chk
%nprocshared=20
%mem=10GB
%nosave
#b3lyp/svp scf=(tight,noincore,xqc) Test 
#IOP(5/87=12) Density=Current Pop=(MK,readradii) iop(6/33=2) iop(6/42=6)

holoCaM.loop1.water2.frame124 

   0  1 
C        107.83492       75.02777      -17.86925
C        109.30947       74.85502      -18.06690
O        109.80773       75.13176      -19.14920
H        107.35383       75.40581      -18.79607
H        107.38131       74.05111      -17.59993
H        107.65382       75.75376      -17.04884
N        110.07958       74.40470      -17.03919
C        111.52062       74.23379      -17.15249
C        111.84002       73.15289      -18.17718
O        111.48910       71.99898      -17.97157
C        112.10341       73.85543      -15.78262
C        113.59576       73.76226      -15.75394
O        114.17531       73.31469      -14.63230
O        114.28465       74.07832      -16.71245
H        109.61851       74.20636      -16.13698
H        111.95552       75.21430      -17.45529
H        111.68369       72.87266      -15.47684
H        111.80589       74.61144      -15.02382
N        112.46404       73.48398      -19.33636
C        112.70994       72.53791      -20.41698
C        113.83851       71.56332      -20.10486
O        113.64667       70.36773      -20.27314
C        112.99534       73.31664      -21.72071
C        113.00069       72.40522      -22.95578
C        113.01075       73.23687      -24.24733
C        112.97271       72.37850      -25.52388
N        111.77529       71.53616      -25.59987
H        112.66901       74.48041      -19.49588
H        111.76595       71.97981      -20.61130
H        113.94817       73.88245      -21.66278
H        112.16245       74.04442      -21.84822
H        112.06989       71.80279      -22.93324
H        113.87728       71.72195      -22.92539
H        113.92634       73.86732      -24.27204
H        112.12654       73.91259      -24.25258
H        113.88167       71.74113      -25.58241
H        112.97980       73.06963      -26.39607
H        110.91200       72.11407      -25.47763
H        111.74229       71.07477      -26.53714
H        111.80722       70.78254      -24.87702
N        115.05808       72.01621      -19.69501
C        116.25918       71.17815      -19.59849
C        116.72480       70.92719      -18.15907
O        117.74567       70.27735      -17.98085
C        117.34201       71.78835      -20.52466
C        117.74356       73.18934      -20.15295
O        118.37671       73.87754      -20.93618
O        117.48298       73.64792      -18.92043
H        115.14948       73.02230      -19.49628
H        116.05074       70.16387      -20.00349
H        116.89402       71.82991      -21.54147
H        118.24815       71.14720      -20.58218
N        115.96238       71.29426      -17.09007
C        116.21647       70.85981      -15.72304
C        117.41582       71.47793      -15.03816
O        118.25048       70.72954      -14.54907
H        115.07465       71.78324      -17.25718
H        116.29138       69.74949      -15.70216
H        115.33591       71.12436      -15.10343
N        117.52359       72.83035      -14.88322
C        118.53799       73.46010      -14.02569
C        117.93861       74.33188      -12.92273
O        118.69568       74.79181      -12.07926
C        119.59194       74.21543      -14.85387
C        119.10854       75.27633      -15.79938
O        117.81112       75.59835      -15.94379
O        119.92044       75.77186      -16.56371
H        116.83383       73.42077      -15.36817
H        119.10373       72.67073      -13.48421
H        120.10200       73.45281      -15.48243
H        120.35457       74.65969      -14.17903
N        116.60459       74.59884      -12.85126
C        115.97526       75.37293      -11.79756
C        115.44460       76.69326      -12.30377
O        114.81398       77.38871      -11.51922
H        115.98130       74.25630      -13.57931
H        116.68305       75.59816      -10.97119
H        115.14392       74.76851      -11.37458
N        115.73001       77.15295      -13.55989
C        115.38268       78.49560      -14.00630
C        114.68548       78.49916      -15.35910
O        114.63172       77.48410      -16.04085
C        116.66958       79.35958      -14.06423
C        117.29782       79.55572      -12.67410
O        117.60564       78.80788      -14.95805
H        116.30590       76.58120      -14.19009
H        114.68200       78.96857      -13.28360
H        116.41283       80.37563      -14.43205
H        118.06169       78.04661      -14.51126
H        116.57391       80.05507      -11.99631
H        117.59602       78.58415      -12.22542
H        118.20347       80.19278      -12.75770
N        114.10271       79.65563      -15.78259
C        113.43080       79.85813      -17.06025
C        114.07417       81.05548      -17.75114
O        114.17321       82.12038      -17.15672
C        111.89489       80.02899      -16.82418
C        111.29730       78.63102      -16.48196
C        111.18449       80.63267      -18.05409
C        109.80013       78.62016      -16.17071
H        114.11559       80.46092      -15.13660
H        113.54847       78.97779      -17.72729
H        111.73329       80.73723      -15.98137
H        111.82166       78.21243      -15.59738
H        111.46734       77.93957      -17.33909
H        111.29552       79.97922      -18.94006
H        110.10635       80.79303      -17.85466
H        111.59262       81.63753      -18.28917
H        109.48801       77.58031      -15.93263
H        109.58244       79.26892      -15.29803
H        109.19731       78.94614      -17.04235
N        114.47586       80.94750      -19.04855
C        115.05719       82.02660      -19.83938
C        114.01932       82.53111      -20.82570
O        112.89011       82.07803      -20.77571
C        116.33224       81.52102      -20.56980
C        117.41415       81.06491      -19.58378
O        116.01796       80.50738      -21.49892
H        114.28919       80.06672      -19.53912
H        115.33465       82.88850      -19.19350
H        116.78599       82.35549      -21.14251
H        116.03086       79.62952      -21.03724
H        117.03658       80.22257      -18.97139
H        118.31592       80.73070      -20.14019
H        117.70010       81.90161      -18.91213
N        114.32037       83.48769      -21.74361
C        113.34541       84.00824      -22.70295
C        112.75544       82.89815      -23.56906
O        111.53901       82.80027      -23.64977
C        113.95412       85.12329      -23.59517
C        114.40424       86.34897      -22.78095
O        114.99822       84.64235      -24.40735
H        115.27873       83.85974      -21.75065
H        112.50862       84.48082      -22.13878
H        113.14882       85.48351      -24.27250
H        115.79813       84.50060      -23.83877
H        114.76746       87.14229      -23.46709
H        113.55087       86.75361      -22.19584
H        115.22486       86.09842      -22.07758
N        113.56004       82.01329      -24.22390
C        113.05919       80.93839      -25.08484
C        112.09339       80.02956      -24.34231
O        110.98625       79.81770      -24.81735
C        114.22385       80.05974      -25.60719
C        115.25800       80.77396      -26.49442
C        114.67705       81.25427      -27.83095
C        115.78413       81.83554      -28.72135
N        115.25145       82.25333      -30.01721
H        114.57633       82.10137      -24.08182
H        112.52165       81.37696      -25.95303
H        113.80585       79.20947      -26.19187
H        114.76512       79.63077      -24.73543
H        116.05711       80.03243      -26.71559
H        115.72726       81.62231      -25.95422
H        113.90267       82.03094      -27.65781
H        114.21168       80.39087      -28.35530
H        116.56996       81.06432      -28.88598
H        116.25116       82.70882      -28.21383
H        114.52719       82.99617      -29.88689
H        116.03124       82.63627      -30.59914
H        114.83250       81.43335      -30.51373
N        112.46465       79.45098      -23.16895
C        111.63550       78.51188      -22.41358
C        110.28079       79.12747      -22.08655
O        109.26766       78.49068      -22.33898
C        112.38101       78.05283      -21.13432
C        113.67836       77.27970      -21.47580
C        114.46889       76.88319      -20.25792
O        114.77169       75.59433      -20.03381
O        114.90493       77.73039      -19.49972
H        113.38807       79.71129      -22.79369
H        111.45228       77.59907      -23.02425
H        111.72163       77.38376      -20.53802
H        112.61758       78.94361      -20.52268
H        114.35252       77.89511      -22.10260
H        113.41291       76.37068      -22.05718
N        110.19033       80.39074      -21.59052
C        108.94313       81.07323      -21.31275
H        108.05773       80.42776      -21.48581
H        108.93710       81.41223      -20.25612
H        108.86137       81.96592      -21.97023
H        111.04980       80.92003      -21.44331
Ca       117.44996       75.74024      -18.13764
O        118.43470       78.54926      -17.65013
H        118.53194       79.46138      -17.27802
H        119.32205       78.13544      -17.51469
O        117.96105       77.26289      -20.85376
H        118.47314       78.00861      -20.45200
H        118.62871       76.54135      -20.96859

Ca 1.0



