%chk=holoCaM.loop2.water2.frame101.chk
%nprocshared=20
%mem=10GB
%nosave
#b3lyp/svp scf=(tight,noincore,xqc) Test 
#IOP(5/87=12) Density=Current Pop=(MK,readradii) iop(6/33=2) iop(6/42=6)

holoCaM.loop2.water2.frame101 

   -2  1 
C         74.20358       25.92295        9.18031
C         73.53199       26.73924        8.11251
O         72.65815       26.22621        7.42927
H         74.98310       26.51103        9.71177
H         73.44322       25.61207        9.92842
H         74.67684       25.02344        8.73899
N         73.85356       28.05062        7.95848
C         73.14219       28.94753        7.05646
C         73.50316       28.69848        5.59358
O         74.65902       28.42069        5.30719
C         73.48841       30.40217        7.43808
C         72.52905       31.42426        6.91191
O         72.75037       32.72234        7.18361
O         71.51174       31.09689        6.32405
H         74.56105       28.45091        8.59533
H         72.05263       28.80865        7.23824
H         74.52346       30.63751        7.10923
H         73.43592       30.51385        8.54188
N         72.56666       28.85004        4.61191
C         72.83359       28.70209        3.18080
C         72.45084       29.94628        2.36203
O         72.60411       29.90830        1.14792
C         72.01659       27.51017        2.67764
H         71.60586       29.07263        4.89368
H         73.90951       28.48683        3.00337
H         72.22800       27.31083        1.60591
H         72.27623       26.60291        3.26293
H         70.92936       27.71193        2.79871
N         71.91113       31.06087        2.93819
C         71.26568       32.13713        2.17749
C         71.14917       33.47313        2.94013
O         70.63940       34.41651        2.35135
C         69.87783       31.62657        1.72038
C         69.02473       31.19459        2.87695
O         69.40808       31.42859        4.14397
O         67.98319       30.59240        2.67153
H         71.75652       31.02635        3.94184
H         71.86710       32.35916        1.26865
H         70.03624       30.73518        1.07603
H         69.32604       32.38108        1.11780
N         71.62494       33.65798        4.21175
C         71.63161       34.94579        4.89345
C         70.27345       35.52673        5.23655
O         70.24317       36.68398        5.63062
H         72.09256       32.89636        4.70241
H         72.17910       35.66244        4.24730
H         72.19532       34.86317        5.84747
N         69.11220       34.82221        5.11867
C         67.80005       35.43150        5.33496
C         67.44590       35.72059        6.80769
O         66.32766       36.15282        7.05246
C         66.71182       34.61835        4.59985
C         66.34881       33.29142        5.18956
N         65.38455       32.55725        4.59733
O         66.88735       32.88258        6.20325
H         69.15266       33.85268        4.77895
H         67.78958       36.40031        4.78903
H         67.04123       34.45727        3.54861
H         65.77940       35.22095        4.57376
H         64.92479       32.87941        3.73410
H         65.07990       31.67604        5.01280
N         68.34217       35.56452        7.83012
C         68.06667       35.93524        9.21467
C         67.34383       34.87807       10.03026
O         67.14714       35.11290       11.21386
H         69.30736       35.28947        7.61947
H         67.52520       36.90703        9.25061
H         69.04009       36.09035        9.72716
N         66.91298       33.70496        9.48807
C         66.21077       32.66864       10.24450
C         66.79108       31.28062        9.98340
O         67.65428       31.12042        9.13321
C         64.70379       32.69380        9.85079
C         64.00872       33.91028       10.46442
O         64.52788       32.73553        8.45462
H         67.03606       33.55573        8.48293
H         66.29903       32.84204       11.33978
H         64.16875       31.81013       10.26004
H         65.08250       32.01987        8.05157
H         64.08082       33.86646       11.57339
H         64.46328       34.85730       10.10824
H         62.93269       33.90582       10.18962
N         66.27563       30.21035       10.65886
C         66.56136       28.81937       10.33031
C         65.42392       28.33118        9.45849
O         64.28869       28.26420        9.91105
C         66.73527       27.95751       11.63158
C         68.14775       28.10572       12.25631
C         66.38962       26.46257       11.44988
C         69.27944       27.46998       11.42998
H         65.52355       30.38601       11.34167
H         67.47375       28.74184        9.70938
H         65.99312       28.32502       12.37556
H         68.14938       27.60091       13.24751
H         68.37261       29.18022       12.42340
H         67.00815       25.98567       10.66637
H         66.52068       25.92216       12.41200
H         65.32365       26.33469       11.17001
H         69.12251       26.38065       11.28923
H         69.37019       27.93513       10.43571
H         70.24676       27.59709       11.95782
N         65.67357       27.98973        8.16297
C         64.66629       27.44739        7.26911
C         64.41155       25.99820        7.59040
O         65.06830       25.43079        8.45348
C         65.13094       27.53970        5.79409
C         65.25761       28.96813        5.39134
O         66.04109       29.79152        6.11839
O         64.53719       29.41226        4.50949
H         66.62369       28.12283        7.79503
H         63.72410       28.03438        7.36744
H         64.38321       27.07233        5.11860
H         66.09765       27.01005        5.64373
N         63.47766       25.32669        6.88412
C         63.20970       23.90162        6.98625
C         64.46788       23.06371        6.69244
O         64.82433       22.29940        7.57762
C         61.95647       23.60397        6.12496
C         61.64431       22.16839        5.80792
C         61.54910       21.18596        6.80493
C         61.39388       21.81765        4.46779
C         61.21319       19.87109        6.45828
C         61.04577       20.51203        4.12990
C         60.95690       19.53703        5.12362
H         62.92185       25.87840        6.20956
H         62.91825       23.66157        8.03532
H         62.00245       24.16142        5.16961
H         61.09126       24.04381        6.66821
H         61.73375       21.43427        7.84208
H         61.44449       22.56176        3.68106
H         61.14256       19.11083        7.22409
H         60.83869       20.26253        3.09698
H         60.68482       18.52476        4.85685
N         65.21479       23.12042        5.54036
C         66.39164       22.27699        5.30895
C         67.51928       22.49191        6.31135
O         68.36253       21.61968        6.46511
C         66.87068       22.69572        3.91127
C         65.58020       23.13984        3.25578
C         64.92559       23.93024        4.38091
H         66.04619       21.21990        5.31982
H         67.50357       23.61125        3.98785
H         67.44655       21.91609        3.36741
H         65.70402       23.70701        2.30916
H         64.96127       22.23429        3.06053
H         65.42182       24.91704        4.50571
H         63.85711       24.04950        4.15277
N         67.64774       23.68968        6.94111
C         68.73291       24.03554        7.85392
C         68.47687       23.44592        9.22895
O         69.41809       23.02021        9.88404
C         68.87156       25.57056        7.90697
C         69.19633       26.09890        6.49074
C         69.24793       27.58262        6.39360
O         69.00747       28.36078        7.45938
O         69.47377       28.09338        5.31150
H         66.95707       24.42232        6.72231
H         69.70759       23.66361        7.46134
H         69.69237       25.86185        8.60033
H         67.92297       26.01639        8.27826
H         68.42119       25.78039        5.76439
H         70.17370       25.68745        6.15993
N         67.20310       23.31805        9.69257
C         66.86721       22.70913       10.95833
H         65.76625       22.55854       11.00806
H         67.35404       21.71579       11.04566
H         67.17332       23.36587       11.79852
H         66.42433       23.62072        9.10136
Ca        68.10492       30.46367        5.62184
O         70.54222       30.36112        9.00539
H         70.84992       30.62100        9.90689
H         70.32937       29.40464        9.09670
O         69.54135       32.74075        7.72239
H         69.97060       32.88449        8.60274
H         70.16556       33.15093        7.07519

Ca 1.0



