%chk=holoCaM.loop1.water2.frame68.chk
%nprocshared=20
%mem=10GB
%nosave
#b3lyp/svp scf=(tight,noincore,xqc) Test 
#IOP(5/87=12) Density=Current Pop=(MK,readradii) iop(6/33=2) iop(6/42=6)

holoCaM.loop1.water2.frame68 

   0  1 
C         81.65600       38.93421       30.60927
C         81.21931       40.35703       30.45695
O         82.05463       41.24928       30.50556
H         82.75353       38.87579       30.76860
H         81.13941       38.48108       31.48085
H         81.39426       38.36787       29.69095
N         79.90364       40.64278       30.25735
C         79.41736       42.00219       30.07813
C         79.69290       42.82213       31.33503
O         79.14112       42.53259       32.38713
C         77.92134       41.97011       29.70974
C         77.32981       43.30485       29.37480
O         76.05506       43.35717       28.96976
O         77.97828       44.33369       29.44676
H         79.23608       39.85683       30.20428
H         79.95827       42.43640       29.20652
H         77.33424       41.51541       30.53685
H         77.80333       41.33130       28.80638
N         80.60134       43.83443       31.28484
C         81.03403       44.62886       32.42623
C         79.90604       45.44244       33.03662
O         79.80670       45.48272       34.25456
C         82.24447       45.53023       32.04084
C         81.93413       46.72593       31.11870
C         83.22242       47.44322       30.68697
C         82.91372       48.69150       29.84734
N         84.14522       49.34525       29.40252
H         81.07278       43.99734       30.39257
H         81.43497       43.93004       33.19444
H         83.00825       44.87895       31.55922
H         82.69647       45.94016       32.97018
H         81.28426       47.44169       31.66291
H         81.40495       46.39224       30.21117
H         83.84182       46.74046       30.08610
H         83.79983       47.75173       31.58503
H         82.31702       49.40748       30.45577
H         82.31384       48.40469       28.95889
H         84.72382       49.62764       30.22677
H         84.69452       48.69831       28.79082
H         83.90103       50.20090       28.85290
N         79.04031       46.14152       32.24639
C         78.04828       47.08322       32.76364
C         76.60126       46.64245       32.54723
O         75.71203       47.41172       32.88648
C         78.34230       48.49239       32.19255
C         78.22961       48.64318       30.69623
O         77.87354       47.71904       29.98591
O         78.52832       49.82849       30.13222
H         79.12285       46.03178       31.22619
H         78.15413       47.18302       33.86615
H         79.37959       48.76546       32.48424
H         77.65826       49.23021       32.66346
N         76.27461       45.39599       32.09484
C         74.89844       44.91051       32.06108
C         74.01891       45.50109       30.97288
O         72.84431       45.16009       30.94729
H         77.02234       44.72108       31.88376
H         74.43426       45.08606       33.05618
H         74.91058       43.81190       31.89092
N         74.49978       46.34576       30.01715
C         73.68960       46.87347       28.91265
C         73.25347       45.81175       27.87742
O         72.66601       46.19860       26.87628
C         74.44070       48.04132       28.21877
C         75.74048       47.67118       27.56372
O         76.46440       48.61854       26.93896
O         76.15587       46.52821       27.60057
H         75.48111       46.64445       30.08481
H         72.77162       47.33870       29.33567
H         74.65438       48.82442       28.97855
H         73.78068       48.49292       27.44715
N         73.45829       44.47018       28.05191
C         73.01292       43.44880       27.11374
C         73.92511       43.24499       25.91710
O         73.58970       42.40301       25.09547
H         73.85351       44.12473       28.92666
H         71.97267       43.67105       26.78831
H         72.98689       42.47162       27.64277
N         75.07478       43.95874       25.73290
C         75.93681       43.80940       24.55990
C         77.41029       43.61939       24.93485
O         77.81783       43.99076       26.02648
C         75.75154       45.03227       23.62951
C         74.33826       45.07588       23.02246
O         76.03186       46.23288       24.30729
H         75.32280       44.67563       26.41899
H         75.63920       42.90768       23.98039
H         76.45651       44.94642       22.77489
H         75.26538       46.44396       24.90325
H         74.24538       45.94974       22.34420
H         74.14683       44.15195       22.43651
H         73.56197       45.16249       23.81261
N         78.25884       43.01060       24.05022
C         79.68572       42.75620       24.27195
C         80.51951       43.43462       23.17919
O         80.15225       43.41083       22.01274
C         79.94266       41.21281       24.39158
C         79.46246       40.74740       25.80028
C         81.42383       40.83461       24.17722
C         79.62456       39.25318       26.08853
H         77.86154       42.67147       23.16002
H         80.02233       43.19716       25.23280
H         79.37553       40.68804       23.59194
H         78.38840       41.00043       25.92180
H         80.03408       41.29633       26.58402
H         81.76743       41.14480       23.16903
H         82.06812       41.29821       24.94053
H         81.57007       39.73647       24.21082
H         80.69149       38.94851       26.08205
H         79.23679       39.03602       27.10733
H         79.05663       38.65136       25.35066
N         81.71272       44.00463       23.52124
C         82.65292       44.68241       22.63425
C         83.94463       43.87511       22.57158
O         83.98299       42.78006       23.10699
C         82.95404       46.10517       23.19481
C         81.69128       46.97707       23.27654
O         83.62600       46.01439       24.43483
H         82.01518       43.92089       24.49442
H         82.24227       44.77878       21.60554
H         83.63180       46.64391       22.50246
H         83.02890       46.30115       25.17097
H         80.95492       46.52471       23.96869
H         81.95759       47.98804       23.65432
H         81.23299       47.08444       22.27136
N         85.06184       44.36044       21.96701
C         86.35149       43.67054       22.00625
C         86.83727       43.49138       23.44484
O         87.23332       42.39312       23.80600
C         87.42800       44.43908       21.19677
C         87.07900       44.51575       19.70629
O         87.59862       45.73711       21.70938
H         85.00621       45.27538       21.49765
H         86.25374       42.66504       21.53671
H         88.38041       43.86274       21.29019
H         88.54252       45.99595       21.54199
H         86.14235       45.08506       19.53612
H         87.89842       45.02506       19.15693
H         86.95856       43.49368       19.28864
N         86.83842       44.54546       24.31103
C         87.38676       44.49628       25.66907
C         86.71187       43.41770       26.50087
O         87.38470       42.54981       27.03941
C         87.21807       45.86019       26.40236
C         87.72982       47.10699       25.65207
C         89.20280       47.03093       25.24014
C         89.59816       48.29414       24.46147
N         90.99361       48.23363       24.03235
H         86.43439       45.42513       23.96932
H         88.47394       44.27241       25.60502
H         87.73880       45.79215       27.38334
H         86.14133       46.04652       26.60873
H         87.57936       47.99016       26.31151
H         87.11393       47.28347       24.74772
H         89.36115       46.15333       24.57852
H         89.83885       46.92452       26.14555
H         89.44607       49.19300       25.09964
H         88.94780       48.39010       23.56226
H         91.22174       49.10048       23.49384
H         91.62259       48.17426       24.86543
H         91.14301       47.40335       23.41384
N         85.36085       43.42905       26.63101
C         84.57492       42.47035       27.40765
C         84.81901       41.05604       26.90515
O         85.12221       40.18037       27.70318
C         83.07994       42.84962       27.28864
C         82.78961       44.22067       27.93603
C         81.45908       44.78310       27.52301
O         81.25306       45.06652       26.35996
O         80.51845       45.09025       28.41903
H         84.86037       44.16447       26.11002
H         84.85252       42.51628       28.48456
H         82.42436       42.08416       27.75966
H         82.84439       42.89068       26.21434
H         83.53135       44.98193       27.62454
H         82.87245       44.12145       29.03684
N         84.74410       40.77525       25.57890
C         84.98660       39.46071       25.02829
H         86.00344       39.11018       25.30529
H         84.22428       38.74655       25.40214
H         84.92102       39.50228       23.91873
H         84.53611       41.53670       24.93195
Ca        78.83537       46.33655       27.63073
O         78.56310       47.25097       24.79787
H         78.87737       48.10556       24.41055
H         78.56141       46.61766       24.03661
O         80.73174       48.29598       26.57387
H         80.80185       49.12455       27.11047
H         81.57087       47.80398       26.75620

Ca 1.0



