%chk=holoCaM-CaMKII.loop1.water2.frame245.chk
%nprocshared=20
%mem=10GB
%nosave
#b3lyp/svp scf=(tight,noincore,xqc) Test 
#IOP(5/87=12) Density=Current Pop=(MK,readradii) iop(6/33=2) iop(6/42=6)

holoCaM-CaMKII.loop1.water2.frame245 

   0  1 
C        104.61605      118.08580       52.12045
C        105.79922      118.76245       51.50223
O        105.88318      118.83201       50.28551
H        103.92097      117.71622       51.33716
H        104.95894      117.22956       52.73700
H        104.07483      118.80971       52.76652
N        106.75098      119.31801       52.29806
C        107.89608      120.04142       51.76503
C        108.82437      119.08393       51.01755
O        109.40247      118.20656       51.64386
C        108.61340      120.75784       52.92750
C        109.69991      121.68883       52.50305
O        109.98291      121.84075       51.32846
O        110.34766      122.39493       53.44107
H        106.61824      119.26505       53.32093
H        107.50510      120.82912       51.08038
H        109.02999      120.00994       53.63674
H        107.86683      121.37565       53.47372
N        108.96607      119.16833       49.66160
C        109.70261      118.18075       48.86670
C        111.19152      118.47524       48.73361
O        111.91030      117.60983       48.25298
C        109.09792      118.06632       47.44660
C        107.59781      117.72096       47.41658
C        107.28857      116.42302       48.17157
C        105.81755      116.02621       48.04151
N        105.54902      114.81610       48.81770
H        108.38268      119.85756       49.17472
H        109.61992      117.19475       49.36944
H        109.64632      117.27790       46.88581
H        109.23990      119.02907       46.90510
H        107.29827      117.61518       46.35096
H        107.00018      118.55008       47.85042
H        107.50973      116.56269       49.25057
H        107.92300      115.60250       47.77133
H        105.57885      115.84301       46.97045
H        105.16915      116.85075       48.41272
H        104.54829      114.54230       48.69465
H        106.16025      114.03330       48.48879
H        105.72871      114.99711       49.83270
N        111.71692      119.67743       49.08650
C        113.13995      120.01805       48.97434
C        113.73948      120.43279       50.32170
O        114.93806      120.67286       50.37254
C        113.38482      121.10247       47.88349
C        112.64328      122.39812       48.08771
O        111.71449      122.47675       49.05022
O        112.88024      123.36443       47.38104
H        111.05948      120.37807       49.43690
H        113.71886      119.12618       48.64897
H        113.10904      120.70188       46.88479
H        114.47567      121.32162       47.86527
N        112.98881      120.50860       51.45847
C        113.53160      120.81443       52.76970
C        114.15593      122.18858       52.87585
O        115.30645      122.27055       53.28197
H        111.98640      120.28980       51.42879
H        114.27530      120.03544       53.04857
H        112.70604      120.76460       53.51315
N        113.44161      123.31600       52.58813
C        113.93589      124.66957       52.85431
C        113.04942      125.38653       53.87012
O        113.23105      126.57669       54.08322
C        114.16256      125.44187       51.53689
C        112.97193      125.79410       50.69643
O        111.70955      125.73398       51.14308
O        113.15796      126.12225       49.53561
H        112.48838      123.21272       52.20916
H        114.94800      124.62720       53.31242
H        114.82110      124.79017       50.91974
H        114.71857      126.38391       51.72712
N        112.11963      124.69447       54.59519
C        111.32668      125.26123       55.66978
C        109.97434      125.77022       55.22537
O        109.20823      126.15202       56.10003
H        112.06516      123.67473       54.49663
H        111.89281      126.05018       56.21015
H        111.13498      124.44914       56.40539
N        109.60370      125.84004       53.91200
C        108.30797      126.36347       53.48417
C        107.59281      125.42404       52.52540
O        108.16485      124.44572       52.06304
C        108.47919      127.76877       52.85494
C        108.88166      128.81523       53.90561
O        109.39800      127.74244       51.79056
H        110.27581      125.56420       53.18418
H        107.63063      126.46813       54.36080
H        107.50380      128.11392       52.45076
H        110.31453      127.72950       52.17356
H        108.10031      128.87599       54.69370
H        109.85033      128.55709       54.38242
H        108.97338      129.81248       53.42656
N        106.28473      125.66789       52.23107
C        105.44669      124.85663       51.35605
C        104.84589      125.78130       50.30646
O        104.25446      126.78800       50.67660
C        104.33867      124.15472       52.19963
C        104.98926      123.24577       53.27983
C        103.40203      123.32760       51.29134
C        103.99072      122.65821       54.27876
H        105.82901      126.46856       52.69805
H        106.03675      124.05277       50.86297
H        103.73739      124.93995       52.70995
H        105.70547      123.84127       53.88336
H        105.55443      122.42076       52.79180
H        103.96873      122.52711       50.76802
H        102.58079      122.86169       51.87075
H        102.91587      123.97228       50.53240
H        104.54111      122.06377       55.03866
H        103.44857      123.47664       54.79892
H        103.26152      121.98313       53.78988
N        104.91739      125.48156       48.98027
C        104.34576      126.32702       47.93443
C        103.01960      125.74227       47.47985
O        102.64303      124.68696       47.95830
C        105.33626      126.44116       46.74098
C        106.71041      126.95891       47.17161
O        105.50089      125.18307       46.14457
H        105.32701      124.58099       48.70194
H        104.13775      127.34457       48.33215
H        104.90315      127.14549       45.99443
H        105.91759      125.33210       45.25601
H        106.62613      127.95986       47.63944
H        107.17604      126.24956       47.88695
H        107.37740      127.03192       46.28478
N        102.24501      126.36906       46.55478
C        101.03516      125.75319       46.00462
C        101.38990      124.45587       45.29138
O        100.71039      123.45922       45.49082
C        100.28837      126.71461       45.04517
C         99.60785      127.84572       45.82244
O        101.15743      127.26684       44.08865
H        102.55079      127.28876       46.20135
H        100.31986      125.50443       46.82179
H         99.45857      126.16533       44.53958
H        101.25097      126.60308       43.35841
H        100.34699      128.45446       46.38258
H         99.05086      128.50487       45.12327
H         98.87507      127.41982       46.54350
N        102.48236      124.39583       44.48210
C        102.91187      123.20143       43.75849
C        103.12396      122.02395       44.70275
O        102.53687      120.97306       44.48665
C        104.21267      123.54227       42.99561
C        104.70999      122.44995       42.04146
C        105.97832      122.94672       41.32882
C        106.50761      121.93726       40.30600
N        107.70294      122.45975       39.64152
H        103.05004      125.25264       44.38773
H        102.12997      122.93840       43.01160
H        105.01612      123.78092       43.72424
H        104.02016      124.45258       42.38508
H        103.91929      122.23819       41.28884
H        104.93492      121.51717       42.60274
H        106.76873      123.14657       42.08613
H        105.74912      123.89702       40.79749
H        105.72319      121.73772       39.54244
H        106.75660      120.98154       40.81743
H        108.45658      122.64040       40.34427
H        108.04775      121.75807       38.94779
H        107.47570      123.34820       39.13747
N        103.95530      122.14168       45.77445
C        104.25862      121.05549       46.70495
C        102.98763      120.58754       47.39806
O        102.62804      119.42623       47.26357
C        105.33527      121.50353       47.73191
C        106.65918      121.89155       47.03121
C        107.72236      122.36971       47.98082
O        107.50372      123.43194       48.77529
O        108.82250      121.84410       47.98153
H        104.39154      123.05672       45.92492
H        104.68696      120.20081       46.13441
H        105.53648      120.67245       48.43985
H        104.95193      122.36492       48.31642
H        106.49173      122.71763       46.31585
H        107.03864      121.01680       46.45923
N        102.23731      121.45355       48.12889
C        100.98497      121.08495       48.75154
H        100.26615      120.73538       47.97954
H        101.14982      120.28581       49.50291
H        100.54388      121.97003       49.26062
H        102.55665      122.41832       48.23140
Ca       110.66187      124.16465       50.02344
O        109.58228      126.71876       48.88577
H        109.02427      126.38164       49.63121
H        109.25953      127.64155       48.73179
O        109.65533      124.68559       46.60859
H        110.08769      125.10867       45.82524
H        110.38849      124.20220       47.06424

Ca 1.0



