%chk=holoCaM-CaMKII.loop4.water2.frame56.chk
%nprocshared=20
%mem=10GB
%nosave
#b3lyp/svp scf=(tight,noincore,xqc) Test 
#IOP(5/87=12) Density=Current Pop=(MK,readradii) iop(6/33=2) iop(6/42=6)

holoCaM-CaMKII.loop4.water2.frame56 

   -3  1 
C          8.50400       50.91465       70.43729
C          9.62315       50.23371       69.70309
O         10.60190       50.88557       69.37620
H          7.67902       50.20639       70.66732
H          8.88156       51.33607       71.39136
H          8.09250       51.73201       69.80885
N          9.54102       48.90854       69.41146
C         10.56008       48.16782       68.67566
C         10.70978       48.71042       67.25863
O          9.70879       48.87184       66.57434
C         10.16905       46.68075       68.65275
C         11.15878       45.86731       67.88906
O         10.79191       45.21647       66.92806
O         12.45322       45.86637       68.24706
H          8.70353       48.39779       69.73363
H         11.53335       48.24091       69.21301
H          9.16143       46.55591       68.19866
H         10.13480       46.29969       69.69724
N         11.95062       48.97506       66.74890
C         12.18491       49.54879       65.42498
C         12.84828       48.51476       64.51925
O         12.24856       48.14603       63.51846
C         13.03456       50.85431       65.56628
C         12.28843       51.87978       66.45933
C         13.38091       51.45643       64.19134
C         13.10127       53.13052       66.79847
H         12.77408       48.75987       67.32942
H         11.21569       49.82095       64.94850
H         13.99139       50.59877       66.06676
H         12.05349       51.40086       67.42850
H         11.33265       52.18008       65.97736
H         12.46023       51.75283       63.64729
H         14.04114       52.34050       64.30006
H         13.94653       50.72716       63.57480
H         14.04571       52.84849       67.30691
H         13.33165       53.72890       65.89548
H         12.51269       53.77241       67.48809
N         14.09621       48.02874       64.78200
C         14.80141       47.09914       63.89368
C         14.20589       45.68266       63.84629
O         14.72770       44.86607       63.09975
C         16.31367       47.08318       64.21941
C         16.67725       46.58662       65.59062
O         15.73572       46.16784       66.45580
O         17.85055       46.56946       65.92561
H         14.59460       48.40305       65.59925
H         14.74449       47.51160       62.86093
H         16.69708       48.12326       64.11729
H         16.84241       46.45821       63.46707
N         13.09002       45.33089       64.54799
C         12.41565       44.04732       64.39604
C         13.09885       42.90155       65.10830
O         13.34833       41.87617       64.49177
H         12.62495       46.02714       65.14390
H         12.24233       43.82876       63.31974
H         11.41275       44.12644       64.85779
N         13.37488       43.00040       66.43805
C         13.88875       41.91175       67.27181
C         13.03047       41.69620       68.53011
O         13.39411       40.86441       69.34981
C         15.37886       42.15522       67.59387
C         15.69331       43.43817       68.30964
O         16.85813       43.75754       68.47880
O         14.71264       44.25809       68.72277
H         13.20646       43.91095       66.88118
H         13.87150       40.95278       66.70680
H         15.91588       42.17995       66.62007
H         15.78363       41.30049       68.17877
N         11.84638       42.35446       68.71617
C         10.92971       42.09884       69.81848
C         11.25916       42.78143       71.13520
O         10.43359       42.66162       72.03067
H         11.49382       42.97394       67.97722
H         10.79142       41.00394       69.95565
H          9.93879       42.51078       69.52384
N         12.38778       43.52293       71.34919
C         12.62720       44.25521       72.59947
C         12.85558       45.73755       72.33843
O         12.88431       46.15032       71.18697
C         13.83327       43.66930       73.35806
C         13.59018       42.22529       73.81403
C         14.68876       41.76689       74.74060
N         15.97452       41.70289       74.32420
O         14.41181       41.45776       75.89030
H         13.09866       43.58394       70.60736
H         11.74299       44.18764       73.27081
H         14.00378       44.27320       74.27434
H         14.74511       43.73025       72.72958
H         13.52010       41.54687       72.93719
H         12.62574       42.18338       74.36805
H         16.23272       41.95757       73.36053
H         16.71661       41.39961       74.97254
N         13.01109       46.60434       73.38624
C         13.26288       48.03342       73.23077
C         14.56512       48.39370       73.94040
O         14.63732       48.29830       75.15848
C         12.06716       48.84884       73.79909
C         12.29685       50.36477       73.68410
C         10.76312       48.48648       73.07082
H         12.93345       46.24046       74.34847
H         13.36042       48.28733       72.15144
H         11.94243       48.60007       74.87679
H         12.41115       50.66630       72.62240
H         11.43609       50.91601       74.11857
H         13.19939       50.67214       74.24792
H         10.53282       47.40661       73.18334
H          9.91256       49.05843       73.49934
H         10.84380       48.72325       71.98875
N         15.64417       48.80712       73.22051
C         16.92095       49.21822       73.80098
C         16.78185       50.62098       74.39919
O         15.71391       51.20667       74.29036
C         17.98147       49.22768       72.66244
C         19.41615       49.29154       73.12896
N         19.95229       48.27508       73.84149
O         20.11542       50.24631       72.83175
H         15.56018       48.80628       72.20085
H         17.22439       48.46306       74.55815
H         17.74989       50.06711       71.97035
H         17.90190       48.28538       72.07869
H         19.39324       47.44251       74.07535
H         20.93953       48.31021       74.13638
N         17.83205       51.25382       74.99546
C         17.79089       52.67040       75.35840
C         17.64210       53.51930       74.10219
O         16.80575       54.40925       74.08878
C         19.07176       53.08490       76.11079
C         19.07090       54.56336       76.45277
C         18.07883       55.11900       77.28357
C         20.06507       55.40404       75.92467
C         18.08299       56.48865       77.57266
C         20.06762       56.77089       76.21620
C         19.07540       57.31856       77.04079
O         19.06591       58.63647       77.32679
H         18.70633       50.73272       75.14874
H         16.93407       52.85535       76.04461
H         19.95344       52.84103       75.47896
H         19.15381       52.49659       77.05021
H         17.29914       54.49775       77.70535
H         20.83734       55.00338       75.28069
H         17.31279       56.90667       78.20950
H         20.84036       57.40316       75.79774
H         19.73467       59.24348       76.97808
N         18.43419       53.30460       73.00984
C         18.33002       54.09238       71.78036
C         16.98056       53.95465       71.06899
O         16.77315       54.68217       70.10762
C         19.48639       53.75180       70.80629
C         19.37812       52.34944       70.18207
C         20.58120       52.03629       69.34141
O         21.80436       51.99245       69.90413
O         20.45607       51.79895       68.15072
H         19.15637       52.57488       73.07509
H         18.46001       55.15825       72.07294
H         20.44453       53.84930       71.36345
H         19.50173       54.49442       69.97798
H         18.46368       52.29343       69.55410
H         19.30147       51.58077       70.96695
N         16.02110       53.06409       71.47084
C         14.71141       52.94581       70.83210
C         13.59751       53.44428       71.74874
O         12.47944       53.59105       71.27459
C         14.44974       51.48482       70.40078
C         15.55443       50.95842       69.47352
C         15.30974       49.54513       69.03304
O         15.26012       49.27524       67.84695
O         15.19257       48.55943       69.93759
H         16.21170       52.44194       72.26141
H         14.67693       53.59409       69.92970
H         13.46764       51.42428       69.88162
H         14.40787       50.84159       71.30707
H         16.52253       50.97335       70.01225
H         15.63456       51.61390       68.58119
N         13.82002       53.75043       73.05899
C         12.81056       54.32421       73.91879
H         11.92666       53.65805       73.97940
H         13.22664       54.46375       74.94136
H         12.51324       55.32076       73.52862
H         14.73303       53.57859       73.48164
Ca        15.05624       46.40763       69.29826
O         16.84181       44.88274       71.40942
H         16.79329       43.89624       71.47659
H         17.47013       45.04555       70.66271
O         17.95390       47.42399       69.43299
H         17.92764       47.04367       68.52015
H         18.91339       47.42641       69.67483

Ca 1.0



