%chk=holoCaM-CaMKII.loop3.water1.frame389.chk
%nprocshared=20
%mem=10GB
%nosave
#b3lyp/svp scf=(tight,noincore,xqc) Test 
#IOP(5/87=12) Density=Current Pop=(MK,readradii) iop(6/33=2) iop(6/42=6)

holoCaM-CaMKII.loop3.water1.frame389 

   0  1 
C         42.74742       92.07770       85.94325
C         43.47502       92.53871       87.16982
O         43.99641       91.71484       87.90763
H         41.69654       92.43565       85.97458
H         43.24565       92.49636       85.04349
H         42.74860       90.96976       85.87323
N         43.52795       93.86728       87.45373
C         44.22054       94.42989       88.60308
C         43.16542       94.99853       89.53773
O         42.39607       95.84546       89.10232
C         45.19608       95.50730       88.07797
C         46.13521       96.09050       89.08986
O         46.79657       97.06923       88.78343
O         46.29587       95.54895       90.30989
H         43.03568       94.52008       86.82257
H         44.78938       93.64063       89.13323
H         44.59055       96.33165       87.64327
H         45.82625       95.08928       87.26349
N         43.01621       94.52824       90.81529
C         41.88144       94.91665       91.66195
C         41.79775       96.41112       91.96856
O         40.76749       96.84013       92.46854
C         41.80207       94.06633       92.95101
C         42.95688       94.28497       93.94621
C         42.85537       93.34761       95.17083
C         41.60722       93.53204       96.05370
N         41.56547       94.85247       96.68266
H         43.66931       93.80424       91.15000
H         40.96920       94.66761       91.07506
H         41.77826       92.99342       92.65766
H         40.84176       94.30495       93.45218
H         42.99596       95.34416       94.27380
H         43.91478       94.06317       93.43525
H         43.74583       93.49652       95.81647
H         42.86903       92.29728       94.80893
H         41.63760       92.75951       96.85430
H         40.67873       93.35656       95.47150
H         40.72611       94.90504       97.30371
H         42.42240       94.99865       97.26470
H         41.48991       95.60436       95.96204
N         42.81590       97.26217       91.66788
C         42.72840       98.71782       91.77003
C         42.92385       99.33401       90.39046
O         42.07452      100.11822       89.98947
C         43.65488       99.33744       92.86339
C         45.10519       98.94519       92.88006
O         45.52162       97.97055       92.07638
O         45.86773       99.42760       93.70076
H         43.67768       96.85474       91.29257
H         41.71022       99.02614       92.09878
H         43.25381       99.04507       93.85744
H         43.58207      100.44426       92.78209
N         43.98857       99.01537       89.59479
C         44.21980       99.61518       88.28964
C         45.52477      100.38405       88.23241
O         45.73516      101.05573       87.23276
H         44.66313       98.31132       89.90753
H         43.40884      100.33282       88.04199
H         44.21656       98.82903       87.50438
N         46.43430      100.36790       89.25675
C         47.59241      101.25499       89.31223
C         48.85284      100.64985       88.69389
O         49.88916      100.61409       89.34290
C         47.80654      101.74273       90.77030
C         48.21328      100.66588       91.75931
N         48.41768      100.98835       93.05563
O         48.36925       99.50809       91.40062
H         46.22883       99.81392       90.09626
H         47.35904      102.17185       88.72573
H         46.86088      102.20758       91.12667
H         48.59452      102.52593       90.77308
H         48.29226      101.95684       93.38246
H         48.70093      100.26679       93.73450
N         48.86164      100.23818       87.39843
C         50.07769       99.85987       86.69907
C         50.73149       98.55621       87.11383
O         51.74544       98.25218       86.49741
H         48.00106      100.30293       86.84039
H         50.81340      100.68781       86.79489
H         49.83607       99.75703       85.61818
N         50.23212       97.69679       88.05573
C         50.85260       96.38141       88.26105
C         50.01599       95.42285       89.08599
O         49.11309       95.85389       89.78654
C         52.26499       96.47032       88.90643
C         52.22891       96.74296       90.40266
C         52.66955       95.74745       91.29600
C         51.75187       97.95748       90.92423
C         52.63064       95.95820       92.67584
C         51.71682       98.16887       92.30948
C         52.15505       97.17131       93.18853
O         52.11519       97.38728       94.51937
H         49.35236       97.93593       88.53644
H         50.93288       95.92791       87.24714
H         52.91131       97.21380       88.39902
H         52.74800       95.48217       88.74659
H         53.03715       94.79867       90.92656
H         51.40956       98.73950       90.26396
H         52.96965       95.17612       93.34436
H         51.34774       99.10849       92.70183
H         52.40711       96.72032       95.15800
N         50.30861       94.09072       89.07775
C         49.65083       93.11443       89.93843
C         50.65851       92.35963       90.78389
O         51.82555       92.25768       90.42580
C         48.77255       92.10050       89.14206
C         49.55463       91.42475       87.98554
C         47.50278       92.79395       88.64091
C         48.78851       90.28163       87.31559
H         51.05112       93.75758       88.44242
H         48.98684       93.64093       90.65612
H         48.43644       91.31275       89.85471
H         50.49620       90.99182       88.38322
H         49.81564       92.17949       87.21190
H         47.74457       93.60818       87.92744
H         46.80674       92.07772       88.16132
H         46.96899       93.21434       89.51523
H         47.85231       90.63453       86.83896
H         49.42010       89.83473       86.51899
H         48.54923       89.49400       88.06123
N         50.22661       91.76559       91.92698
C         51.01866       90.89098       92.77703
C         50.31551       89.54048       92.87182
O         49.29916       89.35649       92.21716
C         51.19894       91.55315       94.15314
O         49.95833       91.76661       94.76713
H         49.24919       91.92439       92.21008
H         52.03333       90.73034       92.35021
H         51.71873       92.52775       94.00280
H         51.83205       90.91279       94.80427
H         50.14527       92.29560       95.58606
N         50.79148       88.53671       93.65579
C         50.13237       87.23465       93.75108
C         48.71155       87.35478       94.27887
O         47.79394       86.88809       93.61888
C         50.93135       86.29497       94.65625
H         51.65725       88.69901       94.19308
H         50.10350       86.76989       92.73934
H         50.43699       85.30036       94.69752
H         51.95457       86.16069       94.24696
H         51.00679       86.70264       95.68653
N         48.46132       87.97592       95.46576
C         47.12836       88.09537       96.05139
C         46.15017       88.74553       95.09631
O         45.06126       88.21669       94.91826
C         47.19137       88.90718       97.35188
H         49.25919       88.38983       95.97225
H         46.74722       87.08338       96.31523
H         47.86828       88.40856       98.07800
H         47.56488       89.93625       97.16135
H         46.18115       88.97336       97.81186
N         46.47708       89.89096       94.43795
C         45.54946       90.58438       93.54906
C         45.10178       89.66927       92.42177
O         43.91400       89.39360       92.32113
C         46.16649       91.88923       92.99704
C         46.56102       92.84895       94.13711
C         47.04983       94.16678       93.63119
O         46.39810       95.29469       93.97215
O         48.05778       94.23047       92.94778
H         47.42225       90.27199       94.58608
H         44.65332       90.87142       94.14131
H         45.41031       92.38734       92.35157
H         47.04994       91.66225       92.36885
H         47.35916       92.42031       94.77226
H         45.68073       93.02467       94.77949
N         46.00186       89.13252       91.55574
C         45.61865       88.20327       90.51565
H         44.89820       88.68114       89.81964
H         46.51635       87.88593       89.94280
H         45.15618       87.30031       90.96999
H         46.99408       89.37395       91.64715
Ca        47.38772       96.82302       91.80361
O         48.82733       97.59907       94.46104
H         49.25433       98.16168       95.15496
H         49.33113       96.74718       94.48590

Ca 1.0



