%chk=holoCaM-CaMKII.loop2.water2.frame347.chk
%nprocshared=20
%mem=10GB
%nosave
#b3lyp/svp scf=(tight,noincore,xqc) Test 
#IOP(5/87=12) Density=Current Pop=(MK,readradii) iop(6/33=2) iop(6/42=6)

holoCaM-CaMKII.loop2.water2.frame347 

   -2  1 
C         28.84682       64.47090       58.54622
C         29.40130       65.32574       59.65284
O         30.54213       65.75319       59.57848
H         27.95578       64.97467       58.10905
H         29.59173       64.32206       57.73661
H         28.53404       63.48341       58.94422
N         28.60145       65.65505       60.69883
C         28.96500       66.60403       61.74666
C         30.05015       66.11541       62.69988
O         29.86601       65.07929       63.32379
C         27.70537       66.92163       62.57547
C         27.99840       67.94277       63.62419
O         28.44878       69.02548       63.29768
O         27.80306       67.65661       64.92529
H         27.63872       65.28054       60.68787
H         29.28971       67.55103       61.26074
H         27.31821       65.99643       63.05624
H         26.91493       67.32229       61.90689
N         31.15412       66.89009       62.94455
C         32.12532       66.60026       64.00136
C         32.30093       67.75346       65.01280
O         33.05292       67.55912       65.95780
C         33.47699       66.27340       63.35940
H         31.29926       67.73531       62.37254
H         31.80415       65.70581       64.57811
H         33.36925       65.40885       62.67009
H         33.85742       67.14502       62.78455
H         34.22379       66.00214       64.13672
N         31.70806       68.98147       64.86769
C         31.99049       70.13816       65.74075
C         30.74053       70.86763       66.26014
O         30.91008       71.83137       66.99536
C         32.91422       71.13417       64.99258
C         32.46023       71.35362       63.58531
O         31.19809       71.71754       63.32338
O         33.19194       71.03631       62.66025
H         31.11559       69.14741       64.04428
H         32.54907       69.82251       66.64851
H         33.93537       70.69624       64.94145
H         32.99482       72.09750       65.54020
N         29.46984       70.47902       65.96007
C         28.27465       71.13480       66.48856
C         28.00733       72.55534       65.99207
O         27.03472       73.13697       66.45175
H         29.33586       69.63761       65.39750
H         28.34063       71.14559       67.59848
H         27.38531       70.52741       66.21236
N         28.79905       73.18740       65.07735
C         28.59589       74.57218       64.63632
C         27.35270       74.80750       63.75734
O         27.16714       75.93675       63.32373
C         29.87500       75.11276       63.94548
C         30.23815       74.49901       62.61902
N         31.32461       74.95255       61.95648
O         29.56646       73.60478       62.13257
H         29.62661       72.69482       64.73808
H         28.49232       75.20277       65.54717
H         30.73589       74.97575       64.63698
H         29.74987       76.20448       63.78021
H         31.90760       75.70558       62.34927
H         31.58033       74.55660       61.04536
N         26.43844       73.83005       63.48326
C         25.21181       74.05989       62.72722
C         25.36853       74.13891       61.21438
O         24.35387       74.31737       60.55725
H         26.54344       72.90701       63.91547
H         24.70869       74.97432       63.11304
H         24.52530       73.20632       62.91320
N         26.57168       74.00754       60.58410
C         26.74064       74.07293       59.12828
C         27.44850       72.83041       58.59051
O         27.83962       71.96786       59.36109
C         27.56059       75.34243       58.76965
C         26.78281       76.61692       59.09798
O         28.78338       75.36141       59.46228
H         27.41363       73.88082       61.15235
H         25.75789       74.13540       58.61161
H         27.75239       75.39518       57.67437
H         29.39041       74.72689       58.99998
H         26.55495       76.67912       60.18214
H         27.38236       77.50598       58.80812
H         25.83099       76.63766       58.52399
N         27.70131       72.72905       57.24987
C         28.54288       71.70174       56.64535
C         29.84742       72.37808       56.26315
O         29.82669       73.37992       55.56262
C         27.85587       71.03233       55.41133
C         26.59198       70.25279       55.85944
C         28.84722       70.09234       54.68419
C         25.83955       69.56726       54.71170
H         27.37127       73.48175       56.62869
H         28.77367       70.89604       57.37322
H         27.55854       71.82548       54.68944
H         25.88865       70.96051       56.34707
H         26.87407       69.47432       56.60251
H         28.40320       69.66062       53.76569
H         29.73921       70.65024       54.33569
H         29.17538       69.26910       55.35261
H         24.92712       69.07490       55.10838
H         25.54070       70.30896       53.94175
H         26.45146       68.77156       54.23873
N         31.03054       71.84432       56.67690
C         32.33363       72.41639       56.36813
C         32.95749       71.65234       55.22349
O         32.35095       70.72535       54.71891
C         33.24085       72.36274       57.61381
C         32.66664       73.13309       58.76365
O         31.48241       72.77450       59.29503
O         33.28288       74.07462       59.23605
H         31.01746       70.94949       57.17865
H         32.22719       73.47127       56.03145
H         34.23873       72.78519       57.36969
H         33.38487       71.30665       57.93064
N         34.16007       72.03609       54.71658
C         34.74858       71.40112       53.54740
C         35.07938       69.92660       53.76762
O         34.58969       69.13229       52.97248
C         35.95998       72.21461       53.04840
C         36.51458       71.68626       51.74468
C         35.69573       71.58297       50.60263
C         37.86350       71.30602       51.65349
C         36.21639       71.09854       49.40047
C         38.38226       70.83113       50.44477
C         37.55911       70.72478       49.32054
H         34.63495       72.85045       55.13151
H         33.99006       71.46327       52.73712
H         36.74607       72.25046       53.82812
H         35.62657       73.26032       52.87068
H         34.65392       71.87358       50.63515
H         38.51580       71.38367       52.51415
H         35.57807       71.01665       48.52987
H         39.42393       70.54657       50.37936
H         37.96162       70.35551       48.38648
N         35.87550       69.44125       54.77595
C         36.21922       68.03045       54.89222
C         35.03031       67.16392       55.28250
O         35.14317       65.94997       55.19971
C         37.34154       68.01626       55.93319
C         36.93502       69.15975       56.84057
C         36.48835       70.22245       55.83331
H         36.61816       67.64854       53.92589
H         37.52757       67.03781       56.42616
H         38.28278       68.33825       55.43147
H         36.04392       68.82056       57.41768
H         37.70863       69.50454       57.55936
H         35.78239       70.90631       56.34630
H         37.35340       70.77665       55.41546
N         33.86110       67.71188       55.71356
C         32.66111       66.92587       55.96506
C         32.03430       66.56517       54.63630
O         31.80192       65.39372       54.37504
C         31.65977       67.73198       56.80762
C         32.26299       68.08787       58.17246
C         31.33119       68.89261       59.01589
O         31.78409       69.36789       60.17708
O         30.19912       69.16181       58.65337
H         33.80970       68.72952       55.85613
H         32.90572       66.01347       56.55579
H         30.73885       67.12744       56.96524
H         31.38230       68.66891       56.27945
H         33.17900       68.69819       58.03126
H         32.54742       67.16776       58.72621
N         31.75544       67.55142       53.73744
C         31.16509       67.33843       52.43645
H         30.24056       67.94864       52.35570
H         31.87987       67.67647       51.65606
H         30.91169       66.27452       52.25815
H         31.99375       68.51967       53.97523
Ca        30.60318       70.80747       61.39523
O         27.63402       69.15691       59.89180
H         26.69124       69.03676       60.16528
H         27.80209       68.42000       59.25273
O         27.23813       71.19347       62.20647
H         26.58273       70.77206       62.81876
H         27.99143       71.45952       62.79302

Ca 1.0



