%chk=holoCaM.loop2.water2.frame88.chk
%nprocshared=20
%mem=10GB
%nosave
#b3lyp/svp scf=(tight,noincore,xqc) Test 
#IOP(5/87=12) Density=Current Pop=(MK,readradii) iop(6/33=2) iop(6/42=6)

holoCaM.loop2.water2.frame88 

   -2  1 
C         82.56493       32.47742       14.88106
C         81.89959       33.47443       13.96950
O         82.31432       33.60761       12.82873
H         83.63066       32.74519       15.03002
H         82.07004       32.44147       15.87597
H         82.50193       31.46217       14.43416
N         80.83265       34.19438       14.41001
C         80.06025       35.11380       13.57833
C         80.88257       36.32216       13.12269
O         81.53414       36.94737       13.94689
C         78.83205       35.60342       14.37716
C         77.80102       36.29060       13.52916
O         76.71400       36.83015       14.10942
O         77.90029       36.30546       12.31558
H         80.51639       34.03242       15.37904
H         79.68179       34.54001       12.70202
H         79.17345       36.28239       15.18735
H         78.31351       34.73642       14.83957
N         80.84846       36.72607       11.81953
C         81.59096       37.85991       11.26753
C         80.67432       38.90038       10.60195
O         81.18647       39.76735        9.90658
C         82.57901       37.30697       10.23210
H         80.25996       36.19176       11.17106
H         82.19357       38.37227       12.04796
H         83.24660       36.55831       10.70994
H         82.04380       36.82307        9.39008
H         83.21304       38.12069        9.82047
N         79.31786       38.87954       10.75875
C         78.39179       39.72317       10.00443
C         77.12139       40.04947       10.79756
O         76.84151       41.22933       10.96262
C         78.10639       39.10577        8.60637
C         78.02649       37.59675        8.58700
O         77.13996       36.91832        9.33276
O         78.84099       36.96882        7.92966
H         78.90809       38.17435       11.37233
H         78.85539       40.71733        9.80476
H         78.96724       39.36880        7.95087
H         77.20454       39.57157        8.15351
N         76.30002       39.08557       11.30444
C         75.05201       39.36179       12.00695
C         73.84390       38.74455       11.31516
O         72.74967       38.86406       11.84748
H         76.55978       38.10216       11.20674
H         74.86906       40.45330       12.10432
H         75.13075       38.93832       13.03047
N         73.95435       38.08851       10.12247
C         72.83165       37.50313        9.38485
C         72.18596       36.27437       10.04860
O         71.27278       35.71984        9.45228
C         73.28532       37.18829        7.93603
C         74.39118       36.17093        7.80293
N         74.92037       35.91988        6.58611
O         74.82751       35.58529        8.78034
H         74.87560       38.06529        9.66851
H         72.04377       38.28159        9.27839
H         73.65387       38.13924        7.49066
H         72.41767       36.84944        7.33069
H         74.57822       36.41261        5.74904
H         75.68713       35.24554        6.48265
N         72.55451       35.81516       11.28158
C         71.88934       34.71066       11.96303
C         72.25939       33.32005       11.47271
O         71.73433       32.37070       12.03750
H         73.26371       36.32078       11.82093
H         70.78793       34.86096       11.92047
H         72.18295       34.73822       13.03448
N         73.15154       33.10192       10.46435
C         73.54481       31.76957        9.99935
C         75.05854       31.58033       10.08682
O         75.76485       32.50780       10.45202
C         73.06578       31.58148        8.53377
C         71.53861       31.59848        8.44078
O         73.57870       32.59400        7.70470
H         73.56786       33.90909        9.98782
H         73.08010       30.97386       10.62253
H         73.37856       30.58647        8.14457
H         74.54188       32.40006        7.56895
H         71.12943       32.57404        8.77748
H         71.22526       31.42958        7.38837
H         71.10770       30.78820        9.06738
N         75.62440       30.40043        9.69694
C         77.06226       30.18695        9.55375
C         77.35536       30.11728        8.06768
O         76.71262       29.35776        7.35469
C         77.55552       28.90996       10.30707
C         77.41877       29.11692       11.83925
C         79.02402       28.59680        9.93596
C         77.94809       27.95335       12.68682
H         75.00437       29.63715        9.38542
H         77.63833       31.04417        9.96601
H         76.94455       28.03616        9.98927
H         76.34689       29.26867       12.08640
H         77.97948       30.02773       12.14301
H         79.36766       27.65197       10.39987
H         79.13628       28.43404        8.84525
H         79.69276       29.42206       10.25233
H         77.43838       27.00553       12.41777
H         79.04529       27.83136       12.56557
H         77.77308       28.16831       13.76163
N         78.36114       30.87309        7.54811
C         78.71935       30.90693        6.13879
C         79.99113       30.11836        5.92162
O         80.52388       29.57219        6.87322
C         78.88700       32.37247        5.69067
C         77.61895       33.15399        5.87400
O         77.08680       33.30097        7.10200
O         77.07238       33.67054        4.91293
H         78.94265       31.42629        8.19137
H         77.93327       30.41921        5.52078
H         79.18064       32.41086        4.62052
H         79.69171       32.85816        6.28655
N         80.51219       29.96226        4.67615
C         81.66972       29.11740        4.41390
C         82.91335       29.57151        5.18142
O         83.47591       28.72944        5.86679
C         81.90251       28.97078        2.89280
C         83.01549       28.00552        2.55818
C         82.96748       26.67021        3.00154
C         84.10696       28.42830        1.78026
C         83.99638       25.78171        2.68018
C         85.12978       27.53270        1.45406
C         85.07582       26.21157        1.90561
H         80.03474       30.41340        3.88044
H         81.41269       28.09716        4.77481
H         82.09645       29.95162        2.42331
H         80.96752       28.57925        2.43597
H         82.13743       26.31122        3.59553
H         84.16415       29.44772        1.41920
H         83.95370       24.75813        3.02944
H         85.96391       27.86292        0.84911
H         85.86862       25.51986        1.65319
N         83.40303       30.85367        5.16489
C         84.57360       31.28486        5.92837
C         84.49186       30.91590        7.39954
O         85.45296       30.41786        7.96773
C         84.53519       32.82056        5.80908
C         83.90633       33.02025        4.45494
C         82.79809       31.97412        4.47072
H         85.49216       30.87644        5.45183
H         83.80932       33.25323        6.53556
H         85.51392       33.32086        5.97049
H         83.56071       34.05463        4.24168
H         84.65822       32.72259        3.69014
H         81.91558       32.31587        5.05616
H         82.51165       31.77361        3.42606
N         83.34166       31.18143        8.06962
C         83.13714       31.03087        9.50588
C         83.30113       29.58127        9.91887
O         84.15591       29.30055       10.74723
C         81.74713       31.61843        9.86861
C         81.73849       33.12880        9.53563
C         80.41101       33.80982        9.55647
O         79.25684       33.20850        9.89114
O         80.36925       34.96498        9.17463
H         82.56085       31.54077        7.50130
H         83.89734       31.63618       10.05079
H         81.51252       31.47851       10.94625
H         80.97805       31.09476        9.26616
H         82.09685       33.30740        8.50575
H         82.43820       33.66247       10.21240
N         82.54460       28.60308        9.35229
C         82.69360       27.19297        9.64721
H         83.48282       26.99774       10.40251
H         81.73199       26.78991       10.02504
H         82.96404       26.65488        8.71360
H         81.84145       28.86096        8.65557
Ca        77.60751       34.73300        9.66082
O         77.45055       32.88038       12.79788
H         78.12155       32.59690       12.12878
H         77.47988       32.17502       13.49076
O         75.40769       34.86709       11.89609
H         75.16713       34.81409       12.85466
H         75.47058       35.83546       11.70251

Ca 1.0



