%chk=holoCaM.loop4.water3.frame164.chk
%nprocshared=20
%mem=10GB
%nosave
#b3lyp/svp scf=(tight,noincore,xqc) Test 
#IOP(5/87=12) Density=Current Pop=(MK,readradii) iop(6/33=2) iop(6/42=6)

holoCaM.loop4.water3.frame164 

   -3  1 
C         93.99531      104.95739       84.81370
C         92.62532      104.38014       84.61718
O         92.41361      103.24128       85.00742
H         94.74776      104.32327       84.30224
H         94.06141      105.99139       84.41610
H         94.22486      104.98682       85.90114
N         91.62794      105.12930       84.06293
C         90.25094      104.66796       83.95825
C         89.71064      104.87011       82.54478
O         89.77123      105.98199       82.03891
C         89.40517      105.45969       84.97263
C         88.03387      104.88563       85.17456
O         87.71889      103.82470       84.66265
O         87.16629      105.51496       85.98795
H         91.83309      106.10171       83.78661
H         90.18853      103.59527       84.24180
H         89.33084      106.51905       84.64746
H         89.90003      105.43418       85.96758
N         89.12798      103.83937       81.86942
C         88.58703      103.94041       80.50997
C         87.06083      103.75012       80.50592
O         86.37372      104.49471       79.82147
C         89.30496      102.90463       79.58279
C         90.84287      103.14484       79.61320
C         88.76160      102.99443       78.14133
C         91.66210      102.21993       78.70430
H         89.07897      102.92710       82.34325
H         88.78933      104.94570       80.07662
H         89.09871      101.87710       79.95765
H         91.20633      102.99210       80.65243
H         91.06735      104.19370       79.32162
H         87.66986      102.80048       78.11459
H         88.96181      103.99748       77.70846
H         89.22105      102.22128       77.49261
H         91.44493      102.41192       77.63469
H         92.74359      102.41779       78.86242
H         91.46435      101.15224       78.92046
N         86.47510      102.76903       81.24542
C         85.04829      102.39633       81.20381
C         84.23936      102.76960       82.47146
O         83.04900      102.48856       82.49713
C         84.94801      100.86645       80.94376
C         85.54626      100.07511       82.08063
O         86.08370      100.75835       83.10543
O         85.52938       98.85540       82.08241
H         87.11103      102.23747       81.84027
H         84.55121      102.92308       80.36074
H         85.47659      100.61016       80.00040
H         83.88022      100.57768       80.83421
N         84.78976      103.43751       83.52602
C         84.02589      103.95660       84.66439
C         83.48552      102.97165       85.70748
O         82.79348      103.44565       86.59782
H         85.76933      103.71872       83.44848
H         83.17476      104.54786       84.26162
H         84.67314      104.66565       85.22340
N         83.72738      101.62775       85.69717
C         83.12475      100.68821       86.66684
C         83.63723      100.78065       88.12503
O         83.22209       99.95426       88.92626
C         83.21405       99.23784       86.12218
C         84.59324       98.66168       86.02025
O         85.64866       99.30581       86.52944
O         84.76375       97.60479       85.43659
H         84.28234      101.24725       84.91921
H         82.03030      100.88848       86.69328
H         82.77271       99.24736       85.10136
H         82.60352       98.54946       86.74518
N         84.48572      101.75879       88.56301
C         84.94003      101.89719       89.95013
C         86.12123      101.00886       90.33923
O         86.62070      101.16131       91.44362
H         84.75083      102.50612       87.91609
H         84.08689      101.77142       90.65288
H         85.31005      102.93773       90.07604
N         86.63100      100.08425       89.48259
C         87.81598       99.25478       89.71559
C         88.79160       99.39933       88.54100
O         88.46671      100.08718       87.58798
C         87.38680       97.78019       89.91115
C         86.57262       97.20891       88.73302
C         86.15519       95.77278       88.92300
N         85.40234       95.16639       87.97633
O         86.48072       95.15197       89.92449
H         86.15151       99.96514       88.59837
H         88.33753       99.57643       90.64348
H         86.76055       97.71992       90.82849
H         88.28972       97.15392       90.07668
H         87.16822       97.27986       87.79849
H         85.63871       97.79521       88.62101
H         85.11334       95.67613       87.12952
H         85.10090       94.18781       88.09001
N         90.00147       98.75960       88.53016
C         90.93192       98.82806       87.39625
C         91.10494       97.44570       86.78367
O         91.25836       96.47719       87.51345
C         92.28178       99.50213       87.78225
C         93.09589       98.72207       88.82339
C         93.14546       99.74550       86.52820
H         90.26396       98.18706       89.34488
H         90.50938       99.48217       86.60486
H         92.04648      100.50075       88.21309
H         92.52121       98.59707       89.76243
H         93.38977       97.72509       88.43408
H         94.02445       99.28268       89.06799
H         94.07025      100.30062       86.79290
H         93.43760       98.78768       86.04850
H         92.58964      100.35601       85.78529
N         91.10112       97.29807       85.42640
C         91.18237       96.01118       84.73828
C         92.50256       95.88148       83.99628
O         93.28363       96.82049       83.96678
C         89.96123       95.93079       83.79063
C         89.81566       94.71186       82.92127
N         89.65889       93.48616       83.46556
O         89.79296       94.83979       81.70596
H         91.03770       98.14585       84.84207
H         91.14570       95.17764       85.47202
H         89.98002       96.82724       83.12822
H         89.05592       95.95880       84.42196
H         89.65320       93.36114       84.48733
H         89.53077       92.66391       82.85863
N         92.83955       94.68645       83.43135
C         94.08808       94.43872       82.71273
C         94.09581       95.04356       81.31118
O         95.13430       94.98690       80.66682
C         94.36934       92.91679       82.67664
C         93.31950       92.13658       81.91608
C         93.28369       92.16091       80.51185
C         92.35998       91.38001       82.61047
C         92.30012       91.45444       79.81703
C         91.36879       90.68461       81.91343
C         91.33303       90.72097       80.51635
O         90.36753       90.05020       79.85764
H         92.20570       93.89589       83.59553
H         94.91654       94.89244       83.30224
H         94.38647       92.58220       83.73809
H         95.37504       92.69437       82.25890
H         94.01796       92.72025       79.94874
H         92.36308       91.34767       83.69318
H         92.28765       91.48574       78.73501
H         90.62369       90.12287       82.46200
H         90.30635       90.05712       78.89178
N         92.99371       95.65302       80.77930
C         92.99593       96.34759       79.49588
C         93.17160       97.84337       79.72356
O         93.20117       98.59606       78.76043
C         91.68677       96.06494       78.72888
C         91.46765       94.56764       78.47925
C         90.20138       94.32390       77.70994
O         90.06598       94.77906       76.58519
O         89.21249       93.58865       78.25372
H         92.14313       95.74401       81.34923
H         93.85377       96.01321       78.87111
H         91.72406       96.59319       77.75028
H         90.82446       96.46350       79.30928
H         91.39456       94.04574       79.45537
H         92.32305       94.14644       77.90860
N         93.34854       98.32977       80.98536
C         93.59763       99.71117       81.33433
C         94.99895       99.84260       81.92940
O         95.36259      100.94053       82.32806
C         92.53963      100.14836       82.37370
C         91.10194       99.92015       81.87496
C         90.06050      100.30834       82.88200
O         88.88192      100.16918       82.60314
O         90.40100      100.80241       84.08668
H         93.34032       97.69111       81.78230
H         93.53278      100.36638       80.43874
H         92.68506      101.22311       82.62068
H         92.68105       99.55065       83.30185
H         90.95026       98.84511       81.63802
H         90.93262      100.50946       80.95939
N         95.84697       98.77083       82.02358
C         97.16279       98.86620       82.61288
H         97.78009       99.59926       82.05409
H         97.07769       99.17080       83.67694
H         97.66461       97.87413       82.57106
H         95.57435       97.84182       81.67344
Ca        86.91097      100.31586       85.07411
O         89.87579      102.35734       86.52381
H         89.94735      103.09244       87.18167
H         90.73725      101.87906       86.59454
O         87.18743      102.47717       87.33688
H         87.55496      102.62452       88.24387
H         86.68575      103.30363       87.13753
O         87.87320       97.96671       84.44413
H         87.56021       97.60814       85.31235
H         87.16051       97.72879       83.80167

Ca 1.0



