%chk=holoCaM-CaMKII.loop2.water1.frame136.chk
%nprocshared=20
%mem=10GB
%nosave
#b3lyp/svp scf=(tight,noincore,xqc) Test 
#IOP(5/87=12) Density=Current Pop=(MK,readradii) iop(6/33=2) iop(6/42=6)

holoCaM-CaMKII.loop2.water1.frame136 

   -2  1 
C         20.33396       51.32832       62.96482
C         19.07577       51.66990       63.69578
O         18.00745       51.24622       63.27694
H         21.02002       50.78098       63.64393
H         20.11231       50.69116       62.08252
H         20.82149       52.26424       62.62134
N         19.13165       52.43540       64.82047
C         17.94144       52.80326       65.57033
C         17.04869       53.68241       64.69979
O         17.40063       54.81621       64.40700
C         18.35529       53.45758       66.90108
C         17.20030       53.86013       67.75696
O         17.12600       55.12425       68.18861
O         16.35506       53.05207       68.10115
H         20.05759       52.74201       65.15858
H         17.40893       51.86335       65.82785
H         18.98690       54.35183       66.70442
H         18.96480       52.72550       67.47525
N         15.91403       53.15017       64.16803
C         15.04333       53.82299       63.21083
C         14.27622       54.97557       63.82724
O         14.16187       56.01327       63.19059
C         14.04567       52.81311       62.62702
H         15.70254       52.16924       64.39258
H         15.64490       54.18362       62.34597
H         14.60054       51.98180       62.13820
H         13.39253       52.38784       63.41798
H         13.41274       53.29994       61.85401
N         13.71261       54.85623       65.06250
C         12.88225       55.88978       65.68165
C         13.64303       56.74397       66.68362
O         13.03297       57.64194       67.24857
C         11.58038       55.27432       66.24364
C         11.81227       54.07110       67.11359
O         11.38002       52.98752       66.75249
O         12.52508       54.13594       68.25189
H         13.91075       54.00034       65.60212
H         12.56001       56.63148       64.91704
H         10.96984       54.94171       65.37466
H         10.98875       56.03961       66.79011
N         14.99177       56.63694       66.85131
C         15.75575       57.64269       67.57408
C         15.47580       57.73044       69.05983
O         15.73922       58.78935       69.61172
H         15.51830       55.91275       66.34312
H         15.53512       58.63028       67.11172
H         16.84589       57.48726       67.42757
N         15.03760       56.66515       69.79683
C         14.80330       56.75318       71.24108
C         15.87031       56.03038       72.06538
O         15.70218       55.92276       73.27242
C         13.36610       56.31136       71.59927
C         13.05534       54.84271       71.44281
N         11.83744       54.38126       71.80892
O         13.89026       54.06363       71.01142
H         14.89324       55.75810       69.32943
H         14.86001       57.81327       71.57152
H         12.64558       56.90014       70.98998
H         13.19066       56.56687       72.66698
H         11.12568       55.02311       72.18855
H         11.60671       53.38118       71.72715
N         17.04516       55.61540       71.50840
C         18.15266       55.07715       72.28537
C         18.00989       53.62447       72.68546
O         18.93309       53.12288       73.31253
H         17.22593       55.80696       70.51677
H         18.33047       55.71925       73.17530
H         19.06878       55.12363       71.65749
N         16.93502       52.86622       72.33039
C         16.83442       51.43458       72.60395
C         16.78500       50.67972       71.27758
O         16.64441       51.30003       70.23215
C         15.60801       51.19989       73.53228
C         15.25916       49.73281       73.80121
O         15.85032       51.81387       74.77348
H         16.16276       53.30111       71.80782
H         17.74427       51.07139       73.13109
H         14.70528       51.64865       73.06232
H         15.61054       52.77238       74.68415
H         14.39606       49.67564       74.49847
H         14.94588       49.22268       72.86707
H         16.11731       49.19875       74.26106
N         16.94818       49.32923       71.24672
C         16.91975       48.52155       70.03476
C         15.70419       47.62257       70.09918
O         15.52183       46.90342       71.07335
C         18.24823       47.72124       69.88528
C         19.46509       48.65498       69.62985
C         18.16466       46.63897       68.78936
C         19.46814       49.37171       68.26775
H         17.10297       48.82929       72.13500
H         16.80846       49.15259       69.13232
H         18.43021       47.18528       70.84340
H         20.39320       48.04507       69.68150
H         19.52222       49.41700       70.43593
H         19.12940       46.09461       68.70977
H         17.38766       45.88833       69.03986
H         17.91211       47.07753       67.80376
H         20.37906       50.00046       68.18466
H         19.49836       48.64298       67.43072
H         18.58851       50.03316       68.14154
N         14.84759       47.59442       69.04354
C         13.66213       46.75795       68.96385
C         13.99690       45.53603       68.13258
O         15.13006       45.42410       67.68623
C         12.52411       47.54706       68.27537
C         12.27562       48.91385       68.85531
O         11.15837       49.23989       69.22184
O         13.27976       49.81442       68.84954
H         15.09313       48.13570       68.20308
H         13.34614       46.43108       69.97906
H         11.58783       46.94831       68.27721
H         12.81694       47.72353       67.21663
N         13.08228       44.56298       67.87882
C         13.40511       43.42036       67.03343
C         13.69034       43.87833       65.59508
O         14.74184       43.51167       65.09286
C         12.32392       42.31876       67.12443
C         12.75344       41.02392       66.47330
C         12.04036       40.50645       65.37904
C         13.85491       40.30335       66.97486
C         12.42252       39.29324       64.79762
C         14.23126       39.09004       66.39182
C         13.51535       38.58494       65.30438
H         12.14551       44.63092       68.30710
H         14.32659       42.95352       67.44996
H         11.36704       42.65291       66.69396
H         12.12950       42.09437       68.19588
H         11.18801       41.03936       64.97704
H         14.41633       40.67063       67.82475
H         11.86770       38.89942       63.95635
H         15.07482       38.53842       66.78734
H         13.80547       37.64314       64.85689
N         12.85823       44.71512       64.87670
C         13.11381       45.14109       63.49501
C         14.34999       46.01033       63.28127
O         14.60949       46.38804       62.14647
C         11.86358       45.95191       63.12147
C         10.80268       45.32646       64.00305
C         11.56763       45.20615       65.31110
H         13.17118       44.22042       62.87331
H         11.98066       47.00234       63.48101
H         11.63908       45.98142       62.03388
H          9.86149       45.91098       64.07563
H         10.57525       44.30349       63.62504
H         11.70553       46.21965       65.74598
H         11.02562       44.58393       66.03494
N         15.14939       46.37371       64.31897
C         16.33705       47.20628       64.20976
C         17.55797       46.32150       64.38457
O         18.44896       46.37372       63.54866
C         16.27002       48.32926       65.26618
C         15.04244       49.23621       65.04434
C         14.88466       50.29604       66.09983
O         13.94538       51.07274       66.03391
O         15.75619       50.40201       67.11981
H         14.91530       46.04818       65.26126
H         16.41236       47.68741       63.20805
H         17.19375       48.94791       65.21935
H         16.21276       47.86759       66.27181
H         14.11591       48.62418       65.05450
H         15.13149       49.72898       64.05160
N         17.63063       45.41773       65.40125
C         18.72206       44.48069       65.53619
H         19.66947       45.02334       65.72640
H         18.52048       43.79116       66.38489
H         18.81201       43.87074       64.61105
H         16.86485       45.34647       66.07707
Ca        13.10150       52.06275       68.93183
O         12.69673       50.80964       71.64860
H         11.86169       50.90502       71.12737
H         12.45032       51.11577       72.55643

Ca 1.0



