%chk=holoCaM.loop3.water3.frame95.chk
%nprocshared=20
%mem=10GB
%nosave
#b3lyp/svp scf=(tight,noincore,xqc) Test 
#IOP(5/87=12) Density=Current Pop=(MK,readradii) iop(6/33=2) iop(6/42=6)

holoCaM.loop3.water3.frame95 

   0  1 
C         92.15205       16.99404       44.14413
C         91.24819       16.43978       43.08763
O         91.05768       15.23651       43.04252
H         92.99908       17.52883       43.66637
H         91.58171       17.69984       44.78310
H         92.55549       16.17878       44.78241
N         90.66675       17.27246       42.18268
C         89.76925       16.82780       41.12417
C         90.50121       16.98172       39.81088
O         90.12203       17.77312       38.95932
C         88.44042       17.59518       41.26157
C         87.38132       17.31835       40.22912
O         87.03817       16.07688       39.83532
O         86.79323       18.26329       39.72892
H         90.89229       18.27850       42.22914
H         89.53805       15.75222       41.23863
H         88.62818       18.69064       41.28966
H         88.00717       17.31649       42.23615
N         91.61899       16.22438       39.62172
C         92.48426       16.30191       38.45310
C         91.74559       15.82465       37.21727
O         91.64194       16.58174       36.26197
C         93.77271       15.46323       38.65067
C         94.56928       15.87481       39.91046
C         95.86361       15.06437       40.09663
C         96.95798       15.33781       39.04928
N         97.43094       16.72350       39.09810
H         91.87089       15.57024       40.37559
H         92.80938       17.35912       38.32037
H         94.40420       15.60811       37.74882
H         93.52152       14.38370       38.73273
H         93.95723       15.67760       40.81277
H         94.78715       16.96192       39.90144
H         95.61098       13.98117       40.08890
H         96.28537       15.30054       41.09797
H         96.60310       15.09266       38.02633
H         97.81469       14.66438       39.27315
H         97.75698       16.95961       40.06395
H         98.23387       16.83326       38.43821
H         96.67771       17.38477       38.80530
N         91.19252       14.57286       37.17526
C         90.47302       14.05306       36.00918
C         89.25670       14.89815       35.62237
O         88.73311       14.69261       34.53587
C         90.04531       12.57084       36.19488
C         89.05800       12.39161       37.32154
O         89.43726       12.61548       38.59325
O         87.89561       12.10919       37.07958
H         91.31827       13.96826       37.99791
H         91.18470       14.09340       35.15447
H         90.93051       11.92556       36.37811
H         89.57584       12.23285       35.24425
N         88.76570       15.87535       36.43604
C         87.71035       16.78752       36.04377
C         86.38707       16.11058       35.80293
O         85.84808       16.25941       34.71508
H         89.17904       16.02581       37.36338
H         88.03038       17.34468       35.13494
H         87.55892       17.53277       36.85479
N         85.76891       15.41281       36.79983
C         84.40386       14.90421       36.68185
C         83.45372       15.61701       37.64781
O         82.25671       15.38066       37.56516
C         84.36358       13.37207       36.85635
C         84.49604       12.91399       38.29141
N         83.50757       12.18486       38.86524
O         85.49229       13.19683       38.93860
H         86.27097       15.28736       37.68665
H         84.03086       15.11587       35.65670
H         85.16037       12.91092       36.23299
H         83.38899       13.01017       36.46420
H         82.66174       11.92775       38.33422
H         83.58426       11.86870       39.84287
N         83.91499       16.49828       38.58748
C         83.07244       17.26171       39.48814
C         83.27349       16.89837       40.94615
O         82.73414       17.61516       41.77799
H         84.91898       16.67795       38.67785
H         81.99251       17.13672       39.25709
H         83.32236       18.33480       39.34311
N         83.92530       15.75913       41.34088
C         83.92059       15.29960       42.73419
C         85.27137       14.75129       43.16645
O         86.13977       14.55662       42.32608
C         82.87047       14.17590       42.85821
C         81.51216       14.66344       42.41353
C         81.08779       14.45568       41.08880
C         80.68039       15.36658       43.29853
C         79.85529       14.94962       40.65571
C         79.43911       15.84667       42.86693
C         79.02516       15.64334       41.54147
O         77.83768       16.11194       41.10773
H         84.28415       15.11462       40.62104
H         83.64890       16.13681       43.41483
H         82.80781       13.76674       43.89005
H         83.19019       13.33796       42.19836
H         81.72282       13.93374       40.38387
H         80.99227       15.53993       44.32089
H         79.54881       14.79759       39.62826
H         78.80346       16.38223       43.56057
H         77.23319       16.59785       41.68650
N         85.51054       14.47222       44.48585
C         86.74200       13.83685       44.96496
C         86.44160       12.72171       45.96093
O         85.31191       12.59716       46.41566
C         87.72485       14.87766       45.58172
C         87.13429       15.58780       46.82792
C         88.13719       15.88552       44.50497
C         88.10464       16.57390       47.48581
H         84.79149       14.73607       45.17742
H         87.25902       13.35917       44.10368
H         88.64638       14.33641       45.89064
H         86.87580       14.82214       47.58983
H         86.20778       16.13692       46.55541
H         88.94593       16.55411       44.85967
H         88.52636       15.34589       43.61722
H         87.26524       16.50289       44.20703
H         88.34009       17.42208       46.81074
H         87.63650       17.00089       48.39713
H         89.04569       16.05940       47.77413
N         87.43409       11.86592       46.34012
C         87.27402       10.81418       47.34020
C         88.36180       10.91273       48.40683
O         89.22669       11.77486       48.31771
C         87.31962        9.44034       46.64742
O         88.57015        9.20651       46.05691
H         88.34849       11.94903       45.87634
H         86.28395       10.89988       47.83903
H         86.50295        9.36869       45.89140
H         87.12424        8.62703       47.37672
H         88.50762        9.51301       45.11671
N         88.38900       10.02367       49.44122
C         89.45139        9.98068       50.44455
C         90.79696        9.69511       49.80346
O         91.78549       10.28139       50.21874
C         89.15860        8.90032       51.48914
H         87.63083        9.32698       49.50397
H         89.49609       10.95229       50.98648
H         88.19273        9.11620       51.99333
H         89.10459        7.89657       51.01635
H         89.95836        8.89205       52.26158
N         90.89968        8.81368       48.76798
C         92.14616        8.54204       48.05930
C         92.71525        9.81120       47.44886
O         93.87245       10.12267       47.69394
C         91.90467        7.51088       46.94714
H         90.04277        8.33406       48.45102
H         92.88667        8.10367       48.76504
H         91.51569        6.56594       47.38226
H         91.16689        7.88681       46.20577
H         92.85568        7.28620       46.41805
N         91.94573       10.59320       46.63870
C         92.43951       11.79589       45.96400
C         92.87480       12.89708       46.92995
O         93.45894       13.86607       46.46454
C         91.35505       12.35781       45.01714
C         90.99685       11.37292       43.88734
C         89.81785       11.84343       43.08413
O         88.70855       11.08429       43.01992
O         89.85789       12.89684       42.47274
H         90.97176       10.29709       46.48313
H         93.32774       11.50892       45.35804
H         91.70764       13.30190       44.55299
H         90.46065       12.59246       45.62852
H         90.73577       10.37955       44.30170
H         91.87559       11.24307       43.22002
N         92.62889       12.83228       48.26957
C         93.06880       13.83282       49.22086
H         93.64307       14.65316       48.74262
H         92.18619       14.26762       49.73420
H         93.72043       13.34970       49.98002
H         92.09676       12.04634       48.65083
Ca        88.43609       14.33678       39.60582
O         86.19241       10.35499       39.44700
H         86.06250       10.24222       38.47195
H         85.55259        9.72160       39.85823
O         89.22277        9.96614       40.18613
H         90.16609       10.16731       39.96289
H         88.82476        9.66671       39.33058
O         85.65054       11.00338       42.44686
H         86.21614       11.81379       42.39537
H         85.74732       10.69090       43.38132

Ca 1.0



