%chk=holoCaM-CaMKII.loop1.water2.frame117.chk
%nprocshared=20
%mem=10GB
%nosave
#b3lyp/svp scf=(tight,noincore,xqc) Test 
#IOP(5/87=12) Density=Current Pop=(MK,readradii) iop(6/33=2) iop(6/42=6)

holoCaM-CaMKII.loop1.water2.frame117 

   0  1 
C         31.76994       43.21541       62.22917
C         31.29225       43.22095       60.80881
O         30.09339       43.28492       60.58079
H         32.43067       44.09005       62.40525
H         30.91163       43.26745       62.93300
H         32.33642       42.28125       62.42594
N         32.18886       43.18831       59.78636
C         31.77189       43.20000       58.39079
C         31.20567       41.83176       58.01774
O         31.95868       40.86724       58.00344
C         32.97649       43.57265       57.50522
C         32.62511       43.81278       56.06984
O         33.50555       44.13758       55.29398
O         31.35448       43.72700       55.63278
H         33.19490       43.20808       60.01807
H         31.01313       44.00756       58.27098
H         33.75272       42.77903       57.57023
H         33.41843       44.51863       57.88856
N         29.87408       41.65952       57.77552
C         29.28137       40.33872       57.54464
C         29.57017       39.75128       56.16816
O         29.34332       38.56022       56.00253
C         27.75325       40.36582       57.76023
C         27.25325       40.78575       59.16288
C         27.74174       39.88446       60.31292
C         29.08494       40.33286       60.92101
N         29.57797       39.35461       61.88578
H         29.25889       42.47561       57.88861
H         29.71226       39.62140       58.26885
H         27.35435       39.34556       57.56731
H         27.29101       41.04349       57.01034
H         26.14728       40.68242       59.10605
H         27.46155       41.84617       59.39515
H         27.76590       38.83122       59.96035
H         27.00685       39.94577       61.14521
H         28.92384       41.30539       61.43222
H         29.87351       40.49028       60.16975
H         30.46479       39.71275       62.30939
H         28.87306       39.19764       62.64087
H         29.78241       38.45411       61.39365
N         29.98880       40.51419       55.12065
C         30.20753       39.97557       53.77212
C         31.59230       40.27831       53.21985
O         31.88699       39.81729       52.12514
C         29.10083       40.46441       52.80840
C         28.95603       41.95877       52.67990
O         28.05634       42.41375       51.99313
O         29.75453       42.79886       53.36127
H         30.09326       41.52163       55.28155
H         30.12793       38.86630       53.78775
H         28.13214       40.07283       53.18795
H         29.26674       40.02723       51.79910
N         32.50357       41.02245       53.90494
C         33.83548       41.29382       53.40178
C         33.81615       42.07129       52.10875
O         34.39382       41.60641       51.13619
H         32.27234       41.39757       54.83221
H         34.38305       40.33586       53.26704
H         34.39081       41.89508       54.15343
N         33.21693       43.29361       52.04418
C         33.31066       44.16782       50.87767
C         34.15373       45.40319       51.18678
O         34.35178       46.20694       50.28719
C         31.90885       44.52549       50.33081
C         31.04317       45.34976       51.24173
O         31.48404       45.76423       52.44208
O         29.92177       45.66281       50.87568
H         32.73019       43.64086       52.88306
H         33.83648       43.64278       50.05112
H         31.37079       43.58255       50.09287
H         32.02926       45.09869       49.38558
N         34.70561       45.60663       52.42340
C         35.56722       46.72761       52.75406
C         34.98119       47.63037       53.81951
O         35.66687       48.57451       54.19035
H         34.54713       44.93224       53.18000
H         35.77666       47.35429       51.86199
H         36.53608       46.32034       53.11577
N         33.72912       47.45099       54.33924
C         33.11827       48.40039       55.27025
C         32.13448       47.73230       56.22057
O         31.77162       46.58014       56.03177
C         32.37331       49.53236       54.49832
C         33.29317       50.44340       53.68093
O         31.36033       49.00701       53.67842
H         33.15715       46.66557       54.00340
H         33.91314       48.83330       55.91692
H         31.88207       50.19808       55.23866
H         31.77907       48.38065       53.03252
H         32.69266       51.24813       53.20549
H         34.04195       50.91674       54.35095
H         33.81190       49.88610       52.87549
N         31.65025       48.44133       57.27747
C         30.65446       47.95184       58.22219
C         29.46361       48.89054       58.12458
O         29.64509       50.08630       58.32149
C         31.22706       47.94416       59.67374
C         32.54271       47.12799       59.76839
C         30.17284       47.38407       60.65462
C         33.24845       47.28447       61.12084
H         32.00186       49.40208       57.41963
H         30.34657       46.91198       57.96900
H         31.46287       48.99576       59.95144
H         33.26061       47.49376       59.00436
H         32.34420       46.05357       59.56978
H         29.93301       46.32689       60.40587
H         30.51983       47.43195       61.70480
H         29.23814       47.97449       60.61123
H         34.20524       46.72190       61.11027
H         33.47606       48.35648       61.30834
H         32.63998       46.89110       61.95865
N         28.21556       48.43159       57.83355
C         27.05721       49.31481       57.74861
C         26.40220       49.41873       59.10826
O         26.86206       48.78309       60.04325
C         26.04168       48.82537       56.68286
C         26.69368       48.55001       55.33403
O         25.41243       47.65453       57.11746
H         28.06644       47.42095       57.75348
H         27.39243       50.33137       57.44478
H         25.28090       49.62966       56.55027
H         24.49343       47.65270       56.74014
H         25.91766       48.23941       54.60200
H         27.21133       49.45455       54.95599
H         27.41960       47.71548       55.43122
N         25.32242       50.21785       59.30300
C         24.65312       50.31128       60.59407
C         24.01263       48.96547       60.93438
O         24.27412       48.42901       62.00100
C         23.61186       51.45509       60.57994
C         23.10609       51.75715       61.99439
O         24.21824       52.62131       60.07928
H         24.97801       50.78341       58.51247
H         25.41320       50.58720       61.36134
H         22.76147       51.15590       59.92179
H         23.52371       53.11997       59.57411
H         23.95692       52.07510       62.63827
H         22.37146       52.58882       61.96176
H         22.62452       50.86840       62.44970
N         23.18842       48.35205       60.03331
C         22.54213       47.05457       60.24721
C         23.54543       45.94887       60.55394
O         23.35651       45.26261       61.54900
C         21.66468       46.66747       59.03090
C         20.40987       47.56094       58.94257
C         19.45431       47.11192       57.82431
C         18.07017       47.78654       57.91460
N         18.12474       49.23850       57.74268
H         23.02795       48.83155       59.13408
H         21.86221       47.12157       61.12621
H         21.30677       45.62429       59.17946
H         22.25611       46.69757       58.08838
H         20.69548       48.62330       58.79321
H         19.86898       47.47006       59.90959
H         19.27424       46.01976       57.92882
H         19.91583       47.29307       56.82907
H         17.60756       47.54771       58.89882
H         17.41669       47.35536       57.12404
H         18.53616       49.47587       56.81165
H         17.15041       49.61710       57.78766
H         18.67926       49.68294       58.50809
N         24.64756       45.73771       59.77878
C         25.65928       44.71755       60.07380
C         26.14392       44.85829       61.50725
O         26.10584       43.88169       62.24286
C         26.86183       44.79384       59.09618
C         26.46102       44.46335       57.64386
C         27.64495       44.38112       56.71607
O         28.48604       45.41883       56.57333
O         27.83542       43.37062       56.05982
H         24.79086       46.36555       58.98342
H         25.20871       43.70470       59.96728
H         27.62218       44.05495       59.42061
H         27.33624       45.79498       59.15472
H         25.76998       45.23219       57.25715
H         25.93123       43.48639       57.62173
N         26.54341       46.06706       61.98540
C         26.93697       46.30443       63.35830
H         27.95344       46.74753       63.37844
H         26.22466       47.02170       63.82049
H         26.93797       45.37584       63.96592
H         26.52108       46.87539       61.35750
Ca        29.15078       44.93768       53.70901
O         26.33284       45.39331       52.98093
H         26.74770       44.73945       52.36395
H         25.93275       44.83882       53.69687
O         28.85314       47.81993       53.31624
H         27.94359       47.84895       52.92932
H         29.43427       47.59349       52.55083

Ca 1.0



