%chk=holoCaM-CaMKII.loop4.water2.frame43.chk
%nprocshared=20
%mem=10GB
%nosave
#b3lyp/svp scf=(tight,noincore,xqc) Test 
#IOP(5/87=12) Density=Current Pop=(MK,readradii) iop(6/33=2) iop(6/42=6)

holoCaM-CaMKII.loop4.water2.frame43 

   -3  1 
C         12.73053       57.43463       -6.14253
C         13.83350       56.46565       -6.43092
O         14.98255       56.86504       -6.53297
H         11.77989       56.89865       -5.92320
H         12.98636       58.03306       -5.24410
H         12.57549       58.08738       -7.02113
N         13.53449       55.15027       -6.52590
C         14.50847       54.08499       -6.63745
C         15.09962       53.95711       -8.04204
O         14.60947       53.15406       -8.82618
C         13.77836       52.80608       -6.20729
C         14.71865       51.70925       -5.98892
O         14.32358       50.70223       -5.46176
O         16.00527       51.88706       -6.29592
H         12.54506       54.88390       -6.39952
H         15.32151       54.25234       -5.88881
H         12.98289       52.51720       -6.92706
H         13.31721       52.99581       -5.21292
N         16.14822       54.73305       -8.43712
C         16.62337       54.74375       -9.81947
C         17.41418       53.48843      -10.23429
O         17.58244       53.30009      -11.43096
C         17.36191       56.08791      -10.12898
C         17.58042       56.35608      -11.63856
C         18.70567       56.19481       -9.38724
C         16.27440       56.47435      -12.43384
H         16.51611       55.42035       -7.76839
H         15.69634       54.75428      -10.42364
H         16.71639       56.91575       -9.75640
H         18.22690       55.57640      -12.08767
H         18.10694       57.32950      -11.74967
H         19.40516       55.38882       -9.69290
H         19.18192       57.17799       -9.58752
H         18.55415       56.14177       -8.29830
H         15.65184       57.30220      -12.03024
H         16.50822       56.69415      -13.49539
H         15.68513       55.53695      -12.42058
N         17.91791       52.58713       -9.33186
C         18.62823       51.36119       -9.72657
C         17.85914       50.08433       -9.33762
O         18.32592       49.00398       -9.67013
C         20.11922       51.39491       -9.28523
C         20.41931       51.47318       -7.81566
O         21.57937       51.51554       -7.44245
O         19.44365       51.47897       -6.90452
H         17.78990       52.76698       -8.32907
H         18.68879       51.30460      -10.83665
H         20.59660       52.27540       -9.76862
H         20.62661       50.48411       -9.67428
N         16.61282       50.13685       -8.77366
C         15.69975       48.99712       -8.70254
C         16.02628       47.88045       -7.72279
O         16.28877       46.77092       -8.16310
H         16.20812       51.05265       -8.55150
H         15.60801       48.57687       -9.72679
H         14.68894       49.36772       -8.42273
N         15.93120       48.08109       -6.37738
C         16.07303       47.03142       -5.35945
C         14.98835       47.05324       -4.25220
O         15.04195       46.19624       -3.38065
C         17.49061       47.11395       -4.75997
C         17.95448       48.51102       -4.47143
O         17.29828       49.28979       -3.60155
O         18.93722       48.94935       -5.04775
H         15.78861       49.04103       -6.05912
H         15.98919       46.02466       -5.82594
H         18.19143       46.69778       -5.51355
H         17.56590       46.49045       -3.84467
N         13.98574       47.97525       -4.21237
C         12.96565       48.07206       -3.17441
C         13.28585       49.09872       -2.10100
O         12.43349       49.31066       -1.24941
H         13.90015       48.62785       -4.97913
H         12.75473       47.08538       -2.71269
H         12.02352       48.41364       -3.65992
N         14.47827       49.76287       -2.05137
C         14.77029       50.80159       -1.06607
C         15.40446       52.01575       -1.70986
O         15.89432       51.94304       -2.82932
C         15.65325       50.28038        0.08846
C         14.93359       49.17759        0.88350
C         15.64910       48.77559        2.15005
N         15.09888       47.83965        2.95736
O         16.70858       49.29790        2.46620
H         15.19432       49.53329       -2.74114
H         13.81645       51.16143       -0.62529
H         15.84886       51.12715        0.78324
H         16.63167       49.90674       -0.28939
H         14.80467       48.28116        0.23990
H         13.93090       49.55225        1.18291
H         14.20269       47.39466        2.70918
H         15.56321       47.56400        3.83522
N         15.40541       53.19274       -1.02494
C         15.95227       54.43270       -1.54262
C         17.12607       54.82079       -0.67102
O         16.96801       55.15390        0.49521
C         14.82915       55.50098       -1.63141
C         15.32996       56.92590       -1.91660
C         13.84509       55.09519       -2.74214
H         14.98006       53.21804       -0.08574
H         16.33545       54.28391       -2.57580
H         14.30167       55.53595       -0.65378
H         15.82751       56.99029       -2.90080
H         14.46583       57.62525       -1.92727
H         16.02325       57.27354       -1.12271
H         13.00073       55.81138       -2.80161
H         14.36800       55.08928       -3.72449
H         13.43560       54.07978       -2.56316
N         18.36497       54.74228       -1.21851
C         19.61993       55.08208       -0.57427
C         19.63777       56.57643       -0.28420
O         18.80676       57.29554       -0.81702
C         20.73623       54.69383       -1.59048
C         22.17533       54.66434       -1.17080
N         23.11419       54.39673       -2.10927
O         22.50839       54.84054       -0.01167
H         18.41734       54.38796       -2.17185
H         19.70044       54.48115        0.35832
H         20.63965       55.36926       -2.46792
H         20.53700       53.65893       -1.94552
H         22.84153       54.25117       -3.09422
H         24.11302       54.35335       -1.86453
N         20.55819       57.11683        0.55281
C         20.68087       58.54929        0.80810
C         20.99894       59.31480       -0.47528
O         20.39348       60.35354       -0.69638
C         21.76164       58.77926        1.88029
C         21.97600       60.24344        2.16512
C         20.93656       61.03915        2.67695
C         23.22429       60.82764        1.90167
C         21.14129       62.40315        2.90232
C         23.42583       62.19062        2.12539
C         22.38168       62.98526        2.62004
O         22.55667       64.30632        2.82154
H         21.19454       56.47744        1.04470
H         19.71824       58.93479        1.21599
H         22.70757       58.31241        1.53056
H         21.45632       58.26867        2.82082
H         19.96709       60.60826        2.89409
H         24.03876       60.23012        1.51071
H         20.33195       63.00973        3.28846
H         24.39183       62.62712        1.90688
H         23.38946       64.75182        2.61031
N         21.91665       58.85745       -1.37517
C         22.14645       59.50994       -2.66886
C         20.86553       59.58970       -3.49634
O         20.62855       60.62268       -4.10860
C         23.30867       58.88221       -3.48825
C         23.28481       57.35369       -3.65257
C         24.34949       56.89794       -4.61151
O         24.28120       57.20259       -5.79184
O         25.37420       56.13707       -4.18030
H         22.42551       57.99573       -1.14026
H         22.46801       60.56029       -2.49119
H         24.27151       59.13636       -2.99223
H         23.31559       59.37213       -4.48859
H         22.30688       56.99226       -4.02359
H         23.49197       56.89615       -2.66617
N         19.99097       58.54810       -3.55816
C         18.73935       58.60579       -4.31593
C         17.70442       59.51656       -3.65025
O         16.76111       59.92635       -4.31272
C         18.16116       57.18671       -4.48938
C         19.14364       56.28146       -5.25173
C         18.60509       54.89618       -5.44646
O         18.50575       54.42523       -6.56242
O         18.27043       54.14004       -4.39575
H         20.22744       57.68845       -3.04527
H         18.96175       59.00376       -5.33248
H         17.20405       57.24002       -5.05223
H         17.96770       56.75043       -3.48583
H         20.09631       56.19245       -4.69559
H         19.36686       56.73805       -6.23733
N         17.80677       59.85307       -2.33553
C         16.86795       60.70326       -1.63746
H         15.86420       60.23050       -1.60901
H         17.21357       60.84997       -0.58904
H         16.81224       61.69744       -2.12636
H         18.57698       59.47397       -1.78898
Ca        17.91482       51.47355       -5.30977
O         19.09688       51.19240       -2.28519
H         20.07835       51.20781       -2.39748
H         18.92906       50.34460       -1.80395
O         20.93716       52.52107       -4.52589
H         21.56108       52.17908       -3.83899
H         21.52928       52.81081       -5.26207

Ca 1.0



