%chk=holoCaM.loop3.water2.frame200.chk
%nprocshared=20
%mem=10GB
%nosave
#b3lyp/svp scf=(tight,noincore,xqc) Test 
#IOP(5/87=12) Density=Current Pop=(MK,readradii) iop(6/33=2) iop(6/42=6)

holoCaM.loop3.water2.frame200 

   0  1 
C         18.75223       40.10478       90.85464
C         19.27215       38.70299       90.78234
O         18.49610       37.76474       90.90147
H         17.65509       40.11039       91.02505
H         19.25516       40.64864       91.68011
H         18.96512       40.62067       89.89349
N         20.59387       38.48851       90.54550
C         21.14476       37.15767       90.35801
C         21.06829       36.33473       91.65094
O         21.67745       36.70297       92.64476
C         22.59062       37.26187       89.82948
C         23.13061       35.93907       89.39229
O         22.35453       34.84687       89.43365
O         24.28146       35.85022       89.00829
H         21.20764       39.30923       90.42086
H         20.54704       36.67502       89.55513
H         23.24378       37.68680       90.62185
H         22.62370       37.93344       88.94534
N         20.31040       35.20356       91.68711
C         20.12072       34.33804       92.85426
C         21.40904       33.67918       93.34912
O         21.63230       33.74134       94.55065
C         19.03370       33.27595       92.53138
C         17.61553       33.90346       92.52404
C         17.06275       34.03464       93.96374
C         15.69997       34.74038       94.05582
N         15.81897       36.18462       93.84604
H         19.80078       34.95851       90.82696
H         19.73686       34.94290       93.70230
H         19.03187       32.44085       93.26631
H         19.26636       32.83322       91.54022
H         16.91731       33.23119       91.97951
H         17.63701       34.87261       91.98219
H         17.76620       34.55928       94.64111
H         16.93650       32.99945       94.35206
H         15.29950       34.57737       95.08194
H         14.97721       34.29643       93.33614
H         16.16729       36.39865       92.88582
H         14.87949       36.62602       93.97272
H         16.46964       36.59220       94.55785
N         22.28435       33.01938       92.52646
C         23.46845       32.30581       93.03746
C         24.81553       32.93053       92.69732
O         25.82509       32.38785       93.12835
C         23.44160       30.79272       92.69879
C         23.90141       30.24587       91.35332
O         24.03580       29.03626       91.26704
O         24.23336       30.97940       90.27085
H         22.07805       33.02093       91.52794
H         23.43361       32.33572       94.14855
H         22.43803       30.38570       92.94306
H         24.15815       30.33313       93.41567
N         24.92838       34.08494       91.99024
C         26.20990       34.71330       91.71880
C         27.08339       33.88745       90.80367
O         28.22746       33.62504       91.14742
H         24.08109       34.57053       91.66707
H         26.73878       34.93727       92.67303
H         26.02915       35.68229       91.20562
N         26.61921       33.51695       89.57809
C         27.45858       32.95750       88.52537
C         27.52955       33.93106       87.34401
O         28.12775       33.58044       86.33824
C         26.99303       31.54171       88.08163
C         25.65639       31.43227       87.38534
N         25.29706       30.27029       86.79331
O         24.90011       32.38240       87.32984
H         25.64214       33.73385       89.34661
H         28.49959       32.81988       88.89214
H         26.99953       30.84908       88.95117
H         27.75359       31.17265       87.35955
H         25.92330       29.45282       86.81042
H         24.40004       30.19648       86.29019
N         26.99081       35.19056       87.41182
C         27.02612       36.15453       86.32233
C         25.94424       35.94983       85.26900
O         25.92824       36.71670       84.31805
H         26.60740       35.53286       88.30080
H         28.04026       36.16280       85.86761
H         26.84868       37.16742       86.74560
N         25.00373       34.96415       85.36781
C         23.95484       34.71634       84.37975
C         22.57399       34.76262       85.01761
O         22.33830       34.10698       86.02250
C         24.13338       33.34933       83.69087
C         25.33227       33.34121       82.77092
C         26.63569       33.36035       83.28400
C         25.14919       33.32800       81.37670
C         27.73871       33.37707       82.42640
C         26.25092       33.34875       80.51764
C         27.55123       33.37505       81.04072
O         28.62338       33.39861       80.22404
H         25.03402       34.34492       86.17719
H         23.98792       35.47313       83.56482
H         23.22501       33.18845       83.06723
H         24.18053       32.51324       84.42212
H         26.79378       33.35793       84.34690
H         24.15333       33.31709       80.95115
H         28.73903       33.39390       82.84032
H         26.09131       33.34854       79.44688
H         28.53468       33.40215       79.26024
N         21.58842       35.47759       84.40486
C         20.20864       35.58801       84.86423
C         19.28497       34.94340       83.83851
O         19.36855       35.25696       82.66003
C         19.88694       37.09419       85.09851
C         20.64726       37.56205       86.36790
C         18.37244       37.35630       85.24010
C         20.58885       39.06692       86.61802
H         21.82038       35.97292       83.53035
H         20.05266       35.05817       85.82675
H         20.23378       37.66774       84.21001
H         21.72158       37.29254       86.28410
H         20.23157       37.03190       87.25213
H         17.83326       37.04634       84.32039
H         17.95308       36.80963       86.10690
H         18.16181       38.43731       85.35657
H         21.15927       39.30458       87.53997
H         21.05054       39.60745       85.76571
H         19.55119       39.42204       86.77033
N         18.31469       34.08115       84.26302
C         17.31765       33.46362       83.39475
C         15.97205       34.13774       83.60151
O         15.87396       35.03193       84.42253
C         17.22913       31.95763       83.71696
O         16.83876       31.77261       85.05292
H         18.22041       33.91481       85.27318
H         17.59371       33.59521       82.32684
H         18.22797       31.49668       83.54973
H         16.48821       31.46370       83.05147
H         16.95259       30.80783       85.25419
N         14.88453       33.76592       82.86948
C         13.55595       34.34271       83.06933
C         13.04564       34.03271       84.46445
O         12.57351       34.93499       85.14196
C         12.57400       33.79041       82.03269
H         15.00474       33.03699       82.15050
H         13.59385       35.44516       82.91488
H         12.47477       32.68838       82.12118
H         11.57466       34.25710       82.17394
H         12.92946       34.04155       81.01034
N         13.15916       32.77047       84.96879
C         12.73547       32.37606       86.31054
C         13.32303       33.28962       87.37008
O         12.57084       33.81721       88.17705
C         13.15629       30.92621       86.58112
H         13.61015       32.05811       84.37279
H         11.62571       32.42685       86.37526
H         14.26134       30.81928       86.52039
H         12.82031       30.60821       87.59071
H         12.69483       30.25117       85.82897
N         14.65634       33.56650       87.38511
C         15.27644       34.50546       88.31991
C         14.57652       35.85446       88.24389
O         14.09422       36.32667       89.26441
C         16.78399       34.64406       88.01051
C         17.54856       33.34565       88.33131
C         18.99024       33.43589       87.92455
O         19.77054       34.41703       88.40602
O         19.46409       32.61585       87.15402
H         15.23993       33.12931       86.65723
H         15.17259       34.12730       89.36197
H         17.22240       35.46081       88.62651
H         16.90563       34.91232       86.94150
H         17.09140       32.47846       87.81079
H         17.49517       33.16064       89.42509
N         14.43004       36.50429       87.05918
C         13.69148       37.74123       86.93539
H         12.64526       37.59083       87.27994
H         14.17376       38.53789       87.53787
H         13.66341       38.05850       85.87054
H         14.81822       36.09023       86.20777
Ca        23.23138       32.81673       89.52029
O         22.17443       29.85926       87.77064
H         22.04151       28.90679       87.53734
H         22.95930       29.85277       88.37224
O         20.71257       31.08811       90.19873
H         21.04135       30.27533       90.65774
H         19.78830       30.86308       89.92554

Ca 1.0



