%chk=holoCaM.loop3.water2.frame165.chk
%nprocshared=20
%mem=10GB
%nosave
#b3lyp/svp scf=(tight,noincore,xqc) Test 
#IOP(5/87=12) Density=Current Pop=(MK,readradii) iop(6/33=2) iop(6/42=6)

holoCaM.loop3.water2.frame165 

   0  1 
C        107.37119       92.67085       -6.86127
C        106.37181       91.90012       -6.05902
O        106.61339       91.67715       -4.88209
H        108.33866       92.12436       -6.84961
H        107.04231       92.78003       -7.91539
H        107.51169       93.67615       -6.41586
N        105.21944       91.44987       -6.62955
C        104.27841       90.60780       -5.90920
C        104.97352       89.29136       -5.58255
O        105.19812       88.48933       -6.47864
C        103.00027       90.40140       -6.75959
C        102.10695       89.33377       -6.20636
O        101.54252       89.44435       -4.99295
O        101.90698       88.33176       -6.86841
H        105.02485       91.69295       -7.61272
H        103.98013       91.12175       -4.96692
H        103.30250       90.08217       -7.78137
H        102.44655       91.36205       -6.85301
N        105.34365       89.01802       -4.30076
C        105.98348       87.77593       -3.88634
C        104.92755       86.86303       -3.30681
O        104.87339       85.70938       -3.71110
C        107.14475       88.03943       -2.89874
C        108.29564       88.79698       -3.58487
C        109.49109       89.03385       -2.64836
C        110.68093       89.70791       -3.36289
N        110.35596       91.04403       -3.86851
H        105.13210       89.71475       -3.56950
H        106.42520       87.23983       -4.75781
H        107.54174       87.06036       -2.54772
H        106.77933       88.60316       -2.01207
H        107.91332       89.76906       -3.94195
H        108.64505       88.20206       -4.45711
H        109.84590       88.05246       -2.26324
H        109.17722       89.65430       -1.78098
H        111.02868       89.06708       -4.20384
H        111.51924       89.79523       -2.63633
H        111.22071       91.47429       -4.26928
H        109.64428       90.99121       -4.63110
H        110.00680       91.65021       -3.09142
N        103.99406       87.32631       -2.42303
C        102.91936       86.48289       -1.89614
C        102.02535       85.86040       -2.97459
O        101.26889       84.95731       -2.64478
C        102.05150       87.24645       -0.87339
C        101.25199       88.36814       -1.48967
O        101.86478       89.42201       -2.06217
O        100.03325       88.33218       -1.45445
H        104.06169       88.30503       -2.11086
H        103.41979       85.64499       -1.36320
H        102.69527       87.65900       -0.06787
H        101.34817       86.52252       -0.40615
N        102.07108       86.25922       -4.27600
C        101.36717       85.57994       -5.34735
C         99.86118       85.61946       -5.25060
O         99.26042       84.55806       -5.33790
H        102.67954       87.04204       -4.55004
H        101.71865       84.52669       -5.40593
H        101.64180       86.04667       -6.31124
N         99.17736       86.80046       -5.15784
C         97.72353       86.87636       -5.33251
C         97.34411       87.72279       -6.54712
O         96.18599       87.67396       -6.94024
C         96.99553       87.34519       -4.05740
C         97.18301       88.80961       -3.74394
N         96.11454       89.64150       -3.69753
O         98.29951       89.24902       -3.52363
H         99.71424       87.66501       -5.01566
H         97.33954       85.85438       -5.54167
H         97.32954       86.72846       -3.19540
H         95.90923       87.15088       -4.19855
H         95.16077       89.29271       -3.87555
H         96.23640       90.64131       -3.48278
N         98.25160       88.51801       -7.19314
C         97.96682       89.24650       -8.41394
C         98.01048       90.74994       -8.25242
O         97.89283       91.41271       -9.27338
H         99.21140       88.61179       -6.84239
H         96.96490       88.99098       -8.82230
H         98.72066       88.93874       -9.17020
N         98.07668       91.37215       -7.03111
C         97.92927       92.82170       -6.89729
C         99.08607       93.44282       -6.08194
O         98.98362       93.06185       -4.73854
C         96.55092       93.17142       -6.28197
C         95.41525       92.57574       -7.08389
C         95.12680       91.20037       -7.00166
C         94.63870       93.38524       -7.92767
C         94.09598       90.64412       -7.76049
C         93.60967       92.82521       -8.69160
C         93.33727       91.45125       -8.61192
O         92.35257       90.89718       -9.34696
H         98.11536       90.80626       -6.17144
H         97.95481       93.29487       -7.90286
H         96.46511       94.28007       -6.27926
H         96.46035       92.83072       -5.22790
H         95.69822       90.55393       -6.34939
H         94.84111       94.44567       -8.00970
H         93.89079       89.58317       -7.68828
H         93.02863       93.45932       -9.34855
H         91.80916       91.41832       -9.95471
N         99.05726       94.90934       -6.18233
C        100.05846       95.60716       -5.35229
C         99.36741       96.82740       -4.77656
O         99.05381       97.75119       -5.51362
C        101.36230       95.95583       -6.14801
C        102.08352       94.65678       -6.60244
C        102.30374       96.83375       -5.30244
C        103.33005       94.89504       -7.45934
H         99.09228       95.23305       -7.17716
H        100.35740       94.97302       -4.49306
H        101.07986       96.54650       -7.04771
H        101.39111       94.05265       -7.22261
H        102.37236       94.05416       -5.71263
H        103.19480       97.14137       -5.88324
H        101.80318       97.77548       -5.00321
H        102.63033       96.29555       -4.39294
H        103.06791       95.48112       -8.36530
H        104.12566       95.42027       -6.89391
H        103.74761       93.91720       -7.77843
N         99.05250       96.86408       -3.44696
C         98.38602       97.99337       -2.80749
C         99.29870       99.20704       -2.74495
O        100.42901       99.12819       -3.21338
C         97.92442       97.59164       -1.38846
O         99.01721       97.28728       -0.56254
H         99.26675       96.03186       -2.87737
H         97.46725       98.24639       -3.38272
H         97.22301       96.72652       -1.45662
H         97.34509       98.40886       -0.91259
H         99.08407       96.29860       -0.50705
N         98.89601      100.36854       -2.17022
C         99.76877      101.52755       -2.02108
C        100.96673      101.19314       -1.13954
O        102.09310      101.37592       -1.56770
C         98.99750      102.70528       -1.41704
H         97.92683      100.42843       -1.81113
H        100.12479      101.85176       -3.02644
H         98.60087      102.45194       -0.41079
H         99.66123      103.59180       -1.32908
H         98.14415      102.97282       -2.07639
N        100.77179      100.68492        0.11326
C        101.85615      100.35650        1.03985
C        102.81972       99.34749        0.44884
O        104.01862       99.60042        0.45320
C        101.27285       99.79500        2.34326
H         99.80221      100.52257        0.41962
H        102.41287      101.28424        1.29851
H        102.08975       99.56831        3.06187
H        100.59647      100.54273        2.80904
H        100.69602       98.86465        2.15174
N        102.36018       98.19028       -0.09927
C        103.21174       97.15993       -0.68836
C        104.15689       97.76627       -1.71526
O        105.35710       97.56458       -1.60246
C        102.32255       96.04751       -1.29173
C        103.12575       94.85602       -1.83974
C        102.23814       93.74116       -2.33369
O        102.74286       92.73680       -2.80860
O        100.89554       93.82272       -2.24298
H        101.33917       98.05127       -0.11693
H        103.82418       96.69860        0.11907
H        101.68271       96.47159       -2.09688
H        101.65872       95.66912       -0.48247
H        103.77451       94.44847       -1.03536
H        103.77182       95.19515       -2.67601
N        103.68380       98.57863       -2.69812
C        104.52708       99.26094       -3.65863
H        105.59917       98.99967       -3.54364
H        104.20721       99.00040       -4.68681
H        104.41707      100.35808       -3.52281
H        102.67872       98.76385       -2.74011
Ca       100.24004       91.20599       -4.60991
O         97.51930       92.73789       -2.13138
H         97.93521       93.55372       -1.75504
H         96.74322       93.06962       -2.64846
O         99.16922       91.00837       -0.38084
H         98.33438       90.48500       -0.28052
H         99.72263       90.74586        0.39689

Ca 1.0



