%chk=holoCaM.loop1.water2.frame15.chk
%nprocshared=20
%mem=10GB
%nosave
#b3lyp/svp scf=(tight,noincore,xqc) Test 
#IOP(5/87=12) Density=Current Pop=(MK,readradii) iop(6/33=2) iop(6/42=6)

holoCaM.loop1.water2.frame15 

   0  1 
C         78.56183       17.67949        9.16241
C         79.56926       17.08191        8.22504
O         80.74271       17.01864        8.55838
H         77.78346       16.92545        9.40464
H         79.04374       18.01734       10.10383
H         78.07834       18.55357        8.67574
N         79.16305       16.61850        7.01405
C         80.06373       16.04484        6.02116
C         81.07896       17.07504        5.54331
O         80.67402       18.15074        5.12358
C         79.24924       15.56451        4.80967
C         80.16042       15.00093        3.76537
O         80.87682       13.89305        4.01950
O         80.28054       15.57027        2.69384
H         78.15594       16.67869        6.79294
H         80.57977       15.15934        6.45781
H         78.68718       16.42527        4.38341
H         78.51435       14.78694        5.11408
N         82.41207       16.77592        5.51882
C         83.43753       17.70288        5.05287
C         84.17168       17.23306        3.79348
O         84.91469       18.04837        3.26316
C         84.45627       17.96102        6.18536
C         83.83396       18.49335        7.48929
C         83.17352       19.86869        7.31667
C         82.62441       20.39461        8.64834
N         82.01919       21.71480        8.47343
H         82.70971       15.85600        5.85359
H         82.96478       18.66442        4.76369
H         85.22863       18.68323        5.84139
H         84.96841       17.00142        6.42115
H         84.64867       18.58330        8.24067
H         83.09722       17.76144        7.87944
H         82.33286       19.80259        6.59623
H         83.92822       20.58538        6.92598
H         83.45116       20.46717        9.38950
H         81.85947       19.68848        9.04207
H         82.73362       22.39312        8.12138
H         81.22338       21.65953        7.79678
H         81.65817       22.05242        9.39458
N         84.04435       15.98053        3.24557
C         84.69657       15.60838        1.98076
C         83.68398       15.06860        0.96646
O         83.96483       14.09504        0.28020
C         85.91898       14.67925        2.20621
C         85.55159       13.47007        2.99717
O         84.56417       12.65946        2.58715
O         86.03726       13.30648        4.10593
H         83.47225       15.27002        3.72217
H         85.11949       16.51567        1.49750
H         86.68971       15.24485        2.77777
H         86.37476       14.38238        1.23753
N         82.52595       15.74842        0.73860
C         81.66697       15.51646       -0.41600
C         80.87942       14.21724       -0.52562
O         80.27296       14.05533       -1.57511
H         82.32020       16.57254        1.32320
H         82.30792       15.60383       -1.31952
H         80.91968       16.33736       -0.46426
N         80.78184       13.27266        0.45649
C         79.99623       12.03921        0.28070
C         78.74346       11.97856        1.15783
O         78.07518       10.95370        1.14149
C         80.90287       10.79492        0.42109
C         81.67398       10.70555        1.70644
O         82.89219       10.66087        1.67927
O         81.04181       10.62774        2.88583
H         81.26107       13.42837        1.35504
H         79.58778       11.96832       -0.75095
H         81.63308       10.81295       -0.41714
H         80.29060        9.87377        0.30376
N         78.30389       13.05257        1.87498
C         77.06880       13.06001        2.65140
C         77.06924       12.13825        3.85666
O         76.04507       12.07509        4.52256
H         78.81569       13.93415        1.80754
H         76.22407       12.78601        1.98285
H         76.88320       14.09081        3.02591
N         78.16005       11.39909        4.20552
C         78.19888       10.47526        5.33229
C         79.27102       10.92541        6.31846
O         80.12043       11.73392        5.96570
C         78.41462        9.04247        4.78372
C         78.46319        7.96233        5.86339
O         77.36368        8.72330        3.90524
H         79.01273       11.48498        3.64976
H         77.22475       10.49904        5.86955
H         79.38568        8.99858        4.24109
H         77.63777        9.01213        2.99588
H         77.51760        7.95394        6.44603
H         78.59183        6.96841        5.38308
H         79.32449        8.11833        6.54376
N         79.19550       10.54097        7.62422
C         80.06155       11.05305        8.67911
C         80.86719        9.89521        9.26877
O         80.29961        8.88255        9.65399
C         79.21818       11.79696        9.77023
C         78.56592       13.12961        9.28380
C         80.10272       12.16669       10.98029
C         77.46939       13.02315        8.22623
H         78.44789        9.88748        7.90451
H         80.78124       11.80297        8.28162
H         78.42390       11.11457       10.14506
H         79.35064       13.83030        8.91946
H         78.07341       13.60268       10.16178
H         80.55307       11.26881       11.44861
H         80.91088       12.86040       10.67487
H         79.49747       12.66529       11.76686
H         77.86045       12.71998        7.24738
H         76.67307       12.32463        8.55659
H         77.02185       14.02772        8.06905
N         82.21331       10.03778        9.42233
C         83.12939        9.06727       10.00857
C         83.65644        9.62748       11.32134
O         83.21128       10.68969       11.73378
C         84.31265        8.81513        9.03289
C         83.82344        8.25393        7.68655
O         85.06333       10.00383        8.88006
H         82.62558       10.93389        9.16307
H         82.61369        8.10491       10.21860
H         84.98907        8.04634        9.46218
H         85.18042       10.22148        7.91999
H         83.16223        8.98789        7.18195
H         84.69414        8.04880        7.02621
H         83.26958        7.30464        7.84043
N         84.60475        8.96970       12.04472
C         85.16496        9.53162       13.27113
C         86.00042       10.78258       13.00344
O         86.09885       11.60465       13.90410
C         85.98421        8.49047       14.06430
C         85.08941        7.33096       14.52869
O         87.04002        8.00771       13.27393
H         84.92557        8.04571       11.72009
H         84.31584        9.83178       13.92753
H         86.39317        8.99379       14.97170
H         87.64243        7.50074       13.87883
H         84.26348        7.71917       15.16332
H         84.64952        6.78745       13.66702
H         85.68073        6.61197       15.13270
N         86.66156       10.98968       11.82097
C         87.44144       12.20868       11.57324
C         86.52812       13.42610       11.36254
O         87.01869       14.54393       11.30191
C         88.37751       12.00194       10.35550
C         89.52803       13.02625       10.28877
C         90.49330       12.70584        9.13727
C         91.74835       13.59036        9.20036
N         92.67227       13.27045        8.11180
H         86.63700       10.25327       11.09987
H         88.08978       12.35936       12.46505
H         87.78816       11.98727        9.41132
H         88.86173       11.00754       10.47327
H         90.08995       12.96493       11.24689
H         89.15066       14.06204       10.16486
H         89.97080       12.84964        8.16601
H         90.81876       11.64543        9.21343
H         92.26437       13.41856       10.17218
H         91.46408       14.66398        9.14051
H         92.22514       13.47691        7.18942
H         93.53392       13.85496        8.20994
H         92.94592       12.26149        8.15351
N         85.18253       13.26294       11.20815
C         84.21396       14.31812       10.94104
C         83.16604       14.38928       12.05108
O         82.26885       15.21516       11.94851
C         83.50132       13.97243        9.61374
C         84.47247       13.85205        8.43116
C         83.83120       13.16494        7.26098
O         83.47807       12.00529        7.34109
O         83.70794       13.77531        6.08683
H         84.80079       12.31587       11.22323
H         84.71006       15.31009       10.86087
H         82.71083       14.71504        9.36380
H         83.00940       12.99545        9.76945
H         85.34788       13.22486        8.69896
H         84.83905       14.86458        8.15584
N         83.19211       13.55217       13.13077
C         82.17138       13.57354       14.15464
H         81.18196       13.34290       13.70612
H         82.39417       12.80179       14.92350
H         82.14044       14.56820       14.64505
H         83.94198       12.85986       13.24344
Ca        83.24343       12.44856        4.34251
O         85.06019        9.89468        4.61023
H         85.18335        9.27408        3.84857
H         85.81146       10.53437        4.53306
O         82.11248        8.63771        4.77943
H         81.64305        8.24909        4.00027
H         82.92841        8.08531        4.86861

Ca 1.0



