%chk=holoCaM-CaMKII.loop2.water2.frame400.chk
%nprocshared=20
%mem=10GB
%nosave
#b3lyp/svp scf=(tight,noincore,xqc) Test 
#IOP(5/87=12) Density=Current Pop=(MK,readradii) iop(6/33=2) iop(6/42=6)

holoCaM-CaMKII.loop2.water2.frame400 

   -2  1 
C         65.15480       84.44508       55.93239
C         66.23229       83.72937       55.17220
O         66.53351       82.59209       55.50164
H         64.21464       83.85615       55.86788
H         65.44723       84.55544       56.99564
H         64.95853       85.45219       55.50637
N         66.83608       84.32691       54.10958
C         67.78193       83.63333       53.24429
C         69.05826       83.20538       53.96588
O         69.39889       83.75925       55.00176
C         68.10697       84.54160       52.03593
C         68.95902       83.87382       51.00757
O         68.53134       82.74197       50.41891
O         70.03805       84.35409       50.69980
H         66.54668       85.28630       53.86113
H         67.26751       82.71932       52.87648
H         68.60676       85.46931       52.39380
H         67.15913       84.83338       51.53543
N         69.82749       82.22076       53.41525
C         71.10183       81.75061       53.95726
C         71.95327       80.99798       52.91038
O         72.90577       80.33763       53.30167
C         70.83961       80.88275       55.19657
H         69.45084       81.76470       52.57740
H         71.71685       82.62271       54.27119
H         71.79980       80.56014       55.65418
H         70.28050       81.45703       55.96485
H         70.24989       79.98224       54.92355
N         71.74931       81.15405       51.56273
C         72.57620       80.52561       50.52026
C         72.39344       81.09713       49.09471
O         73.17198       80.70641       48.23579
C         72.35768       78.99410       50.49311
C         70.94719       78.60173       50.15215
O         70.01464       79.52898       49.87235
O         70.62822       77.42374       50.17226
H         71.02597       81.80606       51.29038
H         73.63710       80.73262       50.78024
H         72.59244       78.57107       51.49163
H         73.04420       78.52167       49.75792
N         71.43914       82.01543       48.75164
C         71.32160       82.61849       47.43915
C         70.94782       81.62615       46.37035
O         71.67585       81.50984       45.39555
H         70.75965       82.35861       49.42315
H         72.26872       83.14336       47.18941
H         70.51323       83.38432       47.46940
N         69.78921       80.91379       46.46653
C         69.29499       80.03096       45.41109
C         67.94980       80.51824       44.85300
O         67.35893       79.81297       44.04699
C         69.23456       78.56444       45.90390
C         68.22604       78.25989       46.97993
N         68.05415       76.98604       47.39899
O         67.54926       79.14648       47.46804
H         69.21454       81.03340       47.31443
H         70.00453       80.01668       44.55544
H         70.24171       78.26167       46.26612
H         68.98327       77.92487       45.03045
H         68.61045       76.21825       46.99594
H         67.35017       76.76478       48.11682
N         67.43282       81.73912       45.19158
C         66.18897       82.28458       44.66003
C         64.91486       81.68716       45.24004
O         63.85027       82.16093       44.86912
H         67.98399       82.36904       45.78822
H         66.19118       82.20696       43.55091
H         66.15545       83.36550       44.91726
N         64.92618       80.66735       46.14360
C         63.72782       80.07335       46.73493
C         63.79830       80.07275       48.26048
O         64.78685       80.50487       48.83620
C         63.56039       78.62274       46.20333
C         63.19903       78.62238       44.71773
O         64.73531       77.87574       46.39308
H         65.82408       80.26222       46.40993
H         62.81670       80.64976       46.45990
H         62.71030       78.10709       46.70123
H         64.80926       77.69077       47.36513
H         63.05262       77.57855       44.36769
H         62.24572       79.17420       44.56259
H         63.99566       79.09748       44.10947
N         62.76164       79.54437       48.97080
C         62.71696       79.38795       50.41926
C         62.82254       77.90357       50.71593
O         62.09792       77.11062       50.12867
C         61.40060       80.00161       50.98159
C         61.40191       81.53742       50.77006
C         61.21839       79.65995       52.47868
C         60.04859       82.19160       51.05595
H         61.95285       79.17443       48.44936
H         63.57295       79.89990       50.91339
H         60.54931       79.55454       50.42152
H         61.64536       81.76935       49.71183
H         62.18289       82.00345       51.41136
H         60.26228       80.05356       52.87476
H         61.17460       78.56203       52.62911
H         62.05593       80.06822       53.08372
H         59.73024       82.05409       52.10781
H         60.12077       83.28324       50.86682
H         59.27625       81.76731       50.37961
N         63.70136       77.46960       51.65821
C         63.92963       76.06953       51.99245
C         63.24898       75.76227       53.30705
O         62.61824       76.64815       53.86223
C         65.44585       75.82039       52.12886
C         66.24422       76.31727       50.96045
O         66.13321       77.61000       50.60374
O         67.07560       75.60161       50.42607
H         64.22067       78.17547       52.19947
H         63.50350       75.40452       51.20935
H         65.66181       74.74631       52.31471
H         65.80864       76.39662       53.00918
N         63.29799       74.52581       53.86731
C         62.62309       74.23263       55.12341
C         63.20492       75.02279       56.30079
O         62.42659       75.72100       56.93331
C         62.58960       72.71890       55.40495
C         61.75666       72.39948       56.62827
C         60.39340       72.75421       56.68133
C         62.33279       71.74266       57.72791
C         59.62972       72.46446       57.81463
C         61.56201       71.44946       58.85790
C         60.21295       71.81167       58.90200
H         63.78857       73.76799       53.36597
H         61.56088       74.53713       54.99311
H         63.61989       72.32751       55.51238
H         62.13061       72.20280       54.53392
H         59.91614       73.25679       55.85005
H         63.37688       71.45719       57.71174
H         58.58461       72.74565       57.84831
H         62.01109       70.94140       59.70086
H         59.61858       71.58571       59.77773
N         64.52694       74.98954       56.68020
C         65.02784       75.70048       57.85346
C         64.94606       77.21073       57.71273
O         65.01545       77.89117       58.72784
C         66.46945       75.19649       57.99792
C         66.85462       74.92143       56.55805
C         65.58795       74.26191       56.01573
H         64.44882       75.41150       58.75838
H         67.15637       75.85831       58.56925
H         66.44265       74.20429       58.50282
H         66.98491       75.90412       56.04957
H         67.78044       74.32471       56.41306
H         65.59037       74.37130       54.91391
H         65.53370       73.19373       56.31616
N         64.81048       77.81173       56.50087
C         64.64506       79.25108       56.34662
C         63.23202       79.63607       56.73827
O         63.05246       80.48653       57.59770
C         64.94479       79.66885       54.89553
C         66.41940       79.37058       54.55469
C         66.82208       79.77256       53.17053
O         68.09652       79.57664       52.78885
O         66.02601       80.27022       52.39079
H         64.83267       77.22743       55.65158
H         65.37897       79.79649       56.98376
H         64.76328       80.76004       54.78453
H         64.26791       79.13420       54.20109
H         66.62567       78.28493       54.65626
H         67.07351       79.91805       55.26674
N         62.17395       79.01924       56.14656
C         60.79664       79.31836       56.46038
H         60.12896       78.64967       55.87294
H         60.60414       79.14669       57.53988
H         60.56814       80.37007       56.19210
H         62.35311       78.29046       55.45253
Ca        67.92713       78.82387       50.13112
O         67.01391       82.37906       48.15248
H         66.15257       82.75804       48.45459
H         67.58759       83.17066       47.99447
O         65.36087       82.80900       50.99990
H         64.89246       83.67980       51.03237
H         64.63529       82.13897       50.95662

Ca 1.0



