%chk=holoCaM-CaMKII.loop4.water1.frame404.chk
%nprocshared=20
%mem=10GB
%nosave
#b3lyp/svp scf=(tight,noincore,xqc) Test 
#IOP(5/87=12) Density=Current Pop=(MK,readradii) iop(6/33=2) iop(6/42=6)

holoCaM-CaMKII.loop4.water1.frame404 

   -3  1 
C         37.10621       66.91698       69.94718
C         37.04079       67.93921       71.03823
O         37.99105       68.68958       71.21537
H         38.07800       66.97555       69.41248
H         36.97860       65.90149       70.37227
H         36.29167       67.11555       69.21705
N         35.90864       68.06184       71.78324
C         35.73720       69.13931       72.74026
C         36.65408       69.00699       73.95358
O         36.59387       68.02285       74.67587
C         34.26812       69.28662       73.14553
C         34.10987       70.54982       73.92427
O         33.54121       70.54676       74.99815
O         34.67447       71.67916       73.45599
H         35.11248       67.43749       71.57858
H         35.97903       70.07382       72.18373
H         33.88991       68.40497       73.70857
H         33.66576       69.39979       72.21794
N         37.54024       70.00582       74.20652
C         38.54238       70.02238       75.26305
C         37.93099       70.13208       76.66145
O         38.27283       69.31216       77.50207
C         39.55018       71.20231       75.01548
C         40.21674       71.16407       73.60269
C         40.64214       71.25930       76.10156
C         40.98765       69.88296       73.27460
H         37.53167       70.79342       73.55686
H         39.13431       69.08315       75.20929
H         38.99046       72.16337       75.07363
H         40.91128       72.02742       73.51058
H         39.45916       71.29661       72.80598
H         41.32617       72.11404       75.90963
H         40.19664       71.41756       77.10515
H         41.23545       70.32276       76.12671
H         41.81622       69.71489       73.99045
H         40.31138       69.00369       73.27076
H         41.42339       69.97277       72.25682
N         37.09728       71.16152       77.00560
C         36.75058       71.48345       78.39913
C         35.29767       71.21071       78.79861
O         34.91709       71.57820       79.90184
C         37.21482       72.92450       78.72325
C         36.53371       74.03285       77.96200
O         35.63541       73.80756       77.16735
O         36.92719       75.30370       78.17103
H         36.77728       71.79609       76.25949
H         37.33708       70.84060       79.09125
H         38.30534       72.98540       78.51264
H         37.07324       73.12021       79.80826
N         34.48151       70.44012       78.03249
C         33.18278       69.94209       78.47682
C         32.08820       70.98410       78.59338
O         31.38841       71.01733       79.59497
H         34.83971       70.07962       77.13716
H         33.29265       69.37771       79.42915
H         32.82753       69.21947       77.71049
N         31.83797       71.80526       77.54435
C         30.65567       72.65661       77.38494
C         29.94184       72.33065       76.05475
O         28.97472       73.00461       75.72942
C         31.00734       74.16799       77.53433
C         32.06086       74.66998       76.59462
O         32.43439       75.83111       76.62068
O         32.63339       73.79046       75.77705
H         32.51424       71.76337       76.77785
H         29.92212       72.45703       78.19712
H         31.37564       74.33819       78.56901
H         30.08242       74.76887       77.39686
N         30.31323       71.26168       75.27793
C         29.59219       70.81003       74.09570
C         29.81493       71.59849       72.81785
O         29.22867       71.19434       71.82281
H         31.06005       70.63318       75.59738
H         28.50712       70.74875       74.32861
H         29.93269       69.77611       73.86333
N         30.62718       72.69391       72.72893
C         30.83823       73.42071       71.46751
C         32.31462       73.47022       71.09024
O         33.13598       73.11075       71.91361
C         30.13712       74.79602       71.53441
C         30.52549       75.69930       72.72247
C         31.91448       76.25100       72.61375
N         32.24245       77.06325       71.58615
O         32.74328       75.99255       73.47201
H         31.10567       73.02876       73.57717
H         30.35016       72.87138       70.63327
H         29.05240       74.58224       71.65375
H         30.25722       75.33737       70.57196
H         30.39401       75.15085       73.67921
H         29.83026       76.56502       72.75283
H         31.55009       77.31726       70.86699
H         33.18754       77.45361       71.52171
N         32.72429       73.79830       69.82401
C         34.12597       73.70601       69.39394
C         34.57981       75.02128       68.75667
O         34.09890       75.37031       67.68742
C         34.29658       72.49892       68.41692
C         35.74385       72.33897       67.92104
C         33.87021       71.17953       69.09010
H         32.01036       74.03217       69.11700
H         34.78000       73.50169       70.27076
H         33.64634       72.66245       67.52924
H         36.09225       73.24975       67.39338
H         36.42289       72.11956       68.76870
H         35.81054       71.49265       67.20315
H         34.50081       70.97252       69.98282
H         32.80763       71.21580       69.40640
H         33.97677       70.33022       68.38111
N         35.50928       75.80327       69.37955
C         36.04307       77.05902       68.83945
C         37.11770       76.80967       67.78412
O         37.42648       75.66590       67.48403
C         36.69645       77.87705       69.98711
C         35.68868       78.37393       70.98544
N         35.78383       78.04484       72.29344
O         34.79031       79.11288       70.61013
H         35.82708       75.50699       70.31163
H         35.22345       77.66938       68.39996
H         37.19205       78.78897       69.60028
H         37.47612       77.25631       70.47889
H         36.55169       77.45047       72.63170
H         35.09528       78.39856       72.97401
N         37.77554       77.87246       67.22517
C         38.96772       77.75401       66.38985
C         40.10769       77.12964       67.18088
O         40.76501       76.24227       66.65877
C         39.43869       79.14240       65.89845
C         40.67626       79.00654       65.03497
C         40.61426       78.33229       63.80284
C         41.90915       79.52001       65.47281
C         41.76544       78.16874       63.02712
C         43.06054       79.34988       64.69762
C         42.99220       78.67115       63.47221
O         44.09584       78.49187       62.71866
H         37.44714       78.82341       67.44883
H         38.73309       77.13557       65.49528
H         39.65714       79.77759       66.78583
H         38.63704       79.64380       65.31484
H         39.67616       77.92750       63.44482
H         41.98506       80.03438       66.42272
H         41.70462       77.64336       62.08224
H         44.00595       79.73919       65.05393
H         44.96603       78.81257       62.99550
N         40.41764       77.56384       68.44079
C         41.51064       76.98865       69.22903
C         41.31893       75.50001       69.53389
O         42.23294       74.90393       70.08669
C         41.72469       77.77670       70.54830
C         40.57238       77.61789       71.55628
C         40.81804       78.40955       72.80656
O         41.89950       78.15440       73.56780
O         40.02531       79.27043       73.15367
H         39.86679       78.33984       68.83713
H         42.43905       77.10249       68.62616
H         41.86229       78.85272       70.30328
H         42.66074       77.41738       71.03102
H         40.48498       76.55498       71.85239
H         39.61869       77.94639       71.09720
N         40.16672       74.83905       69.21347
C         39.92225       73.43042       69.48945
C         39.80844       72.60855       68.20886
O         39.77930       71.38935       68.30718
C         38.61258       73.30114       70.28406
C         38.63677       74.08050       71.60140
C         37.31428       73.96923       72.28609
O         36.80969       72.76207       72.55247
O         36.67904       74.96393       72.58754
H         39.39927       75.35258       68.77731
H         40.76758       73.00376       70.07276
H         38.41051       72.22677       70.49357
H         37.78554       73.70607       69.66036
H         38.83816       75.15120       71.41042
H         39.42944       73.67100       72.25909
N         39.73183       73.18604       66.97673
C         39.67018       72.41935       65.75367
H         40.59966       71.82316       65.63850
H         38.78616       71.74898       65.76417
H         39.58518       73.10810       64.88443
H         39.69911       74.20191       66.88244
Ca        34.28320       73.68435       74.34460
O         36.03202       76.51164       75.17171
H         36.75231       77.18245       75.28081
H         35.57258       76.49450       76.04801

Ca 1.0



