%chk=holoCaM-CaMKII.loop1.water2.frame478.chk
%nprocshared=20
%mem=10GB
%nosave
#b3lyp/svp scf=(tight,noincore,xqc) Test 
#IOP(5/87=12) Density=Current Pop=(MK,readradii) iop(6/33=2) iop(6/42=6)

holoCaM-CaMKII.loop1.water2.frame478 

   0  1 
C         74.45920       76.73051       75.17563
C         74.77582       77.07882       76.59752
O         74.47464       78.18557       77.02084
H         73.95870       77.58140       74.66506
H         75.40098       76.49762       74.63528
H         73.78897       75.84701       75.14625
N         75.40041       76.17184       77.40082
C         75.76830       76.46754       78.78041
C         76.73995       77.63489       78.78876
O         77.78138       77.55240       78.15195
C         76.37058       75.22200       79.45493
C         76.67434       75.46203       80.90581
O         77.93136       75.31193       81.36006
O         75.78424       75.77758       81.67983
H         75.62476       75.24412       77.00788
H         74.83981       76.72898       79.33783
H         77.29716       74.91467       78.92271
H         75.63881       74.38701       79.39241
N         76.41219       78.78130       79.44500
C         77.15702       80.03052       79.33596
C         77.71649       80.50555       80.67964
O         78.40767       81.51348       80.71011
C         76.16130       81.06933       78.76039
C         76.77553       82.26766       78.02087
C         77.59535       81.87933       76.76889
C         76.81968       80.98131       75.78045
N         77.60777       80.70514       74.58218
H         75.53983       78.78912       79.98108
H         78.00506       79.87288       78.64174
H         75.48532       81.41681       79.57381
H         75.48660       80.57026       78.03570
H         77.40468       82.87198       78.70674
H         75.92999       82.91013       77.68846
H         78.52792       81.36032       77.07009
H         77.88860       82.81988       76.25466
H         75.86641       81.47546       75.48862
H         76.58169       80.00656       76.25822
H         78.50350       80.23255       74.84354
H         77.06174       80.06790       73.95739
H         77.80721       81.59464       74.07105
N         77.41072       79.84888       81.83555
C         77.81591       80.26333       83.17822
C         78.43057       79.10981       83.99190
O         78.80124       79.33882       85.13490
C         76.62255       80.92821       83.91921
C         75.34756       80.12554       84.01053
O         74.41960       80.54617       84.68104
O         75.20171       78.98338       83.31809
H         76.80615       79.02905       81.76585
H         78.59684       81.05370       83.11667
H         76.36724       81.88219       83.40789
H         76.95952       81.18734       84.94677
N         78.63099       77.86977       83.45792
C         79.32830       76.78379       84.13360
C         78.57652       76.12451       85.27364
O         79.15495       75.94886       86.33614
H         78.37096       77.69109       82.47984
H         80.33593       77.12275       84.46045
H         79.48963       75.97608       83.38860
N         77.31436       75.64699       85.08808
C         76.62192       74.75192       86.02300
C         76.14995       73.47199       85.32030
O         75.49217       72.66420       85.96244
C         75.48702       75.48250       86.77329
C         74.62185       76.31397       85.89013
O         74.60265       77.52403       86.05614
O         73.94072       75.78742       84.86102
H         76.83231       75.88932       84.20888
H         77.30775       74.40608       86.82791
H         75.96756       76.17503       87.50072
H         74.87590       74.76476       87.36087
N         76.51674       73.17181       84.03699
C         76.20531       71.91236       83.37970
C         74.77165       71.75228       82.91758
O         74.50300       70.73344       82.29901
H         77.14046       73.80479       83.51997
H         76.50034       71.06389       84.03528
H         76.82334       71.84762       82.45706
N         73.80622       72.69338       83.13893
C         72.44928       72.57142       82.60225
C         72.11893       73.76734       81.71969
O         72.89481       74.70754       81.64563
C         71.41253       72.40076       83.74031
C         71.63568       71.10269       84.53207
O         71.39717       73.51585       84.59590
H         74.03395       73.53343       83.68263
H         72.37317       71.67371       81.95053
H         70.40043       72.31220       83.28937
H         72.20679       73.47829       85.16848
H         71.58130       70.22563       83.85185
H         72.62717       71.10538       85.03211
H         70.84705       70.99394       85.30659
N         70.97412       73.75678       80.97713
C         70.57894       74.82598       80.06548
C         69.20036       75.32208       80.47862
O         68.29270       74.51515       80.61465
C         70.59709       74.30308       78.59543
C         72.03059       73.82353       78.22828
C         70.12955       75.40707       77.62269
C         72.15616       73.22763       76.82429
H         70.36501       72.92687       81.02672
H         71.29616       75.67401       80.10559
H         69.89627       73.44293       78.50994
H         72.34142       73.02837       78.93860
H         72.74869       74.66857       78.32112
H         69.10324       75.74083       77.87049
H         70.81363       76.28113       77.66335
H         70.08262       75.03634       76.57989
H         73.19580       72.86771       76.67163
H         71.46164       72.36952       76.70579
H         71.95268       73.98289       76.03904
N         68.96697       76.65787       80.63504
C         67.65888       77.21430       80.97441
C         66.99920       77.75450       79.72083
O         67.59594       77.70635       78.66172
C         67.78914       78.34074       82.04043
C         68.44725       77.86761       83.33975
O         68.46629       79.45961       81.52023
H         69.72183       77.31135       80.40279
H         66.99639       76.41626       81.37442
H         66.77105       78.68484       82.31945
H         69.43817       79.26896       81.53196
H         67.87075       77.03177       83.78615
H         69.48550       77.53513       83.14078
H         68.48097       78.70852       84.06631
N         65.74578       78.27890       79.76910
C         65.08166       78.86774       78.60658
C         65.86431       80.07097       78.09485
O         66.12308       80.14259       76.90139
C         63.62320       79.25730       78.94391
C         62.78062       78.00618       79.24500
O         63.59342       80.13994       80.03594
H         65.25334       78.26793       80.67343
H         65.02350       78.11712       77.78498
H         63.18834       79.75495       78.04599
H         62.66766       80.49274       80.09557
H         63.16469       77.45702       80.12948
H         61.72755       78.29482       79.44295
H         62.79147       77.31976       78.37070
N         66.32513       81.02045       78.95887
C         67.12978       82.17881       78.56406
C         68.32669       81.76282       77.72678
O         68.49584       82.27948       76.63114
C         67.60148       82.92442       79.83916
C         68.54731       84.10526       79.55712
C         68.96026       84.79624       80.86370
C         69.98630       85.90805       80.60542
N         70.36301       86.57209       81.85331
H         66.13028       80.88332       79.96316
H         66.50750       82.87324       77.95665
H         68.13929       82.20898       80.50095
H         66.70457       83.29060       80.38524
H         68.05051       84.83873       78.88599
H         69.46554       83.72595       79.05743
H         69.41598       84.04872       81.55032
H         68.05756       85.22491       81.35132
H         69.55981       86.65893       79.90435
H         70.89573       85.46737       80.13801
H         69.52498       87.02508       82.28506
H         70.77362       85.88031       82.52203
H         71.07721       87.30778       81.64834
N         69.20230       80.83808       78.19518
C         70.40788       80.42693       77.48074
C         70.05288       79.87940       76.10679
O         70.59486       80.36664       75.12445
C         71.21425       79.42756       78.34238
C         71.70124       80.12710       79.63343
C         72.46918       79.22939       80.55202
O         73.57726       79.56114       80.92924
O         71.91610       78.10655       81.04046
H         68.98720       80.40836       79.10552
H         71.06668       81.31146       77.32592
H         72.10018       79.07448       77.77372
H         70.58079       78.54835       78.58570
H         70.84737       80.51678       80.21586
H         72.33858       80.99662       79.35822
N         69.09488       78.92547       75.95803
C         68.63306       78.43505       74.67491
H         67.55710       78.68878       74.55561
H         69.18835       78.88121       73.82381
H         68.74444       77.33223       74.63678
H         68.62846       78.56152       76.79094
Ca        73.55940       77.47455       83.46686
O         71.35547       79.70979       84.09998
H         71.96916       80.13808       83.45171
H         71.87505       79.66093       84.94156
O         71.11671       76.51353       84.94411
H         71.20278       76.10012       84.04780
H         70.20611       76.26885       85.24395

Ca 1.0



