%chk=holoCaM-CaMKII.loop3.water2.frame371.chk
%nprocshared=20
%mem=10GB
%nosave
#b3lyp/svp scf=(tight,noincore,xqc) Test 
#IOP(5/87=12) Density=Current Pop=(MK,readradii) iop(6/33=2) iop(6/42=6)

holoCaM-CaMKII.loop3.water2.frame371 

   0  1 
C         41.73444       83.55087       35.47632
C         41.10682       84.14062       34.25263
O         41.00282       85.35712       34.17598
H         42.76615       83.94557       35.58626
H         41.13576       83.83328       36.36701
H         41.78090       82.44394       35.41204
N         40.66928       83.33850       33.24059
C         40.07663       83.87872       32.02781
C         38.80066       84.63844       32.37890
O         37.85454       84.04153       32.87205
C         39.86456       82.75165       30.98916
C         39.51029       83.28614       29.63542
O         39.82797       82.66478       28.63957
O         39.01683       84.52876       29.53255
H         40.79164       82.31775       33.32667
H         40.82499       84.57631       31.58568
H         39.13437       81.98258       31.31722
H         40.85400       82.25298       30.87423
N         38.75937       85.99136       32.21554
C         37.66885       86.84788       32.67023
C         36.37484       86.56433       31.93206
O         35.37370       86.31172       32.58744
C         38.09006       88.32937       32.53564
C         37.10779       89.30294       33.20779
C         37.68788       90.72904       33.22833
C         36.80011       91.73850       33.97745
N         35.53276       91.98813       33.29005
H         39.59176       86.44811       31.82076
H         37.52212       86.66613       33.75907
H         38.22873       88.60202       31.46667
H         39.06786       88.43693       33.05711
H         36.94856       88.98229       34.26094
H         36.13690       89.27433       32.67173
H         37.87449       91.08858       32.19325
H         38.66377       90.69553       33.76236
H         37.35574       92.69996       34.05158
H         36.60746       91.37942       35.01322
H         34.99721       92.71165       33.82235
H         35.71568       92.34963       32.32578
H         34.95469       91.12010       33.24402
N         36.32658       86.56638       30.56863
C         35.10030       86.31672       29.81068
C         35.07096       84.92012       29.19637
O         34.13259       84.62485       28.46866
C         34.85526       87.44625       28.77909
C         35.86233       87.56216       27.66572
O         36.90583       86.72459       27.57426
O         35.72189       88.42965       26.81922
H         37.20607       86.71265       30.05183
H         34.21958       86.34588       30.48911
H         34.82446       88.41590       29.32149
H         33.85989       87.28724       28.30995
N         36.00194       83.97278       29.51920
C         35.92191       82.59323       29.06413
C         36.13748       82.39319       27.57708
O         35.93257       81.27362       27.12878
H         36.73755       84.19669       30.19862
H         34.91800       82.20108       29.33991
H         36.67745       81.97804       29.59920
N         36.53357       83.39780       26.73952
C         36.60741       83.21451       25.28951
C         37.68327       82.22659       24.83726
O         37.70978       81.91377       23.65538
C         36.78778       84.56721       24.56335
C         38.20370       85.08530       24.60303
N         38.86738       85.35147       23.45473
O         38.75985       85.26039       25.67222
H         36.70991       84.32981       27.13092
H         35.61010       82.82774       24.98309
H         36.09535       85.31694       25.00468
H         36.49525       84.43747       23.49972
H         38.42111       85.21675       22.53572
H         39.83068       85.70717       23.48614
N         38.61186       81.71767       25.70075
C         39.63135       80.75812       25.30730
C         41.05575       81.21541       25.57109
O         41.94135       80.40807       25.32111
H         38.58709       81.98962       26.68867
H         39.55023       80.49323       24.23232
H         39.46005       79.82875       25.89349
N         41.38210       82.43893       26.09664
C         42.77112       82.78417       26.42332
C         42.89602       83.86098       27.49909
O         41.90118       84.44427       27.90337
C         43.58346       83.08429       25.13485
C         43.11835       84.28109       24.32479
C         43.25258       85.59302       24.81552
C         42.58886       84.09331       23.03342
C         42.86745       86.68695       24.03119
C         42.20009       85.18906       22.25528
C         42.33819       86.48876       22.74994
O         41.96010       87.53560       21.98783
H         40.62978       83.10232       26.32647
H         43.22165       81.89256       26.91521
H         43.53522       82.17792       24.49574
H         44.65638       83.22806       25.38023
H         43.67334       85.77901       25.79340
H         42.47837       83.09803       22.62217
H         42.98727       87.69141       24.41395
H         41.79223       85.02839       21.26493
H         42.03428       88.45083       22.29474
N         44.11884       84.13530       28.04380
C         44.34370       85.08432       29.13246
C         45.20719       86.22525       28.62970
O         46.29098       85.97696       28.11785
C         45.03729       84.39213       30.35336
C         44.15539       83.25712       30.93546
C         45.36128       85.43350       31.45428
C         44.86005       82.44195       32.02876
H         44.94273       83.63215       27.67930
H         43.38360       85.49842       29.49819
H         45.99546       83.94939       30.00049
H         43.89023       82.54574       30.12570
H         43.21369       83.68159       31.34723
H         46.03045       86.22733       31.06801
H         44.42995       85.90612       31.83455
H         45.90997       84.98529       32.30413
H         44.19281       81.62570       32.37517
H         45.79290       81.99059       31.62785
H         45.10796       83.05601       32.91755
N         44.81855       87.51415       28.84429
C         45.65068       88.67319       28.54378
C         46.11601       89.31629       29.84171
O         45.76848       88.83527       30.90781
C         44.85682       89.66606       27.68156
O         44.49174       89.07536       26.46415
H         43.92190       87.68690       29.32415
H         46.56725       88.37234       27.99085
H         45.43969       90.59369       27.48628
H         43.93418       89.97890       28.21752
H         45.27982       89.14549       25.86447
N         46.94960       90.39255       29.82569
C         47.48420       91.01396       31.03628
C         46.38924       91.56660       31.92701
O         46.35189       91.22091       33.09965
C         48.44993       92.14317       30.66851
H         47.24455       90.76450       28.90997
H         48.06875       90.25662       31.60677
H         48.87293       92.59572       31.59123
H         49.28738       91.73812       30.06220
H         47.93256       92.93317       30.08382
N         45.45843       92.42906       31.43021
C         44.39175       93.01996       32.23526
C         43.59895       91.96022       32.96973
O         43.32571       92.13374       34.14941
C         43.45744       93.85074       31.34754
H         45.50064       92.65760       30.42461
H         44.83421       93.70987       32.98744
H         42.66379       94.32546       31.96416
H         44.03312       94.65727       30.84485
H         42.97755       93.21583       30.57184
N         43.24024       90.80999       32.34125
C         42.50227       89.74177       33.00279
C         43.27429       89.21214       34.20198
O         42.75859       89.27557       35.30909
C         42.20677       88.59941       32.01788
C         41.34870       89.07437       30.82746
C         40.99113       87.94563       29.91633
O         40.16976       88.14717       28.87301
O         41.39482       86.81492       30.13681
H         43.52692       90.69191       31.35843
H         41.52435       90.14336       33.35363
H         41.65098       87.80518       32.56600
H         43.15470       88.16075       31.63803
H         41.87158       89.84090       30.22276
H         40.41051       89.51718       31.21795
N         44.52321       88.68869       34.05184
C         45.32911       88.18538       35.14505
H         46.27337       88.76782       35.19939
H         44.81261       88.26126       36.12418
H         45.57909       87.12002       34.95714
H         44.93883       88.65062       33.11610
Ca        39.54504       86.15187       28.10689
O         41.61241       88.06784       26.52335
H         41.56578       89.04063       26.70191
H         42.33325       87.73569       27.11462
O         38.98097       88.24489       25.38844
H         39.35103       88.11770       24.47893
H         38.04400       87.93453       25.32076

Ca 1.0



