%chk=holoCaM-CaMKII.loop3.water2.frame469.chk
%nprocshared=20
%mem=10GB
%nosave
#b3lyp/svp scf=(tight,noincore,xqc) Test 
#IOP(5/87=12) Density=Current Pop=(MK,readradii) iop(6/33=2) iop(6/42=6)

holoCaM-CaMKII.loop3.water2.frame469 

   0  1 
C         69.67504       52.72899       53.79506
C         69.80799       52.31426       52.36295
O         70.66803       52.84903       51.67702
H         69.42811       53.81002       53.84465
H         68.87545       52.15595       54.30923
H         70.63673       52.54713       54.31822
N         68.97604       51.37205       51.83525
C         69.05984       50.92673       50.45496
C         67.80457       51.38624       49.73860
O         66.71210       50.94098       50.06251
C         69.27873       49.40893       50.43938
C         69.53833       48.82026       49.09005
O         69.54109       49.49851       48.07476
O         69.80746       47.50874       49.01889
H         68.23924       50.96269       52.43092
H         69.94478       51.38976       49.96435
H         68.40582       48.89425       50.89608
H         70.17650       49.18818       51.05729
N         67.90374       52.39280       48.82923
C         66.76088       53.09086       48.25082
C         66.00748       52.19344       47.28136
O         64.88519       51.81443       47.58687
C         67.29158       54.42060       47.67016
C         66.27483       55.42832       47.13372
C         66.99908       56.78555       46.97293
C         66.13500       57.90357       46.38196
N         65.89434       57.70418       44.95348
H         68.84635       52.76956       48.64990
H         66.07899       53.36748       49.08731
H         68.03979       54.22600       46.87594
H         67.82080       54.90867       48.52140
H         65.44618       55.56294       47.86208
H         65.86152       55.04824       46.17647
H         67.91873       56.67851       46.35564
H         67.31362       57.11342       47.98986
H         66.68547       58.86333       46.50819
H         65.17540       57.98490       46.93811
H         65.33207       58.50667       44.58975
H         66.80815       57.68274       44.44297
H         65.37220       56.81704       44.78197
N         66.56487       51.79316       46.10338
C         65.91211       50.84924       45.19065
C         65.86386       49.41733       45.74056
O         65.23338       48.58132       45.10724
C         66.60128       50.85294       43.80393
C         68.05947       50.47537       43.84613
O         68.71254       50.45566       42.81573
O         68.65654       50.20212       45.02132
H         67.47034       52.20144       45.84001
H         64.86772       51.19808       45.02440
H         66.52252       51.87476       43.37289
H         66.06342       50.15667       43.12314
N         66.49447       49.05197       46.89760
C         66.40039       47.71532       47.46821
C         67.09343       46.60676       46.68622
O         66.93121       45.46336       47.08941
H         67.01238       49.75350       47.44049
H         65.32253       47.46479       47.57983
H         66.84419       47.72097       48.48704
N         67.87111       46.82832       45.58198
C         68.44485       45.72973       44.79510
C         69.48323       44.87842       45.53140
O         69.89138       43.87167       44.96877
C         69.06130       46.24852       43.47116
C         70.33703       47.04949       43.62276
N         70.96529       47.52897       42.52601
O         70.82203       47.24984       44.72427
H         68.00215       47.79143       45.24970
H         67.59472       45.06848       44.51421
H         68.30414       46.86287       42.93806
H         69.30047       45.37306       42.82905
H         70.58182       47.35996       41.58523
H         71.84153       48.06395       42.61665
N         69.97892       45.22159       46.75610
C         70.97017       44.42649       47.46855
C         72.23940       45.17662       47.84474
O         73.09191       44.53508       48.44381
H         69.62475       46.06400       47.21271
H         71.26964       43.53613       46.87638
H         70.50685       44.05828       48.40949
N         72.44732       46.50837       47.59489
C         73.65380       47.19587       48.07185
C         73.51616       48.71986       48.12746
O         72.49426       49.26651       47.73897
C         74.93195       46.75162       47.31366
C         74.97060       47.10478       45.84649
C         75.81153       48.13721       45.39334
C         74.21754       46.37548       44.91159
C         75.89737       48.43456       44.03052
C         74.31499       46.66627       43.54627
C         75.15613       47.69753       43.10143
O         75.26152       47.98793       41.78896
H         71.70471       47.05372       47.13883
H         73.78559       46.91356       49.14086
H         75.10702       45.66093       47.41713
H         75.80365       47.21915       47.81358
H         76.40081       48.71546       46.09453
H         73.57741       45.56448       45.23342
H         76.54402       49.23659       43.69658
H         73.74243       46.08512       42.83453
H         74.77566       47.49631       41.11166
N         74.51531       49.45522       48.70259
C         74.43761       50.87677       49.02443
C         75.53413       51.63306       48.28447
O         76.69405       51.25738       48.38745
C         74.61849       51.04819       50.56458
C         73.55372       50.23282       51.34791
C         74.56189       52.53925       50.96560
C         73.88487       50.10004       52.83645
H         75.36624       48.96835       49.01948
H         73.44430       51.29389       48.75421
H         75.62260       50.64496       50.82686
H         73.51276       49.19210       50.96508
H         72.54639       50.68381       51.21131
H         74.74291       52.67699       52.04924
H         75.34733       53.12254       50.44351
H         73.57136       52.97419       50.71004
H         73.91733       51.08026       53.34943
H         73.11190       49.47741       53.33356
H         74.86758       49.59292       52.95583
N         75.23396       52.75997       47.57836
C         76.22069       53.60200       46.90699
C         76.28265       54.96679       47.58084
O         75.58421       55.17634       48.55704
C         75.85299       53.72407       45.41789
O         74.61062       54.35715       45.25177
H         74.25659       53.07655       47.55726
H         77.23516       53.15292       46.97397
H         75.85141       52.71454       44.94439
H         76.61822       54.31387       44.87261
H         73.92686       53.64174       45.17857
N         77.11720       55.94339       47.12567
C         77.21332       57.26955       47.73775
C         75.89292       58.01789       47.67318
O         75.43261       58.49510       48.70082
C         78.29600       58.09929       47.04063
H         77.71812       55.73166       46.31496
H         77.52383       57.16402       48.80210
H         78.05805       58.24459       45.96568
H         78.38379       59.09495       47.52762
H         79.27647       57.58456       47.12597
N         75.22442       58.14507       46.49162
C         73.95882       58.86225       46.34316
C         72.91938       58.36687       47.32801
O         72.33219       59.17715       48.03158
C         73.42760       58.69764       44.91269
H         75.62920       57.68725       45.65991
H         74.12632       59.94850       46.51854
H         74.16456       59.09550       44.18324
H         73.24207       57.62618       44.68104
H         72.47600       59.25810       44.78832
N         72.66998       57.03595       47.45039
C         71.69327       56.47892       48.38278
C         72.00554       56.91422       49.80715
O         71.13686       57.48166       50.45455
C         71.64925       54.93700       48.26598
C         71.20102       54.49966       46.85572
C         71.08462       53.01113       46.72493
O         72.05834       52.29517       46.87258
O         69.90813       52.45866       46.39018
H         73.22818       56.39659       46.86632
H         70.67855       56.85634       48.12123
H         70.91678       54.54338       49.00525
H         72.64676       54.50920       48.50390
H         71.91269       54.84673       46.08175
H         70.21581       54.95916       46.63588
N         73.24453       56.72515       50.33636
C         73.64050       57.15945       51.66028
H         74.45774       57.90733       51.56954
H         72.80402       57.62184       52.22368
H         74.01981       56.28876       52.23441
H         73.96190       56.28172       49.75964
Ca        70.86497       49.92615       45.26095
O         73.38046       50.20203       43.91832
H         73.83051       50.76928       44.59286
H         73.21704       49.34673       44.39009
O         71.11760       52.30993       43.41494
H         71.89687       52.91590       43.34277
H         70.33224       52.88947       43.24921

Ca 1.0



