%chk=holoCaM.loop1.water2.frame489.chk
%nprocshared=20
%mem=10GB
%nosave
#b3lyp/svp scf=(tight,noincore,xqc) Test 
#IOP(5/87=12) Density=Current Pop=(MK,readradii) iop(6/33=2) iop(6/42=6)

holoCaM.loop1.water2.frame489 

   0  1 
C         -2.52382       83.54165       40.96064
C         -3.90784       83.32413       41.50074
O         -4.87334       83.38946       40.75478
H         -1.90603       82.63661       41.14363
H         -2.54570       83.75197       39.87181
H         -2.05428       84.40332       41.48331
N         -4.06405       83.06103       42.82252
C         -5.35106       82.85319       43.48011
C         -6.23188       84.09785       43.34408
O         -5.76531       85.18296       43.66181
C         -5.06592       82.49544       44.95053
C         -6.30007       82.27977       45.75117
O         -6.49024       83.02072       46.85388
O         -7.11101       81.42453       45.43553
H         -3.20370       83.01019       43.39362
H         -5.86449       81.97990       43.02161
H         -4.47083       83.30445       45.42882
H         -4.46543       81.55860       44.98347
N         -7.52288       84.00659       42.88673
C         -8.37642       85.16772       42.61822
C         -9.48786       85.37225       43.65745
O        -10.16872       86.38395       43.55994
C         -9.07440       85.01635       41.23413
C         -8.14257       84.78261       40.03280
C         -8.89826       84.76972       38.67891
C         -9.95547       83.65441       38.53415
N        -10.57579       83.67997       37.20808
H         -7.91741       83.07573       42.70769
H         -7.75333       86.08868       42.62490
H         -9.66808       85.93570       41.03649
H         -9.77432       84.15500       41.29885
H         -7.59292       83.82588       40.15995
H         -7.40075       85.60873       39.99395
H         -8.14455       84.64075       37.87169
H         -9.39500       85.75311       38.53020
H        -10.75101       83.77155       39.29987
H         -9.48159       82.66741       38.67508
H        -11.27524       82.90452       37.14098
H        -11.06652       84.59047       37.05509
H         -9.85157       83.53938       36.46658
N         -9.78388       84.45228       44.62307
C        -10.94023       84.57038       45.53145
C        -10.58741       84.26103       46.99221
O        -11.48834       84.22798       47.81874
C        -12.11878       83.69168       45.03121
C        -11.74909       82.25069       44.92392
O        -10.75958       81.94553       44.08037
O        -12.31314       81.39193       45.57978
H         -9.22590       83.58862       44.65344
H        -11.34298       85.60618       45.51417
H        -12.42331       84.04038       44.01925
H        -12.99232       83.81629       45.70653
N         -9.29879       84.09363       47.39648
C         -8.88868       83.90081       48.78061
C         -9.15366       82.51794       49.34106
O         -9.71038       82.41706       50.42477
H         -8.54858       84.21664       46.70761
H         -9.32590       84.69430       49.42525
H         -7.78669       84.02472       48.82673
N         -8.70515       81.40896       48.68713
C         -8.71236       80.05697       49.25160
C         -7.32667       79.39289       49.20901
O         -7.20614       78.28130       49.70582
C         -9.74863       79.18168       48.52334
C         -9.59331       79.20761       47.03045
O        -10.52895       79.55704       46.33527
O         -8.43162       78.87049       46.44830
H         -8.33240       81.53451       47.73787
H         -9.00981       80.08555       50.32302
H        -10.76574       79.55387       48.77503
H         -9.67823       78.13401       48.88928
N         -6.24464       79.98728       48.62682
C         -4.93046       79.37426       48.52931
C         -4.95573       78.07707       47.75311
O         -4.41645       77.09824       48.24589
H         -6.32904       80.92219       48.21844
H         -4.50533       79.21155       49.54406
H         -4.25674       80.07654       47.98990
N         -5.50837       78.02145       46.50616
C         -5.48569       76.83478       45.63748
C         -5.80705       77.20655       44.18273
O         -6.25527       78.31270       43.90979
C         -6.43754       75.67578       46.08827
C         -6.12097       75.00331       47.43425
O         -7.78050       76.08503       46.04926
H         -5.87489       78.91068       46.13685
H         -4.43458       76.46912       45.61911
H         -6.32542       74.85619       45.34688
H         -7.98125       76.54350       46.90545
H         -6.30909       75.68404       48.28820
H         -6.79272       74.13027       47.57690
H         -5.07128       74.64131       47.45038
N         -5.51198       76.32599       43.18212
C         -5.62515       76.62707       41.75559
C         -6.47875       75.56623       41.06096
O         -6.20962       74.38075       41.19490
C         -4.19018       76.73309       41.15731
C         -3.37580       77.89167       41.81363
C         -4.19102       76.88281       39.62504
C         -3.91325       79.31211       41.56000
H         -5.09020       75.41965       43.43913
H         -6.11064       77.60856       41.59035
H         -3.65759       75.78248       41.38245
H         -2.33322       77.85697       41.43125
H         -3.32377       77.73203       42.91131
H         -4.67882       76.01087       39.14298
H         -4.72196       77.79613       39.30570
H         -3.14776       76.93389       39.24768
H         -3.26541       80.05079       42.07708
H         -3.89765       79.55848       40.47979
H         -4.94103       79.45041       41.94876
N         -7.51237       75.95683       40.26154
C         -8.42972       75.08305       39.54005
C         -8.24181       75.28731       38.03629
O         -7.28731       75.94069       37.63921
C         -9.89503       75.41606       39.96098
C        -10.10797       75.35509       41.48046
O        -10.31728       76.65435       39.43855
H         -7.66159       76.95637       40.12818
H         -8.23779       74.01567       39.78413
H        -10.57263       74.64914       39.53405
H         -9.92920       77.37886       39.98555
H        -11.17287       75.56418       41.71842
H         -9.84559       74.34800       41.86573
H         -9.48119       76.11169       41.99682
N         -9.13927       74.78658       37.13982
C         -9.07258       75.04267       35.70037
C         -9.10399       76.53828       35.39040
O         -8.23456       76.99815       34.66566
C        -10.21307       74.32165       34.92873
C        -10.11104       72.79049       35.02387
O        -11.48837       74.77320       35.31968
H         -9.91866       74.22340       37.50132
H         -8.11533       74.63172       35.30607
H        -10.09527       74.56606       33.84982
H        -11.72694       74.34248       36.18066
H         -9.12672       72.45054       34.63701
H        -10.22207       72.43700       36.06959
H        -10.90925       72.32364       34.40909
N        -10.08022       77.35589       35.88400
C        -10.16679       78.78652       35.56351
C         -9.00940       79.63113       36.11883
O         -8.98294       80.81826       35.82445
C        -11.51978       79.36545       36.04641
C        -12.70179       78.74713       35.27535
C        -14.04370       79.35061       35.71590
C        -15.24494       78.78354       34.93480
N        -15.20206       79.12728       33.51058
H        -10.80738       76.93427       36.48073
H        -10.14123       78.89773       34.45627
H        -11.54074       80.46032       35.84904
H        -11.63258       79.20780       37.14217
H        -12.73731       77.64761       35.42780
H        -12.53921       78.95135       34.19709
H        -14.02415       80.45549       35.59322
H        -14.19297       79.12347       36.79419
H        -16.17252       79.21412       35.37298
H        -15.29270       77.67849       35.05463
H        -16.08194       78.79490       33.05397
H        -15.13430       80.16422       33.39075
H        -14.39884       78.65930       33.03519
N         -8.01714       79.10874       36.89714
C         -6.88662       79.87915       37.42342
C         -5.55013       79.39328       36.87657
O         -4.54222       80.00884       37.19918
C         -6.85068       79.72069       38.95157
C         -8.06410       80.33421       39.62863
C         -8.18090       79.89755       41.05284
O         -8.07629       80.78200       42.03778
O         -8.49140       78.75609       41.33133
H         -8.06103       78.11917       37.14961
H         -6.97559       80.95438       37.15104
H         -5.94627       80.19541       39.39074
H         -6.80601       78.63991       39.15577
H         -9.01016       80.04279       39.12373
H         -7.94608       81.43364       39.57887
N         -5.43885       78.30134       36.07073
C         -4.16008       77.83307       35.58608
H         -3.50048       77.58157       36.44405
H         -4.30192       76.91991       34.96959
H         -3.68089       78.61639       34.96226
H         -6.26746       77.76417       35.80102
Ca        -9.34511       80.27361       43.78959
O        -10.36605       77.26279       44.46399
O        -11.66125       78.81891       42.19817
H         -9.40475       77.24830       44.22723
H        -11.72484       78.83000       41.21041
H        -10.65942       76.32119       44.38223
H        -12.01914       79.69788       42.48065

Ca 1.0



