%chk=holoCaM.loop1.water2.frame139.chk
%nprocshared=20
%mem=10GB
%nosave
#b3lyp/svp scf=(tight,noincore,xqc) Test 
#IOP(5/87=12) Density=Current Pop=(MK,readradii) iop(6/33=2) iop(6/42=6)

holoCaM.loop1.water2.frame139 

   0  1 
C          4.03644       69.37136       -4.64060
C          4.35321       68.05117       -5.27817
O          3.70824       67.69979       -6.25182
H          2.98277       69.36863       -4.28908
H          4.69593       69.56886       -3.76938
H          4.17274       70.18558       -5.38189
N          5.30998       67.24101       -4.75132
C          5.62514       65.92069       -5.27716
C          4.99801       64.91161       -4.34940
O          5.31075       64.92136       -3.16554
C          7.15034       65.73997       -5.34258
C          7.55738       64.35885       -5.77104
O          6.78642       63.65001       -6.61680
O          8.70568       64.00388       -5.57948
H          5.77993       67.53801       -3.88192
H          5.20105       65.78990       -6.29879
H          7.56155       65.90433       -4.32284
H          7.61049       66.49282       -6.01930
N          4.05989       64.03839       -4.81471
C          3.28397       63.17025       -3.94460
C          3.64024       61.70075       -4.13398
O          3.15399       60.88555       -3.36369
C          1.76932       63.41059       -4.17556
C          1.34105       64.89800       -4.27594
C          1.82875       65.81833       -3.14721
C          1.35882       65.40556       -1.75211
N          1.98059       66.26119       -0.74101
H          3.85102       64.01914       -5.81745
H          3.51658       63.41506       -2.88651
H          1.20291       62.89934       -3.36827
H          1.46627       62.94303       -5.13942
H          0.23273       64.94498       -4.35045
H          1.74825       65.31549       -5.22393
H          1.48388       66.85467       -3.35801
H          2.92913       65.84519       -3.15369
H          1.64891       64.35361       -1.54645
H          0.25144       65.48713       -1.69511
H          1.74059       67.26450       -0.91273
H          1.64016       65.98088        0.20598
H          3.02077       66.14283       -0.77042
N          4.48780       61.28992       -5.12514
C          4.93217       59.90916       -5.30685
C          6.46136       59.78360       -5.24678
O          6.95901       58.67409       -5.38069
C          4.33222       59.32106       -6.60328
C          4.70318       60.01728       -7.88383
O          5.51217       61.09175       -7.89288
O          4.25205       59.60016       -8.93823
H          4.84017       61.98502       -5.79168
H          4.53914       59.27126       -4.48532
H          3.22394       59.34988       -6.51170
H          4.63544       58.25460       -6.68535
N          7.26498       60.85591       -4.98022
C          8.70174       60.76848       -4.76679
C          9.50983       60.41128       -5.99556
O         10.26604       59.45238       -5.93826
H          6.84445       61.78005       -4.82140
H          8.90546       60.05046       -3.94273
H          9.06701       61.75995       -4.42669
N          9.45168       61.18012       -7.12085
C         10.32663       60.99563       -8.27853
C         11.12110       62.26763       -8.60654
O         11.79054       62.28270       -9.63109
C          9.52228       60.47735       -9.48863
C          8.38980       61.35750       -9.91783
O          7.14368       60.85813       -9.97713
O          8.59346       62.50523      -10.26549
H          8.76793       61.94914       -7.15617
H         11.08375       60.20389       -8.08391
H          9.11060       59.47687       -9.23221
H         10.21114       60.34022      -10.35061
N         11.16027       63.34494       -7.76378
C         11.96993       64.52816       -8.02600
C         11.44170       65.42883       -9.12902
O         12.13574       66.37977       -9.45863
H         10.68220       63.29899       -6.85653
H         13.00575       64.20228       -8.26733
H         12.02509       65.14992       -7.10598
N         10.22356       65.23868       -9.71475
C          9.68719       66.11095      -10.76192
C          8.13907       66.18045      -10.67924
O          7.77726       66.51165       -9.38374
C         10.14281       65.63575      -12.17023
C         11.58383       66.02451      -12.48803
O         10.01638       64.24396      -12.29239
H          9.61668       64.49382       -9.35122
H         10.01621       67.15971      -10.58055
H          9.54257       66.14202      -12.95995
H          9.05121       64.05165      -12.37246
H         12.30231       65.54160      -11.79917
H         11.83061       65.70412      -13.52268
H         11.69314       67.12971      -12.43428
N          7.60654       67.17590      -11.63176
C          6.25646       67.73409      -11.38888
C          5.50647       67.62285      -12.70765
O          5.97641       68.12932      -13.71686
C          6.33415       69.22141      -10.87229
C          6.96525       69.35581       -9.45474
C          4.97461       69.94214      -10.89728
C          6.12218       68.77777       -8.29989
H          8.29065       67.92505      -11.88963
H          5.69969       67.12925      -10.64223
H          6.98557       69.78398      -11.57671
H          7.12089       70.43310       -9.23002
H          7.97317       68.89632       -9.45426
H          5.09570       70.99215      -10.55334
H          4.55792       69.97619      -11.92382
H          4.24373       69.44230      -10.24109
H          5.16442       69.32550       -8.18985
H          5.88842       67.70393       -8.43149
H          6.67576       68.89215       -7.34379
N          4.31505       66.96463      -12.75449
C          3.53143       66.73706      -13.96265
C          2.42650       67.77390      -14.06868
O          2.38405       68.69678      -13.26816
C          2.92291       65.29907      -13.92901
C          3.98599       64.20411      -13.78883
O          1.93877       65.18666      -12.92499
H          3.92115       66.61968      -11.87493
H          4.17209       66.82691      -14.86713
H          2.41840       65.08920      -14.89322
H          2.37465       64.93698      -12.07146
H          4.71540       64.26229      -14.62290
H          4.51811       64.31640      -12.82453
H          3.49874       63.20547      -13.80659
N          1.47027       67.65878      -15.03168
C          0.29380       68.51780      -15.10483
C         -0.50983       68.42530      -13.81392
O         -0.86492       69.45974      -13.26815
C         -0.60824       68.13430      -16.30774
C          0.09816       68.35395      -17.65110
O         -1.02022       66.79412      -16.20604
H          1.55264       66.89054      -15.71039
H          0.60832       69.57567      -15.25571
H         -1.49674       68.81001      -16.27875
H         -1.89620       66.72154      -16.66735
H         -0.59845       68.11392      -18.48187
H          0.41093       69.41479      -17.75121
H          0.99253       67.70564      -17.75379
N         -0.83644       67.21461      -13.27084
C         -1.65698       67.07715      -12.06578
C         -0.98406       67.61155      -10.80153
O         -1.64325       67.65031       -9.77177
C         -2.03343       65.59646      -11.80200
C         -2.68136       64.84913      -12.98217
C         -3.93294       65.53860      -13.53576
C         -4.53970       64.70659      -14.67258
N         -5.70680       65.37368      -15.24572
H         -0.51230       66.36803      -13.75716
H         -2.59253       67.65397      -12.23180
H         -2.73768       65.56217      -10.94097
H         -1.11847       65.03073      -11.51564
H         -2.94834       63.82986      -12.62614
H         -1.94815       64.72473      -13.80524
H         -3.65842       66.53693      -13.93863
H         -4.68235       65.66704      -12.72478
H         -4.83860       63.70831      -14.28186
H         -3.77871       64.55749      -15.47150
H         -5.42763       66.29745      -15.64954
H         -6.09935       64.77654      -16.00890
H         -6.43840       65.51396      -14.51188
N          0.32187       68.00147      -10.78666
C          1.02768       68.45041       -9.59230
C          1.48009       69.90185       -9.71504
O          2.05563       70.41007       -8.76170
C          2.24737       67.53533       -9.36829
C          1.85405       66.05862       -9.21654
C          3.05716       65.17153       -9.07312
O          3.91963       65.14126       -9.93435
O          3.16447       64.36086       -8.01179
H          0.86986       67.93586      -11.64696
H          0.36862       68.39341       -8.69892
H          2.80548       67.86602       -8.47384
H          2.91663       67.63679      -10.24032
H          1.29564       65.72458      -10.11400
H          1.19586       65.93833       -8.32917
N          1.25507       70.64203      -10.83844
C          1.66413       72.02398      -10.95337
H          1.15660       72.63426      -10.17708
H          2.76453       72.10862      -10.83850
H          1.38091       72.41766      -11.95368
H          0.77893       70.23150      -11.64776
Ca         6.76969       64.67642       -8.57414
O          6.68103       63.27080      -12.22349
H          6.11353       62.49459      -11.99469
H          7.04651       63.05053      -13.11650
O          3.55882       62.26939      -10.72173
H          3.11653       61.86968      -11.51177
H          4.35870       61.70600      -10.57434

Ca 1.0



