%chk=holoCaM-CaMKII.loop2.water2.frame375.chk
%nprocshared=20
%mem=10GB
%nosave
#b3lyp/svp scf=(tight,noincore,xqc) Test 
#IOP(5/87=12) Density=Current Pop=(MK,readradii) iop(6/33=2) iop(6/42=6)

holoCaM-CaMKII.loop2.water2.frame375 

   -2  1 
C         61.21078       73.92832       60.49953
C         62.58890       74.26279       61.00281
O         63.53900       73.59061       60.63172
H         60.44974       74.63412       60.89798
H         61.19481       74.00467       59.39101
H         60.92875       72.89930       60.79989
N         62.77212       75.32864       61.82711
C         64.08144       75.80651       62.25706
C         64.78461       74.82379       63.19313
O         64.20080       74.45186       64.20165
C         63.90729       77.15789       62.98924
C         65.19417       77.90502       63.17602
O         66.21687       77.53189       62.63034
O         65.20171       79.04636       63.88743
H         61.93894       75.87505       62.09686
H         64.68659       75.99352       61.34202
H         63.42584       76.98004       63.97477
H         63.24909       77.83199       62.40170
N         66.06784       74.42112       62.95184
C         66.83648       73.55177       63.84531
C         68.08465       74.23677       64.41998
O         68.78400       73.59776       65.19409
C         67.25413       72.29729       63.06932
H         66.53234       74.76613       62.10304
H         66.21299       73.23365       64.70844
H         66.35639       71.77116       62.68197
H         67.90401       72.57236       62.20954
H         67.81331       71.59600       63.72549
N         68.44652       75.50691       64.07057
C         69.67082       76.17294       64.51615
C         69.40126       77.53882       65.15337
O         69.85202       77.74541       66.27150
C         70.71753       76.22644       63.37248
C         70.30455       76.76306       62.03150
O         69.05876       77.18364       61.78266
O         71.10662       76.72982       61.11210
H         67.85757       76.00852       63.40784
H         70.18128       75.56313       65.29554
H         71.02795       75.17668       63.17351
H         71.61367       76.78189       63.72332
N         68.69542       78.51905       64.51643
C         68.47515       79.85808       65.04934
C         68.99152       80.94948       64.11691
O         68.82635       82.11504       64.44653
H         68.27145       78.32225       63.60972
H         68.96289       79.98548       66.03951
H         67.38337       80.00347       65.18860
N         69.64346       80.65623       62.95209
C         70.22389       81.65516       62.04898
C         69.21009       82.53603       61.29532
O         69.65330       83.37812       60.52581
C         71.16881       80.94608       61.04534
C         70.48102       79.97983       60.11536
N         71.20222       79.28113       59.21194
O         69.27439       79.81710       60.17644
H         69.81610       79.66784       62.72896
H         70.87379       82.32419       62.65489
H         71.93322       80.38129       61.62367
H         71.69946       81.70609       60.43370
H         72.22393       79.39379       59.15188
H         70.73702       78.62230       58.57376
N         67.85912       82.43732       61.46809
C         66.90141       83.32745       60.81633
C         66.61185       83.03638       59.34834
O         65.80901       83.76261       58.78177
H         67.48858       81.77686       62.16049
H         67.23558       84.38103       60.94267
H         65.92470       83.22927       61.33704
N         67.17832       81.99443       58.67434
C         66.86980       81.65492       57.28130
C         66.31090       80.23484       57.18073
O         66.25224       79.53785       58.18033
C         68.15801       81.79425       56.42123
C         68.61310       83.25338       56.34820
O         69.21376       81.02751       56.94739
H         67.85494       81.40309       59.16232
H         66.09263       82.33314       56.86617
H         67.96054       81.48078       55.37201
H         68.92147       80.08025       56.96560
H         67.80999       83.88639       55.91355
H         68.87345       83.63809       57.35665
H         69.51041       83.33458       55.69776
N         65.92944       79.72632       55.96960
C         65.53322       78.33340       55.77085
C         66.66132       77.65094       55.02849
O         67.12032       78.15671       54.01470
C         64.17887       78.18045       55.01308
C         63.03381       78.86491       55.80155
C         63.86920       76.67682       54.80022
C         61.66168       78.74944       55.12708
H         66.00802       80.32303       55.13320
H         65.40540       77.81829       56.74747
H         64.26453       78.66119       54.01354
H         63.26950       79.94524       55.90464
H         62.95601       78.42611       56.81915
H         63.76780       76.15276       55.77563
H         62.94605       76.52218       54.20916
H         64.67025       76.18476       54.21594
H         61.69601       79.16477       54.09820
H         61.31475       77.69608       55.08775
H         60.90936       79.31190       55.71790
N         67.13165       76.46088       55.48537
C         68.25252       75.74397       54.89190
C         67.71488       74.58742       54.09540
O         66.51247       74.39674       54.07683
C         69.16256       75.22838       56.01958
C         69.62614       76.33116       56.91924
O         68.71382       77.16698       57.44813
O         70.79640       76.40544       57.25649
H         66.64932       76.01629       56.28018
H         68.82154       76.40272       54.20143
H         70.03181       74.65810       55.62818
H         68.56036       74.53616       56.65086
N         68.53609       73.79077       53.36110
C         67.99358       72.70123       52.56635
C         67.42375       71.59709       53.45859
O         66.27628       71.23748       53.22733
C         69.01441       72.15810       51.54835
C         68.34237       71.19385       50.60132
C         67.38410       71.65445       49.67770
C         68.65585       69.82712       50.64099
C         66.75495       70.75933       48.80895
C         68.01675       68.93404       49.77660
C         67.06930       69.39935       48.86012
H         69.54454       73.99955       53.32652
H         67.17292       73.12736       51.94472
H         69.85926       71.66840       52.05615
H         69.44049       72.99254       50.94943
H         67.12803       72.70600       49.62467
H         69.38203       69.45225       51.35109
H         66.02271       71.12018       48.09762
H         68.25542       67.88007       49.81953
H         66.57809       68.70617       48.19026
N         68.11350       71.00665       54.49676
C         67.56310       69.93393       55.32676
C         66.26253       70.28794       56.03337
O         65.60524       69.40007       56.55621
C         68.64028       69.70440       56.39623
C         69.90383       70.08349       55.66299
C         69.46203       71.33662       54.91653
H         67.42536       69.05424       54.65926
H         68.52690       70.46655       57.20454
H         68.62860       68.69703       56.86345
H         70.79888       70.22543       56.30550
H         70.11498       69.28500       54.91583
H         69.41318       72.22006       55.58975
H         70.18253       71.51714       54.10576
N         65.86872       71.58516       56.13057
C         64.66334       72.04118       56.80115
C         63.54120       72.08540       55.78517
O         62.47812       71.53721       56.03875
C         64.93584       73.42535       57.43154
C         66.08593       73.32786       58.45882
C         66.48817       74.63906       59.06159
O         67.53347       74.66595       59.90738
O         65.91247       75.67704       58.78000
H         66.47658       72.31554       55.73711
H         64.38229       71.35916       57.63590
H         64.01773       73.80249       57.93220
H         65.21591       74.14457       56.63226
H         66.99421       72.92398       57.96579
H         65.79760       72.63507       59.27868
N         63.74149       72.66883       54.57252
C         62.75007       72.68986       53.52399
H         61.87137       73.28363       53.84542
H         63.18573       73.15553       52.61215
H         62.44371       71.65289       53.27047
H         64.65401       73.07722       54.36160
Ca        68.54179       77.29547       59.63997
O         65.90349       80.01675       60.89349
H         65.73018       80.38654       61.79243
H         65.20324       80.43083       60.33079
O         64.02332       78.01092       59.60991
H         63.09806       77.85892       59.92509
H         64.07827       77.50413       58.76293

Ca 1.0



