%chk=holoCaM.loop3.water2.frame349.chk
%nprocshared=20
%mem=10GB
%nosave
#b3lyp/svp scf=(tight,noincore,xqc) Test 
#IOP(5/87=12) Density=Current Pop=(MK,readradii) iop(6/33=2) iop(6/42=6)

holoCaM.loop3.water2.frame349 

   0  1 
C         94.53243       41.69275       77.08323
C         94.14930       42.90590       76.30140
O         93.01701       43.35730       76.40758
H         95.37734       41.94875       77.75820
H         93.67838       41.34011       77.69860
H         94.84552       40.88904       76.38710
N         95.07439       43.52205       75.51900
C         94.78429       44.76708       74.83588
C         93.81862       44.55203       73.68605
O         94.20419       43.95429       72.68985
C         96.09020       45.39677       74.33273
C         95.90971       46.81393       73.92781
O         96.89780       47.47809       73.69278
O         94.71858       47.42127       74.04374
H         96.03304       43.13948       75.49381
H         94.35175       45.45474       75.60011
H         96.54739       44.80558       73.51055
H         96.80826       45.42088       75.18291
N         92.53306       44.99443       73.76513
C         91.58697       44.82903       72.66987
C         91.88882       45.86390       71.59625
O         92.16824       45.49385       70.46481
C         90.13718       44.98032       73.19064
C         89.04625       44.73360       72.12926
C         88.90957       43.25605       71.71949
C         87.75275       43.07648       70.72242
N         87.49430       41.66142       70.45526
H         92.21080       45.42307       74.64679
H         91.67981       43.79426       72.27329
H         90.00306       46.00576       73.59294
H         89.96924       44.27655       74.03594
H         89.21968       45.37831       71.24099
H         88.07719       45.03394       72.58410
H         88.69260       42.66018       72.63308
H         89.84578       42.87412       71.25993
H         88.00102       43.59937       69.77172
H         86.82576       43.53002       71.13837
H         87.19839       41.18301       71.33767
H         86.71745       41.58187       69.75936
H         88.34787       41.19711       70.07003
N         91.82467       47.19687       71.89730
C         92.01664       48.26767       70.91811
C         93.44135       48.36503       70.36135
O         93.64223       49.13833       69.43499
C         91.52685       49.61516       71.50008
C         92.25859       50.04354       72.74251
O         91.59254       50.15589       73.90750
O         93.44729       50.30570       72.70401
H         91.55963       47.45737       72.85866
H         91.34430       48.04945       70.05779
H         90.45020       49.49892       71.75730
H         91.59972       50.41633       70.73346
N         94.46196       47.58567       70.82280
C         95.76407       47.49958       70.17638
C         96.67563       48.71484       70.24601
O         97.74387       48.62028       69.65693
H         94.28745       46.92756       71.59166
H         95.59930       47.24093       69.10742
H         96.32651       46.65762       70.63585
N         96.38203       49.87044       70.91695
C         97.30929       51.01121       70.91433
C         98.64259       50.73141       71.62379
O         99.52094       51.57998       71.55632
C         96.65543       52.30585       71.47275
C         96.25483       52.29310       72.92823
N         95.77924       53.41732       73.51119
O         96.35553       51.27888       73.58976
H         95.47741       49.95694       71.39342
H         97.54342       51.23309       69.84982
H         95.75208       52.54446       70.87279
H         97.38276       53.13550       71.33632
H         95.68597       54.29055       72.97304
H         95.51593       53.41865       74.50826
N         98.85792       49.58945       72.33694
C        100.09123       49.27437       73.03965
C         99.92201       49.29884       74.54822
O        100.89435       49.00227       75.22839
H         98.10802       48.90390       72.40810
H        100.89529       50.00104       72.79362
H        100.43777       48.27009       72.71056
N         98.76289       49.71963       75.14685
C         98.62906       49.91855       76.58349
C         97.36109       49.21797       77.14237
O         96.24742       50.04100       76.89287
C         98.56504       51.43016       76.91402
C         99.77430       52.19095       76.45498
C         99.90373       52.59410       75.11412
C        100.77041       52.53256       77.37834
C        101.01894       53.33158       74.70817
C        101.88833       53.25882       76.96930
C        102.01531       53.66472       75.63295
O        103.08621       54.37649       75.23054
H         97.97180       49.99315       74.56550
H         99.52267       49.49896       77.09590
H         98.46731       51.52393       78.01721
H         97.67053       51.92358       76.47199
H         99.13548       52.35420       74.38849
H        100.68331       52.22865       78.41415
H        101.10566       53.64823       73.67620
H        102.65129       53.50793       77.69472
H        103.79237       54.62735       75.84306
N         97.49546       49.05893       78.59550
C         96.33375       48.45644       79.27815
C         96.04155       49.28447       80.51100
O         96.93256       49.51101       81.31945
C         96.47745       46.92877       79.59619
C         97.68644       46.57123       80.50753
C         96.48672       46.12119       78.28526
C         97.69394       45.11098       80.96731
H         98.39750       48.61063       78.86595
H         95.42846       48.53244       78.63531
H         95.55004       46.64070       80.14300
H         97.64654       47.18178       81.43087
H         98.64829       46.77261       79.99372
H         96.43756       45.03123       78.48059
H         95.58887       46.36976       77.67958
H         97.39533       46.34226       77.68841
H         96.75764       44.87478       81.51640
H         97.80975       44.41295       80.11451
H         98.55397       44.94616       81.65076
N         94.78627       49.76941       80.71669
C         94.40652       50.56997       81.86977
C         93.77637       49.69036       82.92776
O         93.66413       48.48963       82.71690
C         93.44126       51.68149       81.41259
O         92.26847       51.11329       80.88911
H         94.04128       49.49312       80.05979
H         95.30371       51.04506       82.32547
H         93.95638       52.29349       80.63647
H         93.17148       52.34363       82.26142
H         91.88421       51.76956       80.25227
N         93.34578       50.21048       84.10548
C         92.68539       49.41226       85.13158
C         91.41589       48.79295       84.57766
O         91.23714       47.59067       84.68809
C         92.34851       50.27928       86.34721
H         93.47686       51.22271       84.27103
H         93.37168       48.60690       85.48087
H         91.66707       51.11089       86.06784
H         91.86075       49.66096       87.13097
H         93.28130       50.70824       86.77161
N         90.51258       49.57636       83.92218
C         89.27302       49.07569       83.33780
C         89.52259       47.91391       82.39202
O         88.87084       46.88887       82.54809
C         88.54982       50.21276       82.60387
H         90.73334       50.57767       83.81467
H         88.59969       48.73010       84.15353
H         88.33212       51.04065       83.31332
H         89.17391       50.61103       81.77528
H         87.58484       49.85145       82.18876
N         90.46469       47.98346       81.40849
C         90.72459       46.88249       80.48058
C         91.10676       45.61481       81.22985
O         90.38974       44.62974       81.12505
C         91.83864       47.24040       79.47032
C         91.43789       48.39022       78.53356
C         92.54515       48.71224       77.57256
O         93.07819       49.94828       77.55071
O         92.95934       47.86220       76.80050
H         91.01857       48.84932       81.33205
H         89.79306       46.67672       79.90578
H         92.05098       46.34619       78.84251
H         92.76943       47.50558       80.01613
H         91.19935       49.30209       79.11781
H         90.53500       48.09952       77.95532
N         92.22496       45.56401       82.00235
C         92.61456       44.37489       82.72680
H         93.55772       44.56468       83.28299
H         91.82285       44.09712       83.45427
H         92.78306       43.53692       82.01792
H         92.82502       46.39036       82.07795
Ca        95.08657       49.28281       75.13921
O         92.74475       52.54657       75.19537
H         91.86565       52.69026       75.62770
H         92.69177       53.05222       74.34591
O         94.77947       52.37888       77.28274
H         95.21799       53.24438       77.08963
H         95.19220       52.07219       78.12893

Ca 1.0



