%chk=holoCaM-CaMKII.loop2.water2.frame95.chk
%nprocshared=20
%mem=10GB
%nosave
#b3lyp/svp scf=(tight,noincore,xqc) Test 
#IOP(5/87=12) Density=Current Pop=(MK,readradii) iop(6/33=2) iop(6/42=6)

holoCaM-CaMKII.loop2.water2.frame95 

   -2  1 
C         21.68627       51.88608       62.79946
C         20.51252       52.82082       62.91985
O         20.39388       53.75179       62.13792
H         22.29241       51.91898       63.72935
H         21.32218       50.84563       62.65129
H         22.33233       52.15652       61.93789
N         19.57547       52.59174       63.87641
C         18.36051       53.38598       64.04851
C         18.64298       54.76810       64.62128
O         19.27700       54.86703       65.66284
C         17.40420       52.62976       64.97675
C         16.14292       53.38792       65.27783
O         15.90024       53.62982       66.44868
O         15.25315       53.79336       64.33314
H         19.71168       51.76157       64.47641
H         17.83336       53.46861       63.07955
H         17.92975       52.42195       65.93803
H         17.13778       51.65568       64.52371
N         18.11487       55.87463       64.01925
C         18.23898       57.23252       64.53835
C         16.88345       57.89019       64.83775
O         16.89747       59.01681       65.31439
C         18.99363       58.07398       63.50436
H         17.58530       55.74799       63.14957
H         18.82509       57.23214       65.48280
H         19.14262       59.11181       63.87052
H         19.99016       57.62573       63.30555
H         18.42483       58.10995       62.54888
N         15.68477       57.29006       64.55694
C         14.38234       57.94457       64.73623
C         13.40794       57.15147       65.62233
O         12.29246       57.61536       65.81584
C         13.79012       58.26549       63.34522
C         13.73336       57.08382       62.42233
O         14.35391       57.09320       61.37135
O         13.00489       56.01038       62.74569
H         15.67987       56.35556       64.12918
H         14.50040       58.92813       65.24160
H         14.43694       59.03451       62.86900
H         12.77439       58.70346       63.45331
N         13.76978       55.99412       66.24488
C         12.93250       55.26522       67.19569
C         11.70442       54.55919       66.63359
O         11.01925       53.92270       67.42229
H         14.72911       55.66126       66.12404
H         12.61682       55.95992       68.00477
H         13.55538       54.47369       67.66626
N         11.34109       54.61207       65.31963
C         10.12662       53.97082       64.80353
C         10.19005       52.43662       64.73954
O          9.20014       51.83901       64.33909
C          9.73808       54.55591       63.42606
C         10.68521       54.26081       62.29332
N         10.38966       54.70300       61.05198
O         11.71340       53.63020       62.47988
H         11.89775       55.18961       64.68478
H          9.28645       54.25388       65.47713
H          9.63886       55.65960       63.52201
H          8.74185       54.15228       63.14318
H          9.52855       55.23935       60.87426
H         11.01762       54.50372       60.26520
N         11.28660       51.72641       65.13395
C         11.32710       50.26867       65.16423
C         11.56228       49.58011       63.82590
O         11.65082       48.36060       63.84299
H         12.09555       52.22310       65.52808
H         10.40570       49.87974       65.65096
H         12.18216       49.96546       65.80615
N         11.70930       50.25482       62.64610
C         12.02027       49.59282       61.37416
C         13.30219       50.12820       60.75288
O         13.73841       51.21949       61.09072
C         10.86105       49.77976       60.36504
C          9.61709       49.00763       60.80036
O         10.52681       51.13975       60.23191
H         11.60728       51.27334       62.64250
H         12.18048       48.50378       61.53269
H         11.14788       49.36385       59.37067
H         11.25859       51.57773       59.72485
H          8.81003       49.14650       60.04959
H          9.84930       47.92262       60.86393
H          9.25327       49.36146       61.78734
N         13.95012       49.39131       59.80079
C         15.11013       49.88396       59.06403
C         14.63256       50.93470       58.08338
O         13.71569       50.66605       57.31840
C         15.87138       48.75102       58.30015
C         16.35745       47.65643       59.28930
C         17.07771       49.35411       57.53683
C         17.10979       46.50274       58.61717
H         13.58683       48.45229       59.57855
H         15.84902       50.31071       59.77658
H         15.18560       48.28468       57.55856
H         15.47988       47.21338       59.80283
H         17.01849       48.10544       60.06292
H         17.79648       49.82473       58.24346
H         17.61009       48.59209       56.93575
H         16.74718       50.11773       56.80787
H         16.48393       46.03933       57.82571
H         18.06968       46.84288       58.17776
H         17.35772       45.73115       59.37545
N         15.26919       52.13050       58.00606
C         14.91675       53.17898       57.05825
C         15.98127       53.25822       55.97466
O         16.97317       52.55579       56.07751
C         14.73693       54.47978       57.86129
C         13.53827       54.34289       58.76790
O         12.43658       54.31418       58.24256
O         13.60686       54.20807       60.12101
H         16.08600       52.28811       58.61227
H         13.97368       52.92757       56.52226
H         14.57389       55.35168       57.19011
H         15.65371       54.67289       58.44863
N         15.79619       53.99233       54.83819
C         16.74440       53.93854       53.72406
C         18.09931       54.54854       54.07201
O         19.08545       53.84705       53.89460
C         16.17392       54.55199       52.42696
C         17.07725       54.25773       51.23953
C         17.67834       55.30205       50.51572
C         17.32756       52.92623       50.84454
C         18.51491       55.01961       49.42815
C         18.16568       52.65022       49.76060
C         18.75958       53.69581       49.05284
H         14.91634       54.52012       54.72601
H         16.89314       52.86075       53.49214
H         16.02266       55.64181       52.55544
H         15.18164       54.09974       52.21203
H         17.50430       56.33341       50.79300
H         16.87699       52.09565       51.37210
H         18.97634       55.82721       48.87511
H         18.35423       51.62411       49.46932
H         19.40798       53.47898       48.21304
N         18.26356       55.81314       54.58959
C         19.57022       56.37656       54.92163
C         20.24782       55.66758       56.08802
O         21.37326       56.02271       56.41003
C         19.26074       57.84475       55.23223
C         17.87501       57.75101       55.83197
C         17.19926       56.74722       54.90158
H         20.25720       56.32937       54.04815
H         20.02167       58.37574       55.84425
H         19.14709       58.38954       54.26762
H         17.97696       57.28295       56.83866
H         17.33044       58.71246       55.94231
H         16.35148       56.30473       55.45748
H         16.85649       57.22787       53.96063
N         19.64684       54.63781       56.74143
C         20.28779       53.83895       57.76906
C         20.96606       52.66551       57.09505
O         22.16221       52.48911       57.27440
C         19.23443       53.39838       58.80031
C         18.57172       54.64060       59.42178
C         17.49114       54.32254       60.39468
O         16.79634       55.34110       60.92944
O         17.20582       53.17052       60.67864
H         18.69845       54.35367       56.47509
H         21.05157       54.43618       58.31722
H         19.71317       52.78489       59.59413
H         18.45704       52.77714       58.30429
H         18.09892       55.25178       58.62477
H         19.33643       55.25977       59.93649
N         20.26624       51.86111       56.24541
C         20.84979       50.77851       55.48401
H         21.92946       50.64456       55.69832
H         20.31335       49.83537       55.71527
H         20.73186       50.99762       54.40035
H         19.27066       52.04440       56.08837
Ca        14.84040       53.84824       62.05781
O         16.88669       50.43407       62.16924
H         17.35285       49.94718       62.89363
H         17.60849       50.70339       61.54865
O         14.11877       51.32851       64.10947
H         14.73720       50.73323       63.62133
H         14.33769       51.18697       65.06435

Ca 1.0



