%chk=holoCaM-CaMKII.loop3.water2.frame396.chk
%nprocshared=20
%mem=10GB
%nosave
#b3lyp/svp scf=(tight,noincore,xqc) Test 
#IOP(5/87=12) Density=Current Pop=(MK,readradii) iop(6/33=2) iop(6/42=6)

holoCaM-CaMKII.loop3.water2.frame396 

   0  1 
C         49.36095       95.40104       81.83346
C         49.93064       95.83661       83.14963
O         49.25762       95.67785       84.15762
H         48.41974       95.95414       81.63434
H         50.07057       95.59089       81.00122
H         49.14372       94.31262       81.87066
N         51.17204       96.39680       83.21685
C         51.79914       96.80582       84.46487
C         52.01629       98.31104       84.42876
O         52.72319       98.79382       83.55448
C         53.10396       96.00516       84.63866
C         53.75867       96.18429       85.97511
O         54.78394       95.57521       86.22463
O         53.22096       96.98309       86.91136
H         51.70548       96.53203       82.34374
H         51.13670       96.55330       85.31945
H         53.82164       96.27611       83.83351
H         52.86561       94.92294       84.54355
N         51.36834       99.12147       85.31590
C         51.40064      100.58375       85.22849
C         52.76845      101.17590       85.54980
O         52.99075      102.34361       85.26188
C         50.37324      101.22660       86.19025
C         48.92917      100.74005       85.95137
C         47.90083      101.44418       86.84988
C         47.71196      102.92448       86.47960
N         46.67082      103.54101       87.29893
H         50.77556       98.67419       86.02738
H         51.12234      100.86115       84.18780
H         50.42447      102.32352       86.03928
H         50.65554      101.00548       87.24528
H         48.86370       99.65707       86.17674
H         48.64423      100.88205       84.88739
H         48.19330      101.33951       87.91844
H         46.92435      100.93204       86.70908
H         47.41781      102.99224       85.40829
H         48.65542      103.49115       86.62027
H         46.54506      104.53405       86.99637
H         45.76494      103.03321       87.17470
H         46.95213      103.52510       88.30598
N         53.67828      100.46127       86.25933
C         54.95540      100.98321       86.73969
C         56.11115      100.01644       86.47280
O         57.23022      100.34696       86.84324
C         54.86844      101.35015       88.25161
C         54.41855      100.24544       89.17237
O         54.50508      100.38209       90.38206
O         53.88953       99.12280       88.66642
H         53.40082       99.51895       86.53914
H         55.20650      101.93280       86.21750
H         54.17516      102.20615       88.39492
H         55.87750      101.68933       88.57522
N         55.94405       98.82440       85.82340
C         57.04727       97.92134       85.54233
C         57.66832       97.27135       86.76806
O         58.67730       96.60473       86.58315
H         55.02572       98.56027       85.44798
H         57.83069       98.49154       84.99469
H         56.70156       97.10643       84.87010
N         57.16890       97.40862       88.03843
C         57.89095       96.87825       89.19753
C         57.99931       95.35829       89.24599
O         58.72666       94.87561       90.10482
C         57.34398       97.41412       90.54330
C         55.99004       96.87379       91.05801
N         56.05825       96.39745       92.43022
O         55.38657       95.91132       90.25658
H         56.32057       97.96885       88.19618
H         58.92370       97.28770       89.11831
H         57.27940       98.52343       90.50037
H         58.11072       97.18791       91.31527
H         56.37492       97.17999       93.04289
H         55.08451       96.15942       92.71898
N         57.31614       94.53753       88.39314
C         57.45183       93.08989       88.41647
C         56.16101       92.33629       88.68004
O         56.23718       91.11895       88.70646
H         56.69752       94.94349       87.68021
H         58.17886       92.76743       89.19245
H         57.85206       92.76180       87.43319
N         54.94645       92.94966       88.85624
C         53.72015       92.17073       89.08510
C         52.45370       92.99886       88.91434
O         52.52697       94.20818       88.76909
C         53.75605       91.47936       90.47762
C         53.71463       92.43707       91.65481
C         52.52601       93.11220       91.99292
C         54.85553       92.63776       92.45156
C         52.48091       93.97028       93.09272
C         54.80941       93.50271       93.55100
C         53.62386       94.17132       93.87534
O         53.59533       95.00336       94.93634
H         54.89050       93.96930       88.76889
H         53.67466       91.39574       88.28891
H         54.67614       90.86479       90.53891
H         52.91383       90.76307       90.58519
H         51.62148       92.96733       91.42322
H         55.78380       92.13089       92.22050
H         51.55413       94.47486       93.33651
H         55.69714       93.65571       94.15163
H         52.79679       95.48998       95.18728
N         51.23621       92.37021       88.90016
C         49.97515       93.09287       88.74682
C         48.99920       92.78930       89.87467
O         49.11909       91.77866       90.54865
C         49.30607       92.78669       87.37422
C         49.01585       91.27046       87.19698
C         50.17884       93.33798       86.23437
C         48.18681       90.94337       85.95503
H         51.20934       91.34484       88.97856
H         50.16859       94.18034       88.78664
H         48.33819       93.33618       87.34189
H         48.43394       90.90295       88.06845
H         49.96746       90.69887       87.14932
H         51.16247       92.82480       86.19946
H         49.67831       93.22052       85.25328
H         50.34953       94.42449       86.38476
H         47.21123       91.47249       85.99683
H         48.71909       91.21743       85.02290
H         47.99417       89.84980       85.92332
N         47.96719       93.65475       90.08765
C         46.85776       93.43249       91.00819
C         45.54568       93.57588       90.23799
O         45.58217       93.80530       89.04112
C         46.94196       94.44805       92.16039
O         46.85478       95.75945       91.67521
H         47.95596       94.52955       89.54807
H         46.90728       92.41539       91.45327
H         47.91266       94.30708       92.68688
H         46.11875       94.26038       92.88509
H         46.87031       96.34854       92.47400
N         44.33982       93.47627       90.86569
C         43.06814       93.70091       90.17592
C         42.99191       95.11129       89.61353
O         42.66092       95.26800       88.44616
C         41.89581       93.47884       91.13470
H         44.32550       93.25744       91.87204
H         42.95331       92.96453       89.34859
H         40.93468       93.62843       90.59574
H         41.91853       92.43764       91.52006
H         41.94181       94.18409       91.99111
N         43.32422       96.18287       90.38942
C         43.29181       97.57127       89.93264
C         44.05769       97.75467       88.63855
O         43.50831       98.31388       87.69958
C         43.88801       98.49030       91.00780
H         43.65007       95.99401       91.35062
H         42.23596       97.88100       89.76599
H         43.84960       99.54971       90.67419
H         43.31161       98.39966       91.95248
H         44.94764       98.22149       91.21180
N         45.32533       97.27701       88.51295
C         46.11523       97.41114       87.29171
C         45.37229       96.79009       86.11901
O         45.11560       97.48685       85.14660
C         47.51378       96.77813       87.47310
C         48.31628       97.49561       88.58139
C         49.67230       96.89163       88.78719
O         50.47727       96.85458       87.87300
O         50.01890       96.41337       89.99836
H         45.72348       96.77369       89.31850
H         46.26869       98.49161       87.07333
H         48.07682       96.86585       86.51781
H         47.40474       95.69972       87.70753
H         47.78028       97.44873       89.55030
H         48.44101       98.56495       88.31275
N         44.94423       95.49993       86.16468
C         44.15930       94.90366       85.10576
H         43.22007       95.48084       84.96134
H         44.73827       94.89000       84.15945
H         43.88710       93.86113       85.37819
H         45.14789       94.93051       86.99258
Ca        53.65349       97.18189       89.68893
O         52.40942       97.08190       92.44154
H         51.62885       97.08433       93.05024
H         52.99718       97.80038       92.78571
O         51.03633       99.33285       90.59933
H         51.40849      100.02594       89.99847
H         51.39594       99.55973       91.49342

Ca 1.0



