%Nproc=28
%chk=holo9.0.chk
%mem=80GB
%NoSave
#MP2(semidirect)/Gen scf=(tight,noincore) Test
#IOP(5/87=12) Density=Current Pop=(MK,readradii) iop(6/33=2) iop(6/42=6)

holo_loop_3_model_9.0 

   0   1
   C     38.06700000    22.30100000    30.55200000
   C     38.64400000    23.69000000    30.81000000
   C     37.96400000    24.76600000    29.97600000
   O     36.75800000    24.98800000    29.88500000
   O     38.85500000    25.53000000    29.28200000
   H     38.60200000    21.51500000    31.08600000
   H     38.13500000    22.04100000    29.49600000
   H     37.02600000    22.39200000    30.86500000
   H     39.71000000    23.79200000    30.60200000
   H     38.44700000    23.95200000    31.84900000
   H     39.68500000    25.09300000    29.07700000
   C     35.12400000    22.63700000    25.67900000
   C     33.78300000    22.91200000    26.35400000
   C     33.88000000    23.52900000    27.74200000
   O     33.24400000    24.58600000    27.94200000
   O     34.52700000    22.92900000    28.62800000
   H     35.65300000    21.91700000    26.30300000
   H     35.66300000    23.58000000    25.58600000
   H     35.03200000    22.19300000    24.68800000
   H     33.26200000    21.96400000    26.48600000
   H     33.15500000    23.57200000    25.75600000
   C     33.26700000    18.74600000    34.90700000
   C     33.73900000    19.99900000    34.17500000
   C     32.67500000    20.65400000    33.29800000
   C     33.34800000    21.90000000    32.74000000
   O     33.83200000    21.84700000    31.58900000
   O     33.26700000    22.96700000    33.38500000
   H     32.43000000    18.98000000    35.56500000
   H     34.07700000    18.34300000    35.51600000
   H     32.96900000    18.01700000    34.15400000
   H     34.54100000    19.62700000    33.53800000
   H     34.21900000    20.68500000    34.87300000
   H     31.86000000    21.02800000    33.91700000
   H     32.29300000    19.97900000    32.53200000
  Ca     34.19700000    24.35000000    30.92200000
   O     31.44600000    23.98700000    30.22800000
   H     31.39300000    24.51100000    29.42900000
   H     30.87100000    23.24000000    30.06400000

C O H 0
aug-cc-pVTZ 
****
@/home/pzhang5/ca_ccpvtz_basisset.gbs/N

Ca 1.70




