%chk=CaMKII_loop3_96.0.chk
%nprocshared=48
%mem=10GB
%nosave
#b3lyp/svp scf=(tight,noincore) Test 
#IOP(5/87=12) Density=Current Pop=(MK,readradii) iop(6/33=2) iop(6/42=6)

CaMKII_loop3_96.0 

   0   1
   C     81.72000000    65.67000000    33.17000000
   C     81.39000000    65.22000000    34.58000000
   O     81.92000000    64.26000000    35.15000000
   H     82.75800000    65.42400000    32.94400000
   H     81.06500000    65.16100000    32.46300000
   H     81.57600000    66.74700000    33.08900000
   N     80.48000000    65.91000000    35.26000000
   C     79.94000000    65.76000000    36.60000000
   C     78.81000000    64.74000000    36.58000000
   O     77.78000000    64.95000000    35.94000000
   C     79.53000000    67.12000000    37.16000000
   C     79.03000000    67.05000000    38.60000000
   O     78.85000000    68.12000000    39.23000000
   O     79.06000000    65.96000000    39.21000000
   H     80.22000000    66.79000000    34.84000000
   H     80.74000000    65.51000000    37.29000000
   H     78.74000000    67.50000000    36.51000000
   H     80.41000000    67.75000000    37.17000000
   N     78.93000000    63.64000000    37.34000000
   C     77.99000000    62.55000000    37.22000000
   C     77.00000000    62.55000000    38.38000000
   O     75.94000000    61.94000000    38.25000000
   C     78.80000000    61.26000000    37.30000000
   C     78.05000000    60.04000000    36.78000000
   C     78.90000000    58.78000000    36.92000000
   C     79.13000000    58.38000000    38.37000000
   N     79.82000000    57.09000000    38.52000000
   H     79.66000000    63.56000000    38.03000000
   H     77.39000000    62.59000000    36.31000000
   H     79.11000000    61.11000000    38.33000000
   H     79.72000000    61.38000000    36.72000000
   H     77.86000000    60.12000000    35.70000000
   H     77.10000000    59.75000000    37.24000000
   H     79.89000000    58.97000000    36.50000000
   H     78.53000000    57.93000000    36.35000000
   H     78.17000000    58.38000000    38.89000000
   H     79.76000000    59.11000000    38.88000000
   H     79.84000000    56.69000000    39.45000000
   H     79.29000000    56.43000000    37.97000000
   H     80.76000000    57.23000000    38.18000000
   N     77.25000000    63.23000000    39.50000000
   C     76.28000000    63.34000000    40.56000000
   C     75.54000000    64.67000000    40.48000000
   O     74.40000000    64.77000000    40.92000000
   C     76.91000000    63.02000000    41.91000000
   C     78.14000000    63.87000000    42.23000000
   O     78.24000000    65.01000000    41.72000000
   O     78.98000000    63.44000000    43.05000000
   H     78.08000000    63.81000000    39.56000000
   H     75.50000000    62.59000000    40.44000000
   H     77.13000000    61.96000000    41.84000000
   H     76.20000000    63.14000000    42.73000000
   N     76.18000000    65.71000000    39.93000000
   C     75.49000000    66.96000000    39.66000000
   C     75.69000000    67.93000000    40.82000000
   O     74.81000000    68.78000000    40.98000000
   H     77.16000000    65.63000000    39.70000000
   H     74.42000000    66.76000000    39.59000000
   H     75.87000000    67.42000000    38.75000000
   N     76.66000000    67.78000000    41.72000000
   C     77.01000000    68.59000000    42.87000000
   C     77.76000000    69.87000000    42.56000000
   O     77.98000000    70.72000000    43.42000000
   C     77.70000000    67.74000000    43.93000000
   C     79.21000000    67.69000000    43.73000000
   N     79.93000000    67.58000000    44.85000000
   O     79.81000000    67.81000000    42.67000000
   H     77.28000000    66.99000000    41.61000000
   H     76.01000000    68.82000000    43.23000000
   H     77.38000000    66.69000000    43.92000000
   H     77.59000000    68.26000000    44.88000000
   H     79.47000000    67.69000000    45.74000000
   H     80.94000000    67.66000000    44.87000000
   N     78.12000000    70.13000000    41.29000000
   C     78.74000000    71.29000000    40.69000000
   C     80.26000000    71.25000000    40.65000000
   O     80.85000000    72.29000000    40.36000000
   H     77.98000000    69.39000000    40.62000000
   H     78.37000000    72.17000000    41.21000000
   H     78.43000000    71.34000000    39.64000000
   N     80.92000000    70.11000000    40.83000000
   C     82.34000000    69.93000000    40.62000000
   C     82.76000000    68.52000000    40.23000000
   O     81.95000000    67.59000000    40.25000000
   C     83.02000000    70.50000000    41.86000000
   C     82.61000000    70.07000000    43.25000000
   C     81.55000000    70.69000000    43.92000000
   C     83.49000000    69.25000000    43.95000000
   C     81.35000000    70.48000000    45.29000000
   C     83.38000000    69.07000000    45.34000000
   C     82.31000000    69.72000000    45.99000000
   O     82.05000000    69.57000000    47.32000000
   H     80.47000000    69.36000000    41.34000000
   H     82.63000000    70.56000000    39.78000000
   H     82.97000000    71.59000000    41.87000000
   H     84.09000000    70.30000000    41.75000000
   H     80.97000000    71.47000000    43.46000000
   H     84.34000000    68.91000000    43.37000000
   H     80.42000000    70.80000000    45.72000000
   H     84.04000000    68.46000000    45.94000000
   H     82.73000000    68.97000000    47.66000000
   N     84.02000000    68.28000000    39.88000000
   C     84.55000000    67.07000000    39.28000000
   C     85.56000000    66.45000000    40.24000000
   O     86.32000000    67.11000000    40.94000000
   C     85.23000000    67.38000000    37.95000000
   C     84.33000000    68.07000000    36.94000000
   C     85.75000000    66.09000000    37.32000000
   C     85.05000000    68.75000000    35.78000000
   H     84.68000000    69.05000000    39.95000000
   H     83.79000000    66.29000000    39.18000000
   H     86.08000000    68.00000000    38.24000000
   H     83.71000000    68.80000000    37.47000000
   H     83.70000000    67.29000000    36.51000000
   H     86.16000000    66.26000000    36.33000000
   H     86.59000000    65.74000000    37.92000000
   H     84.92000000    65.38000000    37.29000000
   H     85.56000000    68.04000000    35.12000000
   H     84.35000000    69.34000000    35.19000000
   H     85.83000000    69.41000000    36.16000000
   N     85.68000000    65.12000000    40.14000000
   C     86.65000000    64.28000000    40.82000000
   C     87.43000000    63.47000000    39.79000000
   O     87.05000000    63.28000000    38.64000000
   C     85.94000000    63.31000000    41.75000000
   O     85.26000000    62.28000000    41.07000000
   H     85.23000000    64.76000000    39.31000000
   H     87.32000000    64.84000000    41.46000000
   H     85.14000000    63.78000000    42.32000000
   H     86.64000000    62.93000000    42.50000000
   H     84.74000000    61.81000000    41.73000000
   N     88.45000000    62.78000000    40.31000000
   C     89.19000000    61.83000000    39.50000000
   C     88.44000000    60.64000000    38.92000000
   O     88.63000000    60.40000000    37.73000000
   C     90.44000000    61.34000000    40.23000000
   H     88.74000000    62.91000000    41.27000000
   H     89.56000000    62.35000000    38.62000000
   H     91.02000000    60.64000000    39.62000000
   H     91.12000000    62.16000000    40.45000000
   H     90.25000000    60.95000000    41.23000000
   N     87.50000000    60.08000000    39.68000000
   C     86.57000000    59.07000000    39.22000000
   C     85.56000000    59.52000000    38.18000000
   O     85.13000000    58.77000000    37.30000000
   C     85.84000000    58.46000000    40.41000000
   H     87.45000000    60.40000000    40.63000000
   H     87.11000000    58.26000000    38.73000000
   H     85.03000000    59.14000000    40.68000000
   H     85.52000000    57.45000000    40.16000000
   H     86.45000000    58.33000000    41.31000000
   N     85.12000000    60.78000000    38.24000000
   C     84.23000000    61.42000000    37.29000000
   C     85.02000000    61.72000000    36.03000000
   O     84.55000000    61.46000000    34.92000000
   C     83.57000000    62.69000000    37.82000000
   C     82.46000000    62.25000000    38.77000000
   C     81.71000000    63.43000000    39.37000000
   O     82.06000000    64.63000000    39.35000000
   O     80.65000000    63.23000000    40.02000000
   H     85.53000000    61.35000000    38.97000000
   H     83.45000000    60.71000000    37.01000000
   H     83.17000000    63.23000000    36.96000000
   H     84.22000000    63.34000000    38.42000000
   H     82.75000000    61.60000000    39.59000000
   H     81.69000000    61.65000000    38.30000000
   N     86.25000000    62.22000000    36.08000000
   C     87.12000000    62.37000000    34.93000000
   H     88.08900000    61.92000000    35.14700000
   H     86.67400000    61.87300000    34.06900000
   H     87.25300000    63.42900000    34.71000000
   H     86.70000000    62.55000000    36.93000000
  Ca     80.59000000    65.60000000    41.26000000
   O     82.52000000    66.33000000    43.05000000
   H     83.24000000    66.77000000    43.50000000
   H     82.56000000    65.42000000    43.34000000

Ca 1.70



