%chk=CaMKII_loop3_69.0.chk
%nprocshared=48
%mem=10GB
%nosave
#b3lyp/svp scf=(tight,noincore) Test 
#IOP(5/87=12) Density=Current Pop=(MK,readradii) iop(6/33=2) iop(6/42=6)

CaMKII_loop3_69.0 

   0   1
   C     80.93000000    55.11000000    20.58000000
   C     80.81000000    53.65000000    20.17000000
   O     81.74000000    53.10000000    19.58000000
   H     81.74100000    55.57800000    20.02200000
   H     79.99500000    55.62700000    20.36300000
   H     81.14100000    55.17200000    21.64800000
   N     79.70000000    52.96000000    20.42000000
   C     79.57000000    51.56000000    20.07000000
   C     79.44000000    51.24000000    18.59000000
   O     78.30000000    51.10000000    18.13000000
   C     78.45000000    50.89000000    20.87000000
   C     78.20000000    49.41000000    20.58000000
   O     77.10000000    48.92000000    20.91000000
   O     79.11000000    48.67000000    20.15000000
   H     78.89000000    53.40000000    20.83000000
   H     80.48000000    51.09000000    20.44000000
   H     77.54000000    51.47000000    20.71000000
   H     78.72000000    50.94000000    21.92000000
   N     80.55000000    51.28000000    17.85000000
   C     80.48000000    51.47000000    16.41000000
   C     79.64000000    50.49000000    15.62000000
   O     78.97000000    50.92000000    14.68000000
   C     81.93000000    51.43000000    15.94000000
   C     82.05000000    51.97000000    14.52000000
   C     83.45000000    52.07000000    13.92000000
   C     83.92000000    50.63000000    13.72000000
   N     85.33000000    50.51000000    13.32000000
   H     81.44000000    51.26000000    18.32000000
   H     79.94000000    52.40000000    16.23000000
   H     82.36000000    50.42000000    15.93000000
   H     82.62000000    51.99000000    16.58000000
   H     81.72000000    53.00000000    14.54000000
   H     81.37000000    51.44000000    13.84000000
   H     84.16000000    52.66000000    14.49000000
   H     83.41000000    52.56000000    12.94000000
   H     83.27000000    50.14000000    13.00000000
   H     83.75000000    50.07000000    14.64000000
   H     85.47000000    49.52000000    13.20000000
   H     85.49000000    51.09000000    12.50000000
   H     85.90000000    50.78000000    14.11000000
   N     79.64000000    49.20000000    15.99000000
   C     78.80000000    48.18000000    15.40000000
   C     77.57000000    47.75000000    16.19000000
   O     77.00000000    46.68000000    16.00000000
   C     79.64000000    46.95000000    15.08000000
   C     80.45000000    46.35000000    16.22000000
   O     81.03000000    45.26000000    16.05000000
   O     80.28000000    46.89000000    17.34000000
   H     80.27000000    48.93000000    16.73000000
   H     78.43000000    48.42000000    14.40000000
   H     80.40000000    47.23000000    14.35000000
   H     79.05000000    46.18000000    14.58000000
   N     77.18000000    48.52000000    17.21000000
   C     75.98000000    48.40000000    18.02000000
   C     76.00000000    47.20000000    18.96000000
   O     74.92000000    46.94000000    19.50000000
   H     77.74000000    49.32000000    17.48000000
   H     75.11000000    48.16000000    17.40000000
   H     75.85000000    49.33000000    18.57000000
   N     77.08000000    46.43000000    19.06000000
   C     77.20000000    45.12000000    19.67000000
   C     77.32000000    45.17000000    21.19000000
   O     77.48000000    44.08000000    21.75000000
   C     78.34000000    44.39000000    18.97000000
   C     79.67000000    44.46000000    19.70000000
   N     80.47000000    43.40000000    19.58000000
   O     80.05000000    45.44000000    20.35000000
   H     77.93000000    46.68000000    18.58000000
   H     76.25000000    44.63000000    19.46000000
   H     78.47000000    44.82000000    17.98000000
   H     78.14000000    43.34000000    18.73000000
   H     80.25000000    42.63000000    18.96000000
   H     81.42000000    43.55000000    19.89000000
   N     77.21000000    46.32000000    21.85000000
   C     76.94000000    46.42000000    23.27000000
   C     78.14000000    46.83000000    24.10000000
   O     78.12000000    46.69000000    25.33000000
   H     77.10000000    47.18000000    21.31000000
   H     76.77000000    45.41000000    23.65000000
   H     76.11000000    47.10000000    23.44000000
   N     79.19000000    47.36000000    23.47000000
   C     80.49000000    47.45000000    24.10000000
   C     81.41000000    48.33000000    23.27000000
   O     81.32000000    48.32000000    22.04000000
   C     81.17000000    46.09000000    24.08000000
   C     80.53000000    44.92000000    24.81000000
   C     80.74000000    44.77000000    26.18000000
   C     79.64000000    44.13000000    24.07000000
   C     80.07000000    43.78000000    26.90000000
   C     79.04000000    43.07000000    24.77000000
   C     79.26000000    42.91000000    26.15000000
   O     78.60000000    41.89000000    26.78000000
   H     79.11000000    47.55000000    22.48000000
   H     80.36000000    47.86000000    25.10000000
   H     82.09000000    46.27000000    24.62000000
   H     81.31000000    45.73000000    23.06000000
   H     81.41000000    45.49000000    26.64000000
   H     79.40000000    44.39000000    23.05000000
   H     80.34000000    43.57000000    27.92000000
   H     78.44000000    42.40000000    24.17000000
   H     78.22000000    41.28000000    26.14000000
   N     82.25000000    49.15000000    23.91000000
   C     83.23000000    50.05000000    23.32000000
   C     84.61000000    49.45000000    23.53000000
   O     85.13000000    49.33000000    24.64000000
   C     83.15000000    51.47000000    23.88000000
   C     81.75000000    52.03000000    24.07000000
   C     84.08000000    52.40000000    23.11000000
   C     81.75000000    53.32000000    24.89000000
   H     82.21000000    49.17000000    24.91000000
   H     83.08000000    50.11000000    22.24000000
   H     83.51000000    51.42000000    24.91000000
   H     81.15000000    51.31000000    24.62000000
   H     81.24000000    52.20000000    23.12000000
   H     85.10000000    52.12000000    23.40000000
   H     84.00000000    52.25000000    22.03000000
   H     83.94000000    53.44000000    23.39000000
   H     82.32000000    54.14000000    24.45000000
   H     80.72000000    53.66000000    24.78000000
   H     82.07000000    53.18000000    25.92000000
   N     85.28000000    49.22000000    22.40000000
   C     86.67000000    48.79000000    22.34000000
   C     87.57000000    49.99000000    22.05000000
   O     87.10000000    51.06000000    21.66000000
   C     86.91000000    47.81000000    21.20000000
   O     86.70000000    48.39000000    19.93000000
   H     84.83000000    49.45000000    21.53000000
   H     87.01000000    48.37000000    23.29000000
   H     86.39000000    46.87000000    21.35000000
   H     87.93000000    47.45000000    21.14000000
   H     86.95000000    47.70000000    19.30000000
   N     88.86000000    49.84000000    22.36000000
   C     89.76000000    50.97000000    22.29000000
   C     89.90000000    51.41000000    20.84000000
   O     90.03000000    52.62000000    20.64000000
   C     91.12000000    50.48000000    22.78000000
   H     89.24000000    48.99000000    22.74000000
   H     89.33000000    51.79000000    22.85000000
   H     91.81000000    51.32000000    22.89000000
   H     91.07000000    49.94000000    23.73000000
   H     91.55000000    49.72000000    22.13000000
   N     89.77000000    50.51000000    19.87000000
   C     89.57000000    50.83000000    18.47000000
   C     88.40000000    51.79000000    18.27000000
   O     88.49000000    52.60000000    17.34000000
   C     89.43000000    49.49000000    17.75000000
   H     89.62000000    49.56000000    20.18000000
   H     90.47000000    51.31000000    18.10000000
   H     89.44000000    49.69000000    16.68000000
   H     90.25000000    48.87000000    18.11000000
   H     88.48000000    49.01000000    17.99000000
   N     87.22000000    51.62000000    18.86000000
   C     86.06000000    52.44000000    18.58000000
   C     86.18000000    53.73000000    19.37000000
   O     85.78000000    54.75000000    18.79000000
   C     84.76000000    51.67000000    18.82000000
   C     84.71000000    50.36000000    18.05000000
   C     83.50000000    49.51000000    18.41000000
   O     82.69000000    49.93000000    19.27000000
   O     83.29000000    48.44000000    17.81000000
   H     87.14000000    50.77000000    19.40000000
   H     86.12000000    52.77000000    17.55000000
   H     83.89000000    52.25000000    18.54000000
   H     84.69000000    51.49000000    19.90000000
   H     85.59000000    49.72000000    18.20000000
   H     84.71000000    50.48000000    16.96000000
   N     86.82000000    53.85000000    20.53000000
   C     87.12000000    55.03000000    21.32000000
   H     87.98600000    55.53900000    20.89700000
   H     86.26300000    55.70300000    21.30900000
   H     87.33800000    54.73500000    22.34600000
   H     87.07000000    52.99000000    21.00000000
  Ca     81.44000000    47.54000000    19.51000000
   O     82.60000000    45.36000000    18.74000000
   H     83.51000000    45.63000000    18.63000000
   H     82.36000000    45.00000000    17.89000000

Ca 1.70



