%chk=CaMKII_loop3_104.0.chk
%nprocshared=48
%mem=10GB
%nosave
#b3lyp/svp scf=(tight,noincore) Test 
#IOP(5/87=12) Density=Current Pop=(MK,readradii) iop(6/33=2) iop(6/42=6)

CaMKII_loop3_104.0 

   0   1
   C     81.58000000    64.19000000    35.38000000
   C     81.04000000    64.10000000    36.80000000
   O     81.36000000    63.16000000    37.53000000
   H     82.60400000    63.81600000    35.35700000
   H     80.95900000    63.58900000    34.71600000
   H     81.56600000    65.22900000    35.05000000
   N     80.20000000    65.03000000    37.26000000
   C     79.50000000    65.01000000    38.53000000
   C     78.30000000    64.10000000    38.33000000
   O     77.27000000    64.54000000    37.82000000
   C     79.21000000    66.46000000    38.93000000
   C     78.64000000    66.62000000    40.34000000
   O     78.72000000    65.63000000    41.10000000
   O     78.11000000    67.72000000    40.61000000
   H     80.06000000    65.81000000    36.64000000
   H     80.10000000    64.56000000    39.32000000
   H     78.60000000    66.93000000    38.16000000
   H     80.16000000    67.00000000    39.00000000
   N     78.33000000    62.95000000    39.00000000
   C     77.31000000    61.92000000    38.93000000
   C     76.12000000    62.15000000    39.84000000
   O     74.98000000    62.04000000    39.39000000
   C     77.98000000    60.58000000    39.18000000
   C     77.15000000    59.37000000    38.77000000
   C     77.97000000    58.12000000    38.47000000
   C     78.70000000    57.58000000    39.70000000
   N     79.44000000    56.37000000    39.32000000
   H     79.19000000    62.75000000    39.50000000
   H     76.85000000    61.94000000    37.94000000
   H     78.32000000    60.52000000    40.22000000
   H     78.86000000    60.54000000    38.54000000
   H     76.58000000    59.49000000    37.84000000
   H     76.43000000    59.05000000    39.53000000
   H     78.71000000    58.34000000    37.70000000
   H     77.30000000    57.36000000    38.07000000
   H     77.95000000    57.41000000    40.47000000
   H     79.48000000    58.30000000    39.95000000
   H     79.93000000    56.46000000    38.44000000
   H     80.11000000    56.12000000    40.04000000
   H     78.94000000    55.50000000    39.40000000
   N     76.46000000    62.38000000    41.11000000
   C     75.52000000    62.60000000    42.20000000
   C     74.89000000    63.97000000    41.99000000
   O     73.72000000    64.16000000    42.34000000
   C     76.14000000    62.51000000    43.59000000
   C     77.52000000    63.13000000    43.75000000
   O     77.68000000    64.37000000    43.88000000
   O     78.57000000    62.45000000    43.63000000
   H     77.43000000    62.56000000    41.32000000
   H     74.78000000    61.81000000    42.24000000
   H     76.18000000    61.47000000    43.89000000
   H     75.36000000    62.89000000    44.24000000
   N     75.72000000    64.95000000    41.62000000
   C     75.24000000    66.32000000    41.58000000
   C     75.33000000    67.08000000    42.90000000
   O     74.34000000    67.50000000    43.51000000
   H     76.65000000    64.78000000    41.27000000
   H     74.16000000    66.25000000    41.40000000
   H     75.75000000    66.97000000    40.88000000
   N     76.54000000    67.29000000    43.40000000
   C     76.85000000    68.04000000    44.60000000
   C     77.81000000    69.21000000    44.39000000
   O     78.21000000    69.88000000    45.34000000
   C     77.42000000    67.01000000    45.57000000
   C     78.79000000    66.49000000    45.18000000
   N     79.34000000    65.73000000    46.13000000
   O     79.33000000    66.58000000    44.08000000
   H     77.36000000    67.01000000    42.88000000
   H     75.92000000    68.51000000    44.92000000
   H     76.74000000    66.17000000    45.68000000
   H     77.51000000    67.48000000    46.56000000
   H     78.92000000    65.82000000    47.04000000
   H     80.32000000    65.57000000    45.93000000
   N     78.22000000    69.43000000    43.14000000
   C     79.14000000    70.48000000    42.76000000
   C     80.61000000    70.11000000    42.60000000
   O     81.40000000    70.99000000    42.28000000
   H     77.94000000    68.76000000    42.44000000
   H     79.05000000    71.23000000    43.54000000
   H     78.76000000    70.88000000    41.83000000
   N     81.02000000    68.85000000    42.77000000
   C     82.40000000    68.40000000    42.74000000
   C     82.63000000    66.99000000    42.22000000
   O     81.80000000    66.15000000    42.56000000
   C     83.22000000    68.71000000    43.98000000
   C     82.49000000    68.55000000    45.29000000
   C     81.75000000    69.63000000    45.80000000
   C     82.71000000    67.36000000    45.99000000
   C     81.07000000    69.50000000    47.02000000
   C     82.14000000    67.36000000    47.27000000
   C     81.31000000    68.36000000    47.81000000
   O     80.62000000    68.26000000    48.98000000
   H     80.37000000    68.15000000    43.12000000
   H     82.77000000    69.04000000    41.94000000
   H     83.72000000    69.69000000    43.98000000
   H     84.02000000    67.97000000    43.98000000
   H     81.68000000    70.49000000    45.16000000
   H     83.31000000    66.54000000    45.63000000
   H     80.52000000    70.33000000    47.44000000
   H     82.30000000    66.49000000    47.89000000
   H     81.00000000    67.57000000    49.53000000
   N     83.74000000    66.80000000    41.50000000
   C     84.10000000    65.55000000    40.87000000
   C     85.17000000    64.87000000    41.71000000
   O     86.26000000    65.42000000    41.83000000
   C     84.61000000    65.73000000    39.44000000
   C     83.88000000    66.72000000    38.54000000
   C     84.61000000    64.38000000    38.73000000
   C     84.81000000    67.24000000    37.45000000
   H     84.19000000    67.63000000    41.13000000
   H     83.25000000    64.87000000    40.76000000
   H     85.62000000    66.14000000    39.50000000
   H     83.53000000    67.57000000    39.11000000
   H     83.02000000    66.23000000    38.09000000
   H     83.58000000    64.07000000    38.58000000
   H     85.08000000    64.45000000    37.74000000
   H     85.24000000    63.66000000    39.25000000
   H     85.44000000    68.03000000    37.86000000
   H     85.52000000    66.52000000    37.05000000
   H     84.28000000    67.50000000    36.53000000
   N     84.81000000    63.78000000    42.39000000
   C     85.74000000    62.91000000    43.07000000
   C     86.62000000    62.04000000    42.17000000
   O     86.30000000    61.83000000    41.00000000
   C     84.94000000    62.01000000    44.00000000
   O     84.11000000    61.11000000    43.29000000
   H     83.82000000    63.56000000    42.38000000
   H     86.45000000    63.43000000    43.71000000
   H     84.27000000    62.59000000    44.62000000
   H     85.62000000    61.36000000    44.55000000
   H     83.38000000    61.66000000    42.99000000
   N     87.64000000    61.40000000    42.74000000
   C     88.38000000    60.46000000    41.92000000
   C     87.58000000    59.25000000    41.45000000
   O     87.78000000    58.97000000    40.27000000
   C     89.56000000    59.94000000    42.75000000
   H     87.76000000    61.49000000    43.73000000
   H     88.73000000    60.95000000    41.02000000
   H     90.08000000    60.84000000    43.07000000
   H     89.27000000    59.44000000    43.67000000
   H     90.19000000    59.33000000    42.12000000
   N     86.71000000    58.63000000    42.25000000
   C     85.87000000    57.53000000    41.81000000
   C     84.85000000    57.84000000    40.73000000
   O     84.57000000    56.94000000    39.93000000
   C     85.30000000    57.11000000    43.16000000
   H     86.68000000    58.85000000    43.23000000
   H     86.47000000    56.69000000    41.46000000
   H     84.44000000    56.44000000    43.11000000
   H     86.08000000    56.48000000    43.59000000
   H     84.97000000    57.89000000    43.85000000
   N     84.49000000    59.11000000    40.57000000
   C     83.67000000    59.60000000    39.49000000
   C     84.55000000    59.85000000    38.27000000
   O     84.15000000    59.52000000    37.16000000
   C     83.06000000    60.95000000    39.87000000
   C     81.87000000    60.74000000    40.79000000
   C     81.48000000    62.06000000    41.45000000
   O     82.08000000    62.50000000    42.45000000
   O     80.57000000    62.70000000    40.88000000
   H     84.82000000    59.79000000    41.25000000
   H     82.86000000    58.91000000    39.24000000
   H     82.65000000    61.57000000    39.07000000
   H     83.82000000    61.56000000    40.36000000
   H     82.04000000    60.03000000    41.59000000
   H     81.08000000    60.42000000    40.11000000
   N     85.74000000    60.44000000    38.44000000
   C     86.64000000    60.52000000    37.31000000
   H     87.60000000    60.08000000    37.57900000
   H     86.21500000    59.97500000    36.46700000
   H     86.78400000    61.56400000    37.03300000
   H     86.00000000    60.87000000    39.32000000
  Ca     80.11000000    64.35000000    42.90000000
   O     81.66000000    64.24000000    45.05000000
   H     82.41000000    64.69000000    45.44000000
   H     81.57000000    63.44000000    45.56000000

Ca 1.70



