%chk=CaMKII_loop3_112.0.chk
%nprocshared=48
%mem=10GB
%nosave
#b3lyp/svp scf=(tight,noincore) Test 
#IOP(5/87=12) Density=Current Pop=(MK,readradii) iop(6/33=2) iop(6/42=6)

CaMKII_loop3_112.0 

   0   1
   C     40.57000000    45.63000000    92.93700000
   C     41.63000000    44.64000000    93.39700000
   O     42.79000000    44.99000000    93.59700000
   H     39.69600000    45.55200000    93.58300000
   H     40.97000000    46.64200000    92.99000000
   H     40.28300000    45.40500000    91.91000000
   N     41.31000000    43.34000000    93.43700000
   C     42.24000000    42.25000000    93.58700000
   C     42.77000000    41.81000000    92.22700000
   O     42.08000000    41.19000000    91.42700000
   C     41.52000000    41.10000000    94.29700000
   C     42.35000000    39.85000000    94.49700000
   O     41.69000000    38.87000000    94.91700000
   O     43.58000000    39.86000000    94.27700000
   H     40.33000000    43.09000000    93.36700000
   H     43.08000000    42.60000000    94.18700000
   H     40.57000000    40.98000000    93.76700000
   H     41.26000000    41.45000000    95.29700000
   N     44.00000000    42.22000000    91.90700000
   C     44.85000000    42.01000000    90.75700000
   C     44.99000000    40.52000000    90.46700000
   O     45.27000000    40.27000000    89.29700000
   C     46.23000000    42.60000000    91.03700000
   C     47.15000000    42.79000000    89.82700000
   C     48.46000000    43.47000000    90.22700000
   C     49.32000000    43.91000000    89.05700000
   N     50.67000000    44.27000000    89.51700000
   H     44.48000000    42.58000000    92.71700000
   H     44.36000000    42.54000000    89.93700000
   H     46.68000000    42.04000000    91.84700000
   H     46.10000000    43.60000000    91.43700000
   H     46.74000000    43.32000000    88.96700000
   H     47.39000000    41.79000000    89.47700000
   H     49.08000000    42.80000000    90.82700000
   H     48.26000000    44.34000000    90.84700000
   H     48.88000000    44.75000000    88.51700000
   H     49.32000000    43.10000000    88.32700000
   H     51.28000000    43.53000000    89.21700000
   H     50.93000000    45.15000000    89.07700000
   H     50.66000000    44.31000000    90.52700000
   N     44.82000000    39.60000000    91.41700000
   C     45.27000000    38.23000000    91.25700000
   C     44.25000000    37.19000000    91.72700000
   O     44.36000000    36.03000000    91.32700000
   C     46.54000000    38.07000000    92.07700000
   C     46.55000000    38.57000000    93.51700000
   O     45.98000000    37.86000000    94.37700000
   O     47.01000000    39.68000000    93.85700000
   H     44.64000000    40.05000000    92.29700000
   H     45.42000000    37.95000000    90.20700000
   H     47.19000000    38.75000000    91.53700000
   H     46.94000000    37.06000000    92.05700000
   N     43.21000000    37.54000000    92.48700000
   C     42.20000000    36.62000000    92.94700000
   C     42.60000000    35.67000000    94.06700000
   O     42.03000000    34.61000000    94.30700000
   H     43.22000000    38.45000000    92.92700000
   H     41.84000000    35.95000000    92.16700000
   H     41.33000000    37.20000000    93.27700000
   N     43.54000000    36.11000000    94.90700000
   C     43.81000000    35.52000000    96.19700000
   C     42.77000000    35.86000000    97.25700000
   O     42.82000000    35.19000000    98.28700000
   C     45.24000000    35.79000000    96.68700000
   C     45.54000000    37.20000000    97.16700000
   N     46.84000000    37.46000000    97.34700000
   O     44.69000000    38.07000000    97.26700000
   H     44.16000000    36.86000000    94.62700000
   H     43.69000000    34.45000000    96.03700000
   H     45.98000000    35.63000000    95.90700000
   H     45.44000000    35.15000000    97.54700000
   H     47.43000000    36.65000000    97.43700000
   H     47.10000000    38.40000000    97.61700000
   N     41.86000000    36.79000000    96.96700000
   C     40.77000000    37.21000000    97.82700000
   C     41.04000000    38.32000000    98.83700000
   O     40.36000000    38.48000000    99.84700000
   H     41.94000000    37.34000000    96.12700000
   H     40.32000000    36.38000000    98.37700000
   H     39.91000000    37.51000000    97.23700000
   N     42.13000000    39.07000000    98.70700000
   C     42.55000000    40.19000000    99.52700000
   C     43.52000000    41.05000000    98.72700000
   O     43.98000000    40.71000000    97.63700000
   C     42.94000000    39.69000000   100.91700000
   C     44.13000000    38.76000000   100.86700000
   C     43.86000000    37.41000000   100.63700000
   C     45.47000000    39.13000000   101.09700000
   C     44.88000000    36.47000000   100.48700000
   C     46.52000000    38.21000000   100.96700000
   C     46.22000000    36.88000000   100.64700000
   O     47.21000000    35.97000000   100.40700000
   H     42.65000000    38.91000000    97.85700000
   H     41.65000000    40.78000000    99.70700000
   H     42.16000000    39.06000000   101.34700000
   H     43.27000000    40.57000000   101.45700000
   H     42.85000000    37.12000000   100.37700000
   H     45.68000000    40.16000000   101.31700000
   H     44.63000000    35.49000000   100.09700000
   H     47.54000000    38.56000000   100.91700000
   H     46.83000000    35.10000000   100.27700000
   N     43.76000000    42.26000000    99.22700000
   C     44.23000000    43.46000000    98.56700000
   C     45.34000000    44.23000000    99.28700000
   O     45.20000000    44.64000000   100.42700000
   C     43.13000000    44.47000000    98.24700000
   C     41.97000000    43.90000000    97.42700000
   C     43.61000000    45.81000000    97.69700000
   C     40.70000000    44.63000000    97.82700000
   H     43.38000000    42.47000000   100.13700000
   H     44.62000000    43.17000000    97.59700000
   H     42.71000000    44.70000000    99.22700000
   H     41.93000000    42.81000000    97.39700000
   H     42.04000000    44.13000000    96.36700000
   H     42.78000000    46.48000000    97.48700000
   H     44.24000000    46.33000000    98.42700000
   H     44.33000000    45.64000000    96.89700000
   H     39.90000000    44.44000000    97.11700000
   H     40.42000000    44.14000000    98.76700000
   H     40.83000000    45.71000000    97.88700000
   N     46.48000000    44.29000000    98.59700000
   C     47.65000000    45.03000000    99.00700000
   C     47.80000000    46.45000000    98.47700000
   O     47.17000000    46.83000000    97.48700000
   C     48.88000000    44.17000000    98.72700000
   O     49.24000000    44.14000000    97.36700000
   H     46.54000000    43.77000000    97.72700000
   H     47.67000000    45.08000000   100.09700000
   H     48.64000000    43.15000000    99.04700000
   H     49.67000000    44.58000000    99.35700000
   H     48.53000000    43.63000000    96.97700000
   N     48.83000000    47.17000000    98.94700000
   C     49.12000000    48.53000000    98.55700000
   C     49.29000000    48.57000000    97.04700000
   O     48.67000000    49.37000000    96.35700000
   C     50.40000000    48.97000000    99.27700000
   H     49.19000000    46.82000000    99.82700000
   H     48.26000000    49.10000000    98.91700000
   H     51.15000000    48.19000000    99.32700000
   H     50.98000000    49.76000000    98.79700000
   H     50.22000000    49.22000000   100.31700000
   N     50.09000000    47.68000000    96.44700000
   C     50.45000000    47.65000000    95.04700000
   C     49.23000000    47.39000000    94.16700000
   O     49.11000000    47.92000000    93.06700000
   C     51.49000000    46.56000000    94.78700000
   H     50.64000000    47.03000000    96.99700000
   H     50.91000000    48.59000000    94.74700000
   H     51.69000000    46.37000000    93.73700000
   H     52.38000000    46.82000000    95.35700000
   H     51.11000000    45.62000000    95.18700000
   N     48.28000000    46.61000000    94.68700000
   C     47.02000000    46.42000000    93.99700000
   C     46.06000000    47.61000000    94.03700000
   O     45.42000000    47.90000000    93.02700000
   C     46.37000000    45.19000000    94.61700000
   C     47.20000000    43.92000000    94.52700000
   C     46.60000000    42.79000000    95.34700000
   O     45.56000000    42.33000000    94.81700000
   O     47.03000000    42.47000000    96.47700000
   H     48.37000000    46.24000000    95.62700000
   H     47.18000000    46.27000000    92.92700000
   H     45.40000000    44.98000000    94.15700000
   H     46.22000000    45.39000000    95.67700000
   H     48.25000000    44.13000000    94.76700000
   H     47.24000000    43.69000000    93.46700000
   N     45.98000000    48.29000000    95.17700000
   C     45.32000000    49.58000000    95.31700000
   H     44.35500000    49.44300000    95.80600000
   H     45.94100000    50.24300000    95.92000000
   H     45.16800000    50.02000000    94.33100000
   H     46.58000000    47.97000000    95.92700000
  Ca     45.70000000    40.08000000    95.97000000
   O     47.09000000    40.37000000    98.24000000
   H     47.03000000    40.65000000    99.15000000
   H     47.48000000    41.11000000    97.78000000

Ca 1.70



