%chk=CaMKII_loop3_68.0.chk
%nprocshared=48
%mem=10GB
%nosave
#b3lyp/svp scf=(tight,noincore) Test 
#IOP(5/87=12) Density=Current Pop=(MK,readradii) iop(6/33=2) iop(6/42=6)

CaMKII_loop3_68.0 

   0   1
   C     61.50000000    51.42000000    41.58000000
   C     60.65000000    50.93000000    42.74000000
   O     60.67000000    49.75000000    43.09000000
   H     62.48000000    50.94500000    41.62300000
   H     61.01400000    51.16400000    40.63900000
   H     61.61700000    52.50200000    41.64600000
   N     59.66000000    51.67000000    43.25000000
   C     58.61000000    51.09000000    44.05000000
   C     57.57000000    50.27000000    43.29000000
   O     56.39000000    50.53000000    43.51000000
   C     58.08000000    52.21000000    44.94000000
   C     57.33000000    51.71000000    46.17000000
   O     56.25000000    52.26000000    46.50000000
   O     57.63000000    50.66000000    46.78000000
   H     59.62000000    52.64000000    42.98000000
   H     59.11000000    50.43000000    44.76000000
   H     57.33000000    52.79000000    44.40000000
   H     58.85000000    52.88000000    45.32000000
   N     57.94000000    49.39000000    42.35000000
   C     57.16000000    48.34000000    41.74000000
   C     56.20000000    47.62000000    42.69000000
   O     55.09000000    47.29000000    42.28000000
   C     58.21000000    47.43000000    41.11000000
   C     57.71000000    46.41000000    40.09000000
   C     57.51000000    47.05000000    38.72000000
   C     57.10000000    46.05000000    37.64000000
   N     57.25000000    46.55000000    36.27000000
   H     58.93000000    49.24000000    42.19000000
   H     56.52000000    48.71000000    40.94000000
   H     58.63000000    46.85000000    41.93000000
   H     58.92000000    48.08000000    40.61000000
   H     56.74000000    46.16000000    40.52000000
   H     58.30000000    45.49000000    40.09000000
   H     58.47000000    47.49000000    38.45000000
   H     56.75000000    47.82000000    38.78000000
   H     56.12000000    45.65000000    37.91000000
   H     57.72000000    45.18000000    37.86000000
   H     56.65000000    47.36000000    36.21000000
   H     58.19000000    46.88000000    36.10000000
   H     57.09000000    45.95000000    35.48000000
   N     56.56000000    47.52000000    43.97000000
   C     55.63000000    47.06000000    44.98000000
   C     54.56000000    47.94000000    45.62000000
   O     53.61000000    47.37000000    46.17000000
   C     56.43000000    46.40000000    46.09000000
   C     57.46000000    47.22000000    46.86000000
   O     57.24000000    47.67000000    48.01000000
   O     58.61000000    47.39000000    46.42000000
   H     57.53000000    47.70000000    44.18000000
   H     55.08000000    46.18000000    44.66000000
   H     56.90000000    45.55000000    45.59000000
   H     55.78000000    45.85000000    46.78000000
   N     54.73000000    49.26000000    45.60000000
   C     53.64000000    50.18000000    45.89000000
   C     53.52000000    50.60000000    47.35000000
   O     52.53000000    51.25000000    47.68000000
   H     55.59000000    49.56000000    45.16000000
   H     52.73000000    49.74000000    45.48000000
   H     53.83000000    51.10000000    45.35000000
   N     54.48000000    50.27000000    48.22000000
   C     54.31000000    50.62000000    49.61000000
   C     54.56000000    52.10000000    49.91000000
   O     54.14000000    52.59000000    50.95000000
   C     55.12000000    49.67000000    50.48000000
   C     56.56000000    50.09000000    50.77000000
   N     57.02000000    50.07000000    52.02000000
   O     57.30000000    50.46000000    49.86000000
   H     55.37000000    49.88000000    47.96000000
   H     53.25000000    50.49000000    49.83000000
   H     54.99000000    48.65000000    50.13000000
   H     54.70000000    49.69000000    51.48000000
   H     56.50000000    49.84000000    52.85000000
   H     58.01000000    50.21000000    52.17000000
   N     55.23000000    52.81000000    49.01000000
   C     55.45000000    54.24000000    49.17000000
   C     56.91000000    54.62000000    49.34000000
   O     57.23000000    55.78000000    49.60000000
   H     55.48000000    52.39000000    48.12000000
   H     54.98000000    54.57000000    50.09000000
   H     55.01000000    54.75000000    48.30000000
   N     57.80000000    53.65000000    49.10000000
   C     59.21000000    53.81000000    49.38000000
   C     60.13000000    53.11000000    48.38000000
   O     59.90000000    51.94000000    48.08000000
   C     59.66000000    53.37000000    50.77000000
   C     59.22000000    54.38000000    51.80000000
   C     59.89000000    55.60000000    51.96000000
   C     58.17000000    54.08000000    52.67000000
   C     59.64000000    56.45000000    53.05000000
   C     57.67000000    55.09000000    53.51000000
   C     58.47000000    56.21000000    53.80000000
   O     58.18000000    57.00000000    54.88000000
   H     57.51000000    52.78000000    48.69000000
   H     59.40000000    54.87000000    49.27000000
   H     60.73000000    53.18000000    50.84000000
   H     59.25000000    52.37000000    50.96000000
   H     60.73000000    55.78000000    51.31000000
   H     57.75000000    53.08000000    52.67000000
   H     60.31000000    57.22000000    53.40000000
   H     56.78000000    54.90000000    54.09000000
   H     57.43000000    56.58000000    55.30000000
   N     61.25000000    53.72000000    47.97000000
   C     62.34000000    53.04000000    47.29000000
   C     63.39000000    52.68000000    48.33000000
   O     63.87000000    53.51000000    49.10000000
   C     62.87000000    53.97000000    46.20000000
   C     61.81000000    54.27000000    45.14000000
   C     64.05000000    53.23000000    45.59000000
   C     62.14000000    55.41000000    44.18000000
   H     61.33000000    54.69000000    48.23000000
   H     61.97000000    52.12000000    46.84000000
   H     63.04000000    54.96000000    46.64000000
   H     60.84000000    54.55000000    45.53000000
   H     61.67000000    53.32000000    44.62000000
   H     64.55000000    53.85000000    44.84000000
   H     64.85000000    52.94000000    46.27000000
   H     63.69000000    52.27000000    45.21000000
   H     63.06000000    55.25000000    43.62000000
   H     61.33000000    55.50000000    43.45000000
   H     62.21000000    56.36000000    44.71000000
   N     63.84000000    51.42000000    48.27000000
   C     64.96000000    50.94000000    49.04000000
   C     66.20000000    50.80000000    48.17000000
   O     66.19000000    50.84000000    46.94000000
   C     64.62000000    49.56000000    49.60000000
   O     64.56000000    48.49000000    48.68000000
   H     63.44000000    50.79000000    47.58000000
   H     65.10000000    51.54000000    49.94000000
   H     63.66000000    49.55000000    50.12000000
   H     65.35000000    49.29000000    50.36000000
   H     63.64000000    48.21000000    48.63000000
   N     67.31000000    50.39000000    48.78000000
   C     68.58000000    50.09000000    48.13000000
   C     68.54000000    48.86000000    47.23000000
   O     69.04000000    48.97000000    46.12000000
   C     69.69000000    50.00000000    49.16000000
   H     67.22000000    50.14000000    49.75000000
   H     68.80000000    50.91000000    47.44000000
   H     69.46000000    50.66000000    50.00000000
   H     69.84000000    48.96000000    49.46000000
   H     70.66000000    50.27000000    48.73000000
   N     67.98000000    47.72000000    47.64000000
   C     67.85000000    46.56000000    46.78000000
   C     66.92000000    46.67000000    45.58000000
   O     67.20000000    46.02000000    44.58000000
   C     67.49000000    45.32000000    47.59000000
   H     67.73000000    47.62000000    48.62000000
   H     68.82000000    46.42000000    46.30000000
   H     68.05000000    45.27000000    48.53000000
   H     66.42000000    45.20000000    47.72000000
   H     67.69000000    44.48000000    46.93000000
   N     66.05000000    47.67000000    45.71000000
   C     65.15000000    48.18000000    44.70000000
   C     65.82000000    49.07000000    43.67000000
   O     65.72000000    48.96000000    42.45000000
   C     63.88000000    48.80000000    45.29000000
   C     62.89000000    47.88000000    45.99000000
   C     61.81000000    48.65000000    46.75000000
   O     61.04000000    49.52000000    46.29000000
   O     61.65000000    48.33000000    47.94000000
   H     66.04000000    48.18000000    46.58000000
   H     64.74000000    47.30000000    44.19000000
   H     63.46000000    49.43000000    44.50000000
   H     64.30000000    49.57000000    45.94000000
   H     63.50000000    47.22000000    46.60000000
   H     62.45000000    47.28000000    45.19000000
   N     66.69000000    49.98000000    44.12000000
   C     67.57000000    50.71000000    43.23000000
   H     68.52900000    50.19600000    43.16700000
   H     67.12100000    50.76400000    42.23800000
   H     67.72300000    51.71800000    43.61600000
   H     66.77000000    50.14000000    45.11000000
  Ca     59.24000000    49.47000000    48.24000000
   O     60.72000000    50.25000000    50.45000000
   H     61.32000000    50.97000000    50.64000000
   H     60.31000000    50.05000000    51.29000000

Ca 1.70



