%chk=CaMKII_loop3_98.0.chk
%nprocshared=48
%mem=10GB
%nosave
#b3lyp/svp scf=(tight,noincore) Test 
#IOP(5/87=12) Density=Current Pop=(MK,readradii) iop(6/33=2) iop(6/42=6)

CaMKII_loop3_98.0 

   0   1
   C     70.71000000    51.37000000    23.13000000
   C     69.32000000    50.92000000    23.56000000
   O     69.15000000    49.74000000    23.85000000
   H     71.42400000    50.56800000    23.31500000
   H     70.70200000    51.61100000    22.06700000
   H     71.00000000    52.25200000    23.70100000
   N     68.29000000    51.76000000    23.54000000
   C     66.95000000    51.38000000    23.96000000
   C     66.20000000    50.82000000    22.77000000
   O     65.97000000    51.50000000    21.77000000
   C     66.33000000    52.65000000    24.53000000
   C     64.95000000    52.37000000    25.11000000
   O     64.36000000    51.27000000    25.03000000
   O     64.45000000    53.26000000    25.84000000
   H     68.49000000    52.70000000    23.22000000
   H     67.09000000    50.68000000    24.79000000
   H     66.22000000    53.47000000    23.83000000
   H     66.96000000    53.05000000    25.33000000
   N     65.78000000    49.55000000    22.88000000
   C     65.31000000    48.72000000    21.79000000
   C     63.87000000    48.96000000    21.36000000
   O     63.41000000    48.45000000    20.34000000
   C     65.43000000    47.29000000    22.30000000
   C     65.59000000    46.21000000    21.24000000
   C     66.08000000    44.90000000    21.85000000
   C     65.10000000    44.07000000    22.67000000
   N     64.17000000    43.26000000    21.86000000
   H     65.95000000    49.04000000    23.73000000
   H     65.99000000    48.91000000    20.96000000
   H     64.55000000    47.10000000    22.92000000
   H     66.29000000    47.29000000    22.96000000
   H     66.31000000    46.55000000    20.49000000
   H     64.58000000    46.15000000    20.83000000
   H     67.00000000    45.10000000    22.40000000
   H     66.33000000    44.20000000    21.05000000
   H     64.51000000    44.79000000    23.24000000
   H     65.67000000    43.38000000    23.29000000
   H     63.54000000    43.83000000    21.32000000
   H     64.67000000    42.56000000    21.32000000
   H     63.57000000    42.69000000    22.45000000
   N     63.07000000    49.63000000    22.19000000
   C     61.73000000    50.11000000    21.93000000
   C     61.44000000    51.49000000    22.52000000
   O     60.27000000    51.85000000    22.52000000
   C     60.75000000    49.14000000    22.58000000
   C     60.99000000    48.97000000    24.07000000
   O     60.23000000    48.17000000    24.66000000
   O     61.90000000    49.49000000    24.75000000
   H     63.46000000    49.88000000    23.09000000
   H     61.66000000    50.03000000    20.85000000
   H     60.93000000    48.14000000    22.18000000
   H     59.71000000    49.43000000    22.40000000
   N     62.38000000    52.29000000    23.02000000
   C     62.19000000    53.71000000    23.27000000
   C     61.40000000    54.10000000    24.52000000
   O     60.67000000    55.08000000    24.53000000
   H     63.28000000    51.83000000    23.00000000
   H     61.89000000    54.28000000    22.39000000
   H     63.22000000    53.98000000    23.50000000
   N     61.50000000    53.28000000    25.57000000
   C     60.65000000    53.27000000    26.74000000
   C     61.39000000    54.00000000    27.86000000
   O     60.70000000    54.16000000    28.87000000
   C     60.16000000    51.86000000    27.05000000
   C     61.11000000    51.15000000    28.00000000
   N     60.60000000    50.51000000    29.06000000
   O     62.34000000    51.23000000    27.92000000
   H     62.43000000    52.89000000    25.69000000
   H     59.83000000    53.93000000    26.46000000
   H     60.04000000    51.34000000    26.10000000
   H     59.21000000    51.94000000    27.59000000
   H     59.63000000    50.31000000    29.23000000
   H     61.27000000    50.09000000    29.69000000
   N     62.60000000    54.51000000    27.67000000
   C     63.43000000    55.29000000    28.57000000
   C     64.53000000    54.55000000    29.31000000
   O     65.24000000    55.19000000    30.09000000
   H     63.10000000    54.20000000    26.84000000
   H     62.83000000    55.82000000    29.31000000
   H     64.01000000    56.04000000    28.04000000
   N     64.60000000    53.22000000    29.22000000
   C     65.49000000    52.36000000    29.97000000
   C     66.14000000    51.28000000    29.12000000
   O     65.55000000    50.82000000    28.14000000
   C     64.81000000    51.62000000    31.12000000
   C     63.75000000    52.32000000    31.94000000
   C     64.16000000    52.96000000    33.12000000
   C     62.41000000    52.41000000    31.56000000
   C     63.17000000    53.40000000    34.00000000
   C     61.40000000    52.95000000    32.37000000
   C     61.81000000    53.40000000    33.64000000
   O     60.94000000    53.93000000    34.55000000
   H     63.99000000    52.77000000    28.55000000
   H     66.25000000    52.96000000    30.46000000
   H     65.64000000    51.26000000    31.73000000
   H     64.38000000    50.71000000    30.71000000
   H     65.20000000    52.97000000    33.42000000
   H     62.11000000    52.01000000    30.60000000
   H     63.45000000    53.87000000    34.93000000
   H     60.38000000    52.93000000    32.02000000
   H     60.07000000    53.91000000    34.15000000
   N     67.36000000    50.90000000    29.51000000
   C     68.18000000    49.86000000    28.92000000
   C     68.27000000    48.68000000    29.88000000
   O     68.65000000    48.92000000    31.02000000
   C     69.57000000    50.37000000    28.55000000
   C     69.61000000    51.72000000    27.84000000
   C     70.28000000    49.38000000    27.64000000
   C     71.02000000    52.30000000    27.79000000
   H     67.83000000    51.48000000    30.19000000
   H     67.71000000    49.58000000    27.98000000
   H     70.14000000    50.53000000    29.47000000
   H     68.94000000    52.43000000    28.34000000
   H     69.25000000    51.60000000    26.81000000
   H     71.36000000    49.54000000    27.62000000
   H     70.17000000    48.36000000    28.00000000
   H     69.89000000    49.46000000    26.63000000
   H     71.74000000    51.61000000    27.38000000
   H     71.04000000    53.21000000    27.19000000
   H     71.23000000    52.52000000    28.84000000
   N     68.00000000    47.46000000    29.43000000
   C     68.12000000    46.25000000    30.22000000
   C     69.23000000    45.40000000    29.61000000
   O     69.70000000    45.64000000    28.50000000
   C     66.82000000    45.46000000    30.16000000
   O     66.57000000    45.11000000    28.82000000
   H     67.83000000    47.35000000    28.44000000
   H     68.46000000    46.51000000    31.22000000
   H     66.04000000    46.16000000    30.46000000
   H     66.89000000    44.57000000    30.78000000
   H     65.67000000    44.78000000    28.69000000
   N     69.61000000    44.34000000    30.33000000
   C     70.64000000    43.40000000    29.94000000
   C     70.33000000    42.71000000    28.62000000
   O     71.21000000    42.27000000    27.89000000
   C     70.78000000    42.44000000    31.12000000
   H     69.24000000    44.21000000    31.26000000
   H     71.59000000    43.91000000    29.80000000
   H     70.92000000    43.03000000    32.03000000
   H     69.87000000    41.87000000    31.25000000
   H     71.59000000    41.73000000    30.94000000
   N     69.03000000    42.62000000    28.30000000
   C     68.56000000    42.06000000    27.05000000
   C     68.87000000    43.03000000    25.91000000
   O     69.25000000    42.58000000    24.83000000
   C     67.05000000    41.91000000    26.97000000
   H     68.38000000    42.97000000    28.98000000
   H     69.08000000    41.13000000    26.83000000
   H     66.88000000    41.22000000    27.79000000
   H     66.54000000    42.86000000    27.12000000
   H     66.71000000    41.45000000    26.04000000
   N     68.75000000    44.33000000    26.16000000
   C     68.88000000    45.37000000    25.15000000
   C     70.33000000    45.77000000    24.92000000
   O     70.79000000    45.97000000    23.80000000
   C     67.95000000    46.52000000    25.51000000
   C     66.52000000    45.98000000    25.54000000
   C     65.47000000    47.07000000    25.62000000
   O     65.86000000    48.26000000    25.61000000
   O     64.29000000    46.83000000    25.98000000
   H     68.60000000    44.57000000    27.12000000
   H     68.46000000    44.97000000    24.23000000
   H     68.04000000    47.22000000    24.68000000
   H     68.12000000    46.98000000    26.48000000
   H     66.44000000    45.36000000    26.43000000
   H     66.35000000    45.31000000    24.70000000
   N     71.05000000    45.83000000    26.04000000
   C     72.49000000    45.99000000    26.16000000
   H     72.94500000    45.92900000    25.17200000
   H     72.71300000    46.96100000    26.60300000
   H     72.89200000    45.20000000    26.79400000
   H     70.58000000    45.56000000    26.89000000
  Ca     63.78000000    49.44000000    26.67000000
   O     61.70000000    47.78000000    27.04000000
   H     61.45000000    46.92000000    27.38000000
   H     61.09000000    47.93000000    26.31000000

Ca 1.70



