%chk=CaMKII_loop3_13.0.chk
%nprocshared=48
%mem=10GB
%nosave
#b3lyp/svp scf=(tight,noincore) Test 
#IOP(5/87=12) Density=Current Pop=(MK,readradii) iop(6/33=2) iop(6/42=6)

CaMKII_loop3_13.0 

   0   1
   C     82.11000000    56.35000000    15.73000000
   C     82.25000000    55.14000000    14.82000000
   O     82.98000000    55.17000000    13.83000000
   H     81.07200000    56.44500000    16.05000000
   H     82.74900000    56.22400000    16.60400000
   H     82.40700000    57.24800000    15.18900000
   N     81.55000000    54.07000000    15.20000000
   C     81.39000000    52.87000000    14.40000000
   C     80.76000000    53.34000000    13.09000000
   O     79.64000000    53.82000000    12.95000000
   C     80.61000000    51.80000000    15.16000000
   C     80.45000000    50.49000000    14.40000000
   O     79.40000000    49.83000000    14.54000000
   O     81.37000000    50.07000000    13.68000000
   H     80.97000000    54.15000000    16.03000000
   H     82.42000000    52.52000000    14.33000000
   H     79.66000000    52.17000000    15.55000000
   H     81.18000000    51.68000000    16.08000000
   N     81.51000000    53.07000000    12.02000000
   C     81.33000000    53.64000000    10.70000000
   C     80.63000000    52.71000000     9.72000000
   O     79.99000000    53.13000000     8.75000000
   C     82.70000000    54.12000000    10.22000000
   C     82.55000000    55.10000000     9.06000000
   C     83.84000000    55.74000000     8.55000000
   C     84.88000000    54.83000000     7.89000000
   N     86.06000000    55.51000000     7.34000000
   H     82.34000000    52.51000000    12.17000000
   H     80.80000000    54.57000000    10.89000000
   H     83.29000000    53.29000000     9.84000000
   H     83.29000000    54.62000000    10.98000000
   H     81.86000000    55.84000000     9.46000000
   H     81.99000000    54.63000000     8.25000000
   H     84.45000000    56.09000000     9.39000000
   H     83.57000000    56.53000000     7.85000000
   H     84.42000000    54.33000000     7.03000000
   H     85.23000000    54.05000000     8.55000000
   H     86.62000000    55.92000000     8.07000000
   H     86.69000000    54.89000000     6.84000000
   H     85.86000000    56.14000000     6.57000000
   N     80.76000000    51.40000000     9.91000000
   C     80.05000000    50.37000000     9.18000000
   C     78.92000000    49.77000000    10.00000000
   O     78.11000000    49.01000000     9.46000000
   C     80.92000000    49.29000000     8.55000000
   C     81.74000000    48.47000000     9.53000000
   O     82.32000000    47.44000000     9.11000000
   O     81.95000000    48.90000000    10.69000000
   H     81.33000000    51.13000000    10.70000000
   H     79.50000000    50.89000000     8.40000000
   H     81.66000000    49.85000000     7.98000000
   H     80.43000000    48.58000000     7.89000000
   N     78.85000000    50.16000000    11.27000000
   C     77.73000000    49.85000000    12.13000000
   C     77.68000000    48.42000000    12.66000000
   O     76.59000000    47.92000000    12.90000000
   H     79.60000000    50.72000000    11.66000000
   H     76.81000000    49.89000000    11.55000000
   H     77.66000000    50.59000000    12.93000000
   N     78.81000000    47.70000000    12.69000000
   C     78.80000000    46.27000000    12.91000000
   C     78.87000000    45.92000000    14.39000000
   O     78.64000000    44.77000000    14.75000000
   C     79.92000000    45.74000000    12.02000000
   C     81.34000000    45.91000000    12.55000000
   N     82.13000000    44.87000000    12.81000000
   O     81.75000000    47.01000000    12.90000000
   H     79.65000000    48.23000000    12.57000000
   H     77.90000000    45.83000000    12.48000000
   H     79.95000000    46.27000000    11.07000000
   H     79.68000000    44.69000000    11.82000000
   H     81.70000000    43.95000000    12.77000000
   H     83.12000000    44.95000000    13.02000000
   N     79.02000000    46.94000000    15.24000000
   C     79.04000000    46.69000000    16.67000000
   C     80.36000000    46.89000000    17.40000000
   O     80.43000000    46.84000000    18.63000000
   H     79.15000000    47.85000000    14.85000000
   H     78.91000000    45.65000000    16.97000000
   H     78.25000000    47.21000000    17.23000000
   N     81.46000000    47.09000000    16.69000000
   C     82.80000000    47.28000000    17.21000000
   C     83.52000000    48.46000000    16.58000000
   O     83.63000000    48.53000000    15.35000000
   C     83.59000000    46.01000000    16.90000000
   C     83.14000000    44.73000000    17.56000000
   C     83.68000000    44.32000000    18.79000000
   C     82.20000000    43.92000000    16.92000000
   C     83.11000000    43.20000000    19.42000000
   C     81.75000000    42.75000000    17.55000000
   C     82.09000000    42.41000000    18.87000000
   O     81.57000000    41.31000000    19.49000000
   H     81.43000000    46.80000000    15.72000000
   H     82.81000000    47.50000000    18.28000000
   H     84.65000000    46.08000000    17.13000000
   H     83.42000000    45.78000000    15.85000000
   H     84.46000000    44.88000000    19.28000000
   H     81.79000000    44.08000000    15.93000000
   H     83.47000000    42.87000000    20.38000000
   H     80.96000000    42.21000000    17.04000000
   H     80.81000000    40.97000000    19.01000000
   N     84.04000000    49.41000000    17.36000000
   C     84.86000000    50.52000000    16.92000000
   C     86.30000000    50.05000000    16.74000000
   O     86.91000000    49.40000000    17.58000000
   C     84.79000000    51.76000000    17.81000000
   C     83.39000000    52.34000000    17.99000000
   C     85.70000000    52.92000000    17.43000000
   C     83.19000000    53.14000000    19.27000000
   H     83.90000000    49.25000000    18.34000000
   H     84.40000000    50.77000000    15.96000000
   H     85.18000000    51.45000000    18.77000000
   H     82.66000000    51.53000000    17.95000000
   H     83.12000000    53.03000000    17.19000000
   H     85.60000000    53.36000000    16.44000000
   H     85.49000000    53.76000000    18.10000000
   H     86.71000000    52.54000000    17.62000000
   H     83.78000000    54.06000000    19.30000000
   H     82.17000000    53.44000000    19.52000000
   H     83.49000000    52.48000000    20.08000000
   N     86.91000000    50.54000000    15.66000000
   C     88.33000000    50.41000000    15.38000000
   C     89.12000000    51.65000000    15.78000000
   O     88.62000000    52.76000000    15.94000000
   C     88.56000000    50.01000000    13.93000000
   O     88.19000000    50.92000000    12.92000000
   H     86.40000000    50.88000000    14.86000000
   H     88.76000000    49.67000000    16.06000000
   H     88.02000000    49.06000000    13.85000000
   H     89.61000000    49.71000000    13.90000000
   H     88.25000000    50.55000000    12.04000000
   N     90.45000000    51.61000000    15.67000000
   C     91.34000000    52.73000000    15.94000000
   C     91.33000000    53.75000000    14.81000000
   O     91.31000000    54.97000000    14.93000000
   C     92.71000000    52.17000000    16.31000000
   H     90.90000000    50.73000000    15.47000000
   H     90.93000000    53.25000000    16.80000000
   H     92.65000000    51.49000000    17.16000000
   H     93.11000000    51.61000000    15.46000000
   H     93.35000000    53.00000000    16.59000000
   N     91.23000000    53.20000000    13.59000000
   C     90.90000000    54.02000000    12.44000000
   C     89.53000000    54.68000000    12.47000000
   O     89.36000000    55.84000000    12.10000000
   C     91.23000000    53.27000000    11.15000000
   H     91.08000000    52.20000000    13.54000000
   H     91.54000000    54.89000000    12.39000000
   H     90.92000000    53.82000000    10.26000000
   H     92.27000000    52.96000000    11.21000000
   H     90.64000000    52.36000000    11.08000000
   N     88.47000000    54.00000000    12.92000000
   C     87.19000000    54.62000000    13.19000000
   C     87.28000000    55.81000000    14.13000000
   O     86.68000000    56.86000000    13.89000000
   C     86.15000000    53.55000000    13.53000000
   C     85.55000000    52.81000000    12.34000000
   C     84.68000000    51.61000000    12.72000000
   O     83.64000000    51.39000000    12.07000000
   O     85.12000000    50.79000000    13.56000000
   H     88.55000000    53.01000000    13.05000000
   H     86.84000000    55.07000000    12.25000000
   H     85.27000000    53.99000000    14.00000000
   H     86.63000000    52.87000000    14.24000000
   H     86.32000000    52.42000000    11.68000000
   H     84.98000000    53.56000000    11.80000000
   N     87.95000000    55.64000000    15.28000000
   C     88.16000000    56.68000000    16.26000000
   H     88.94600000    57.35100000    15.91400000
   H     87.23700000    57.24300000    16.39700000
   H     88.45700000    56.23200000    17.20800000
   H     88.41000000    54.76000000    15.46000000
  Ca     83.43000000    48.93000000    12.74000000
   O     85.46000000    47.32000000    13.28000000
   H     85.65000000    46.96000000    12.41000000
   H     85.93000000    46.75000000    13.89000000

Ca 1.70



