%chk=CaMKII_loop3_10.0.chk
%nprocshared=48
%mem=10GB
%nosave
#b3lyp/svp scf=(tight,noincore) Test 
#IOP(5/87=12) Density=Current Pop=(MK,readradii) iop(6/33=2) iop(6/42=6)

CaMKII_loop3_10.0 

   0   1
   C     81.21000000    55.19000000    20.65000000
   C     81.09000000    53.78000000    20.09000000
   O     81.76000000    53.48000000    19.11000000
   H     81.97800000    55.73400000    20.10100000
   H     80.25500000    55.70600000    20.54500000
   H     81.48400000    55.14100000    21.70400000
   N     80.10000000    53.01000000    20.55000000
   C     79.87000000    51.70000000    19.99000000
   C     79.33000000    51.70000000    18.56000000
   O     78.18000000    52.02000000    18.28000000
   C     78.83000000    51.02000000    20.88000000
   C     78.59000000    49.55000000    20.60000000
   O     77.64000000    48.98000000    21.19000000
   O     79.31000000    48.93000000    19.79000000
   H     79.53000000    53.35000000    21.32000000
   H     80.80000000    51.13000000    19.86000000
   H     77.86000000    51.51000000    20.79000000
   H     79.14000000    51.01000000    21.92000000
   N     80.17000000    51.21000000    17.65000000
   C     80.23000000    51.58000000    16.25000000
   C     79.69000000    50.48000000    15.35000000
   O     79.27000000    50.78000000    14.23000000
   C     81.68000000    51.96000000    15.96000000
   C     81.91000000    52.69000000    14.64000000
   C     83.37000000    52.91000000    14.25000000
   C     84.00000000    51.53000000    14.03000000
   N     84.88000000    51.58000000    12.85000000
   H     81.04000000    50.87000000    18.04000000
   H     79.60000000    52.42000000    15.98000000
   H     82.37000000    51.11000000    15.99000000
   H     82.04000000    52.57000000    16.78000000
   H     81.56000000    53.69000000    14.87000000
   H     81.36000000    52.25000000    13.81000000
   H     83.91000000    53.48000000    15.00000000
   H     83.37000000    53.50000000    13.33000000
   H     83.29000000    50.72000000    13.97000000
   H     84.64000000    51.33000000    14.90000000
   H     84.28000000    51.90000000    12.11000000
   H     85.61000000    52.26000000    12.99000000
   H     85.21000000    50.64000000    12.67000000
   N     79.71000000    49.26000000    15.89000000
   C     78.85000000    48.17000000    15.46000000
   C     77.64000000    47.83000000    16.31000000
   O     76.98000000    46.80000000    16.19000000
   C     79.74000000    46.97000000    15.15000000
   C     80.56000000    46.35000000    16.27000000
   O     81.45000000    45.49000000    16.04000000
   O     80.31000000    46.56000000    17.47000000
   H     80.15000000    49.19000000    16.79000000
   H     78.44000000    48.42000000    14.48000000
   H     80.41000000    47.23000000    14.33000000
   H     79.12000000    46.15000000    14.77000000
   N     77.29000000    48.77000000    17.20000000
   C     76.22000000    48.69000000    18.16000000
   C     76.09000000    47.46000000    19.06000000
   O     74.98000000    47.27000000    19.57000000
   H     77.89000000    49.58000000    17.25000000
   H     75.30000000    48.83000000    17.59000000
   H     76.39000000    49.48000000    18.89000000
   N     77.13000000    46.67000000    19.31000000
   C     77.09000000    45.36000000    19.95000000
   C     76.97000000    45.38000000    21.46000000
   O     76.95000000    44.34000000    22.12000000
   C     78.30000000    44.60000000    19.40000000
   C     79.49000000    44.64000000    20.34000000
   N     79.95000000    43.52000000    20.91000000
   O     80.04000000    45.70000000    20.64000000
   H     78.05000000    46.98000000    19.07000000
   H     76.23000000    44.78000000    19.63000000
   H     78.63000000    45.02000000    18.45000000
   H     78.01000000    43.57000000    19.20000000
   H     79.55000000    42.64000000    20.63000000
   H     80.73000000    43.57000000    21.55000000
   N     76.82000000    46.53000000    22.13000000
   C     76.78000000    46.51000000    23.57000000
   C     78.06000000    46.89000000    24.30000000
   O     77.95000000    47.01000000    25.52000000
   H     77.06000000    47.38000000    21.64000000
   H     76.37000000    45.61000000    24.03000000
   H     76.04000000    47.26000000    23.88000000
   N     79.17000000    47.02000000    23.58000000
   C     80.49000000    47.30000000    24.09000000
   C     81.28000000    48.37000000    23.35000000
   O     81.17000000    48.55000000    22.14000000
   C     81.23000000    45.99000000    24.34000000
   C     80.51000000    44.84000000    25.01000000
   C     80.70000000    44.60000000    26.38000000
   C     79.67000000    44.06000000    24.22000000
   C     80.13000000    43.45000000    26.94000000
   C     79.05000000    42.95000000    24.81000000
   C     79.29000000    42.63000000    26.16000000
   O     78.80000000    41.49000000    26.71000000
   H     79.04000000    47.12000000    22.58000000
   H     80.38000000    47.80000000    25.05000000
   H     82.10000000    46.19000000    24.97000000
   H     81.62000000    45.64000000    23.39000000
   H     81.20000000    45.33000000    27.00000000
   H     79.47000000    44.36000000    23.20000000
   H     80.27000000    43.25000000    27.99000000
   H     78.48000000    42.27000000    24.19000000
   H     78.23000000    41.02000000    26.10000000
   N     82.30000000    48.99000000    23.95000000
   C     83.27000000    49.92000000    23.40000000
   C     84.69000000    49.38000000    23.47000000
   O     85.19000000    48.97000000    24.51000000
   C     83.20000000    51.28000000    24.09000000
   C     81.81000000    51.87000000    23.87000000
   C     84.30000000    52.18000000    23.52000000
   C     81.58000000    53.12000000    24.73000000
   H     82.23000000    48.84000000    24.95000000
   H     83.04000000    50.04000000    22.34000000
   H     83.34000000    51.28000000    25.17000000
   H     81.04000000    51.10000000    23.96000000
   H     81.62000000    52.24000000    22.86000000
   H     85.20000000    51.83000000    24.03000000
   H     84.29000000    52.10000000    22.43000000
   H     84.11000000    53.24000000    23.63000000
   H     82.30000000    53.89000000    24.44000000
   H     80.55000000    53.47000000    24.66000000
   H     81.80000000    52.79000000    25.74000000
   N     85.45000000    49.40000000    22.37000000
   C     86.83000000    48.95000000    22.33000000
   C     87.71000000    50.17000000    22.12000000
   O     87.28000000    51.29000000    21.87000000
   C     86.95000000    47.93000000    21.20000000
   O     87.01000000    48.60000000    19.96000000
   H     85.14000000    49.83000000    21.51000000
   H     87.23000000    48.55000000    23.26000000
   H     86.03000000    47.34000000    21.19000000
   H     87.81000000    47.31000000    21.43000000
   H     86.85000000    47.94000000    19.28000000
   N     89.02000000    49.95000000    22.22000000
   C     90.00000000    51.00000000    22.02000000
   C     89.92000000    51.55000000    20.60000000
   O     89.88000000    52.77000000    20.46000000
   C     91.38000000    50.44000000    22.34000000
   H     89.38000000    49.00000000    22.28000000
   H     89.76000000    51.75000000    22.77000000
   H     92.06000000    51.28000000    22.24000000
   H     91.50000000    50.10000000    23.37000000
   H     91.64000000    49.61000000    21.69000000
   N     89.86000000    50.68000000    19.58000000
   C     89.61000000    51.13000000    18.23000000
   C     88.44000000    52.07000000    17.99000000
   O     88.50000000    53.08000000    17.29000000
   C     89.42000000    49.98000000    17.25000000
   H     89.71000000    49.72000000    19.86000000
   H     90.52000000    51.63000000    17.88000000
   H     89.40000000    50.26000000    16.20000000
   H     90.13000000    49.17000000    17.44000000
   H     88.43000000    49.53000000    17.34000000
   N     87.29000000    51.80000000    18.61000000
   C     86.12000000    52.64000000    18.78000000
   C     86.34000000    53.93000000    19.57000000
   O     85.79000000    54.96000000    19.19000000
   C     84.97000000    51.78000000    19.28000000
   C     84.49000000    50.77000000    18.24000000
   C     83.29000000    49.94000000    18.67000000
   O     83.11000000    49.62000000    19.86000000
   O     82.52000000    49.41000000    17.83000000
   H     87.15000000    50.84000000    18.92000000
   H     85.86000000    52.94000000    17.77000000
   H     84.13000000    52.46000000    19.46000000
   H     85.28000000    51.28000000    20.20000000
   H     85.28000000    50.03000000    18.15000000
   H     84.28000000    51.28000000    17.30000000
   N     87.16000000    53.93000000    20.62000000
   C     87.40000000    55.16000000    21.35000000
   H     88.24500000    55.68600000    20.90600000
   H     86.51300000    55.79100000    21.30100000
   H     87.62400000    54.92800000    22.39100000
   H     87.62000000    53.07000000    20.89000000
  Ca     81.51000000    47.60000000    19.67000000
   O     83.24000000    46.15000000    21.09000000
   H     84.02000000    46.36000000    21.60000000
   H     83.02000000    45.25000000    21.32000000

Ca 1.70



