%chk=CaMKII_loop3_16.0.chk
%nprocshared=48
%mem=10GB
%nosave
#b3lyp/svp scf=(tight,noincore) Test 
#IOP(5/87=12) Density=Current Pop=(MK,readradii) iop(6/33=2) iop(6/42=6)

CaMKII_loop3_16.0 

   0   1
   C     85.67000000    66.48000000    29.83000000
   C     85.19000000    66.18000000    31.25000000
   O     85.79000000    65.35000000    31.93000000
   H     86.69800000    66.13600000    29.71400000
   H     85.03200000    65.96300000    29.11300000
   H     85.62500000    67.55400000    29.65000000
   N     84.09000000    66.74000000    31.75000000
   C     83.55000000    66.41000000    33.05000000
   C     82.88000000    65.04000000    32.97000000
   O     82.06000000    64.85000000    32.08000000
   C     82.61000000    67.55000000    33.42000000
   C     82.10000000    67.49000000    34.85000000
   O     82.25000000    66.40000000    35.45000000
   O     81.59000000    68.50000000    35.37000000
   H     83.58000000    67.40000000    31.17000000
   H     84.32000000    66.40000000    33.83000000
   H     81.75000000    67.61000000    32.75000000
   H     83.22000000    68.46000000    33.39000000
   N     83.13000000    64.14000000    33.92000000
   C     82.68000000    62.77000000    33.71000000
   C     81.29000000    62.53000000    34.26000000
   O     80.56000000    61.62000000    33.87000000
   C     83.75000000    61.84000000    34.28000000
   C     83.80000000    60.44000000    33.67000000
   C     85.01000000    59.67000000    34.19000000
   C     85.02000000    58.27000000    33.58000000
   N     85.97000000    57.31000000    34.16000000
   H     83.70000000    64.43000000    34.70000000
   H     82.67000000    62.57000000    32.64000000
   H     83.68000000    61.72000000    35.36000000
   H     84.79000000    62.10000000    34.13000000
   H     83.91000000    60.60000000    32.59000000
   H     82.85000000    59.97000000    33.92000000
   H     84.88000000    59.60000000    35.27000000
   H     85.93000000    60.18000000    33.89000000
   H     85.28000000    58.35000000    32.53000000
   H     83.98000000    57.97000000    33.70000000
   H     85.74000000    57.30000000    35.15000000
   H     85.96000000    56.41000000    33.72000000
   H     86.94000000    57.58000000    34.08000000
   N     80.90000000    63.40000000    35.20000000
   C     79.55000000    63.41000000    35.73000000
   C     78.68000000    64.62000000    35.43000000
   O     77.46000000    64.58000000    35.51000000
   C     79.66000000    63.22000000    37.25000000
   C     80.55000000    64.22000000    37.96000000
   O     80.50000000    65.45000000    37.78000000
   O     81.48000000    63.78000000    38.68000000
   H     81.64000000    63.99000000    35.55000000
   H     78.95000000    62.54000000    35.47000000
   H     79.81000000    62.16000000    37.45000000
   H     78.66000000    63.41000000    37.65000000
   N     79.36000000    65.73000000    35.09000000
   C     78.70000000    66.99000000    34.83000000
   C     78.33000000    67.91000000    35.99000000
   O     77.50000000    68.80000000    35.80000000
   H     80.36000000    65.80000000    35.14000000
   H     77.77000000    66.85000000    34.28000000
   H     79.38000000    67.56000000    34.19000000
   N     78.93000000    67.81000000    37.18000000
   C     78.62000000    68.69000000    38.29000000
   C     79.08000000    70.13000000    38.14000000
   O     78.74000000    70.92000000    39.02000000
   C     79.05000000    68.09000000    39.62000000
   C     80.57000000    68.13000000    39.77000000
   N     81.05000000    68.28000000    41.01000000
   O     81.37000000    68.01000000    38.84000000
   H     79.56000000    67.03000000    37.30000000
   H     77.54000000    68.78000000    38.37000000
   H     78.69000000    67.07000000    39.76000000
   H     78.58000000    68.69000000    40.40000000
   H     80.38000000    68.26000000    41.76000000
   H     82.04000000    68.24000000    41.20000000
   N     79.98000000    70.45000000    37.20000000
   C     80.56000000    71.77000000    37.09000000
   C     82.08000000    71.86000000    37.17000000
   O     82.65000000    72.95000000    37.08000000
   H     80.32000000    69.82000000    36.49000000
   H     80.24000000    72.42000000    37.91000000
   H     80.23000000    72.21000000    36.16000000
   N     82.79000000    70.77000000    37.46000000
   C     84.22000000    70.78000000    37.68000000
   C     84.85000000    69.50000000    37.12000000
   O     84.24000000    68.44000000    37.25000000
   C     84.64000000    70.86000000    39.14000000
   C     83.87000000    71.83000000    40.00000000
   C     84.25000000    73.18000000    40.08000000
   C     82.84000000    71.38000000    40.84000000
   C     83.72000000    73.98000000    41.10000000
   C     82.28000000    72.21000000    41.82000000
   C     82.80000000    73.50000000    42.05000000
   O     82.34000000    74.29000000    43.07000000
   H     82.29000000    69.89000000    37.50000000
   H     84.70000000    71.60000000    37.14000000
   H     85.65000000    71.26000000    39.04000000
   H     84.48000000    69.93000000    39.69000000
   H     85.06000000    73.55000000    39.48000000
   H     82.63000000    70.33000000    40.79000000
   H     84.12000000    74.99000000    41.16000000
   H     81.54000000    71.74000000    42.44000000
   H     81.62000000    73.84000000    43.53000000
   N     85.99000000    69.64000000    36.45000000
   C     86.80000000    68.55000000    35.94000000
   C     87.91000000    68.29000000    36.96000000
   O     88.49000000    69.30000000    37.36000000
   C     87.39000000    69.02000000    34.61000000
   C     86.39000000    69.53000000    33.58000000
   C     88.14000000    67.88000000    33.93000000
   C     86.99000000    70.27000000    32.39000000
   H     86.22000000    70.58000000    36.16000000
   H     86.27000000    67.61000000    35.79000000
   H     88.16000000    69.76000000    34.86000000
   H     85.62000000    70.19000000    33.99000000
   H     85.79000000    68.69000000    33.24000000
   H     87.59000000    67.29000000    33.19000000
   H     88.88000000    68.33000000    33.27000000
   H     88.58000000    67.24000000    34.69000000
   H     88.00000000    69.95000000    32.12000000
   H     86.34000000    70.17000000    31.52000000
   H     86.98000000    71.33000000    32.66000000
   N     88.19000000    67.04000000    37.32000000
   C     89.39000000    66.70000000    38.06000000
   C     90.42000000    65.83000000    37.35000000
   O     90.21000000    65.43000000    36.21000000
   C     89.01000000    66.03000000    39.38000000
   O     88.25000000    64.93000000    38.93000000
   H     87.56000000    66.31000000    37.04000000
   H     90.02000000    67.57000000    38.25000000
   H     88.31000000    66.63000000    39.96000000
   H     89.90000000    65.75000000    39.94000000
   H     88.21000000    64.37000000    39.71000000
   N     91.57000000    65.56000000    37.96000000
   C     92.70000000    64.93000000    37.30000000
   C     92.41000000    63.48000000    36.92000000
   O     92.85000000    63.00000000    35.88000000
   C     93.87000000    65.00000000    38.28000000
   H     91.76000000    65.98000000    38.86000000
   H     92.90000000    65.41000000    36.34000000
   H     93.98000000    66.02000000    38.64000000
   H     93.80000000    64.31000000    39.12000000
   H     94.74000000    64.59000000    37.76000000
   N     91.56000000    62.77000000    37.67000000
   C     91.03000000    61.47000000    37.30000000
   C     90.01000000    61.55000000    36.17000000
   O     89.98000000    60.68000000    35.31000000
   C     90.39000000    60.77000000    38.49000000
   H     91.19000000    63.20000000    38.50000000
   H     91.85000000    60.85000000    36.94000000
   H     91.14000000    60.52000000    39.25000000
   H     89.59000000    61.37000000    38.94000000
   H     89.97000000    59.85000000    38.09000000
   N     89.14000000    62.56000000    36.10000000
   C     88.19000000    62.70000000    35.02000000
   C     88.95000000    63.13000000    33.78000000
   O     88.66000000    62.61000000    32.70000000
   C     87.04000000    63.64000000    35.39000000
   C     86.19000000    63.19000000    36.58000000
   C     85.16000000    64.27000000    36.89000000
   O     83.97000000    63.91000000    36.88000000
   O     85.44000000    65.45000000    37.20000000
   H     89.34000000    63.29000000    36.78000000
   H     87.83000000    61.69000000    34.82000000
   H     86.39000000    63.64000000    34.52000000
   H     87.53000000    64.60000000    35.52000000
   H     86.78000000    63.09000000    37.49000000
   H     85.75000000    62.20000000    36.45000000
   N     89.95000000    64.00000000    33.93000000
   C     90.74000000    64.43000000    32.79000000
   H     91.72500000    63.96600000    32.83600000
   H     90.24100000    64.13100000    31.86800000
   H     90.84800000    65.51400000    32.81000000
   H     90.05000000    64.44000000    34.84000000
  Ca     82.99000000    66.17000000    38.00000000
   O     82.93000000    65.70000000    40.73000000
   H     83.76000000    65.38000000    41.09000000
   H     82.26000000    65.36000000    41.33000000

Ca 1.70



