%chk=CaMKII_loop3_17.0.chk
%nprocshared=48
%mem=10GB
%nosave
#b3lyp/svp scf=(tight,noincore) Test 
#IOP(5/87=12) Density=Current Pop=(MK,readradii) iop(6/33=2) iop(6/42=6)

CaMKII_loop3_17.0 

   0   1
   C     88.05000000    65.14000000    32.13000000
   C     87.97000000    65.03000000    33.65000000
   O     88.93000000    64.47000000    34.17000000
   H     89.06600000    65.40600000    31.83900000
   H     87.78300000    64.18300000    31.68100000
   H     87.36000000    65.91000000    31.78400000
   N     87.03000000    65.60000000    34.41000000
   C     86.74000000    65.30000000    35.80000000
   C     85.99000000    63.98000000    35.88000000
   O     84.91000000    63.77000000    35.33000000
   C     85.99000000    66.46000000    36.45000000
   C     85.74000000    66.20000000    37.93000000
   O     85.97000000    65.11000000    38.51000000
   O     85.04000000    67.07000000    38.50000000
   H     86.29000000    66.07000000    33.91000000
   H     87.72000000    65.34000000    36.27000000
   H     85.06000000    66.72000000    35.95000000
   H     86.58000000    67.36000000    36.27000000
   N     86.64000000    63.01000000    36.53000000
   C     86.30000000    61.60000000    36.58000000
   C     85.02000000    61.28000000    37.35000000
   O     84.23000000    60.45000000    36.90000000
   C     87.50000000    60.84000000    37.13000000
   C     87.44000000    59.33000000    36.92000000
   C     88.80000000    58.65000000    37.11000000
   C     88.77000000    57.14000000    37.28000000
   N     90.08000000    56.61000000    37.71000000
   H     87.48000000    63.23000000    37.04000000
   H     86.21000000    61.22000000    35.56000000
   H     87.58000000    60.99000000    38.21000000
   H     88.38000000    61.23000000    36.62000000
   H     87.09000000    59.30000000    35.89000000
   H     86.67000000    58.91000000    37.57000000
   H     89.19000000    59.09000000    38.02000000
   H     89.41000000    58.90000000    36.24000000
   H     88.47000000    56.71000000    36.33000000
   H     88.08000000    56.94000000    38.10000000
   H     89.94000000    55.68000000    38.06000000
   H     90.69000000    56.47000000    36.91000000
   H     90.47000000    57.22000000    38.41000000
   N     84.82000000    62.06000000    38.41000000
   C     83.83000000    61.90000000    39.46000000
   C     82.74000000    62.96000000    39.46000000
   O     81.73000000    62.71000000    40.11000000
   C     84.46000000    61.80000000    40.84000000
   C     85.46000000    62.88000000    41.23000000
   O     85.13000000    64.07000000    41.02000000
   O     86.67000000    62.66000000    41.43000000
   H     85.58000000    62.70000000    38.55000000
   H     83.37000000    60.94000000    39.21000000
   H     84.91000000    60.80000000    40.85000000
   H     83.66000000    61.85000000    41.58000000
   N     82.98000000    64.15000000    38.91000000
   C     82.12000000    65.31000000    38.80000000
   C     82.00000000    66.11000000    40.09000000
   O     80.95000000    66.72000000    40.29000000
   H     83.92000000    64.25000000    38.53000000
   H     81.16000000    65.00000000    38.37000000
   H     82.62000000    65.92000000    38.05000000
   N     83.06000000    66.20000000    40.91000000
   C     83.08000000    67.11000000    42.03000000
   C     83.42000000    68.57000000    41.74000000
   O     83.24000000    69.37000000    42.65000000
   C     84.03000000    66.53000000    43.06000000
   C     85.49000000    66.91000000    42.83000000
   N     86.11000000    67.45000000    43.89000000
   O     86.09000000    66.91000000    41.76000000
   H     83.90000000    65.70000000    40.66000000
   H     82.06000000    67.04000000    42.43000000
   H     83.91000000    65.45000000    43.13000000
   H     83.83000000    67.01000000    44.02000000
   H     85.52000000    67.55000000    44.70000000
   H     87.08000000    67.71000000    43.90000000
   N     83.93000000    68.93000000    40.57000000
   C     84.27000000    70.29000000    40.20000000
   C     85.60000000    70.45000000    39.47000000
   O     85.75000000    71.55000000    38.94000000
   H     84.15000000    68.21000000    39.89000000
   H     84.55000000    70.75000000    41.15000000
   H     83.42000000    70.83000000    39.77000000
   N     86.46000000    69.43000000    39.44000000
   C     87.89000000    69.63000000    39.33000000
   C     88.65000000    68.43000000    38.78000000
   O     88.17000000    67.33000000    39.04000000
   C     88.58000000    69.94000000    40.66000000
   C     88.01000000    71.04000000    41.53000000
   C     88.44000000    72.37000000    41.40000000
   C     86.98000000    70.72000000    42.42000000
   C     87.89000000    73.38000000    42.20000000
   C     86.46000000    71.72000000    43.26000000
   C     87.05000000    73.00000000    43.26000000
   O     86.71000000    73.94000000    44.19000000
   H     86.12000000    68.51000000    39.69000000
   H     88.16000000    70.48000000    38.71000000
   H     89.58000000    70.31000000    40.42000000
   H     88.79000000    69.01000000    41.18000000
   H     89.17000000    72.54000000    40.62000000
   H     86.65000000    69.69000000    42.35000000
   H     88.27000000    74.38000000    42.08000000
   H     85.63000000    71.49000000    43.91000000
   H     86.13000000    73.49000000    44.81000000
   N     89.66000000    68.69000000    37.94000000
   C     90.58000000    67.73000000    37.37000000
   C     91.76000000    67.62000000    38.32000000
   O     92.24000000    68.61000000    38.87000000
   C     90.96000000    68.04000000    35.92000000
   C     89.92000000    68.77000000    35.09000000
   C     91.45000000    66.81000000    35.16000000
   C     90.41000000    69.48000000    33.84000000
   H     89.90000000    69.65000000    37.75000000
   H     90.13000000    66.74000000    37.28000000
   H     91.80000000    68.72000000    36.09000000
   H     89.48000000    69.54000000    35.74000000
   H     89.14000000    68.04000000    34.87000000
   H     91.79000000    67.07000000    34.16000000
   H     92.26000000    66.36000000    35.74000000
   H     90.67000000    66.06000000    35.06000000
   H     90.63000000    68.69000000    33.12000000
   H     89.63000000    70.13000000    33.45000000
   H     91.34000000    70.00000000    34.05000000
   N     92.40000000    66.46000000    38.41000000
   C     93.69000000    66.23000000    39.04000000
   C     94.40000000    65.23000000    38.14000000
   O     93.85000000    64.78000000    37.13000000
   C     93.48000000    65.71000000    40.46000000
   O     92.83000000    64.46000000    40.44000000
   H     92.08000000    65.68000000    37.86000000
   H     94.28000000    67.14000000    39.02000000
   H     92.98000000    66.52000000    41.00000000
   H     94.36000000    65.42000000    41.02000000
   H     91.88000000    64.57000000    40.40000000
   N     95.69000000    64.98000000    38.40000000
   C     96.59000000    64.34000000    37.46000000
   C     96.13000000    62.93000000    37.17000000
   O     96.16000000    62.61000000    35.98000000
   C     98.02000000    64.38000000    38.00000000
   H     96.11000000    65.53000000    39.13000000
   H     96.52000000    64.92000000    36.54000000
   H     98.64000000    64.13000000    37.15000000
   H     98.32000000    65.39000000    38.28000000
   H     98.04000000    63.75000000    38.89000000
   N     95.69000000    62.15000000    38.16000000
   C     95.24000000    60.79000000    37.93000000
   C     94.07000000    60.73000000    36.95000000
   O     93.99000000    59.82000000    36.13000000
   C     94.87000000    60.14000000    39.26000000
   H     95.69000000    62.48000000    39.12000000
   H     96.10000000    60.32000000    37.45000000
   H     94.05000000    60.71000000    39.71000000
   H     94.47000000    59.15000000    39.03000000
   H     95.72000000    60.15000000    39.94000000
   N     93.19000000    61.72000000    37.11000000
   C     91.95000000    61.83000000    36.37000000
   C     92.23000000    62.32000000    34.96000000
   O     91.62000000    61.83000000    34.02000000
   C     91.03000000    62.76000000    37.17000000
   C     90.62000000    62.38000000    38.59000000
   C     89.74000000    63.41000000    39.27000000
   O     88.62000000    63.71000000    38.80000000
   O     90.06000000    63.94000000    40.36000000
   H     93.37000000    62.40000000    37.84000000
   H     91.45000000    60.86000000    36.29000000
   H     90.09000000    62.88000000    36.64000000
   H     91.46000000    63.76000000    37.26000000
   H     91.52000000    62.21000000    39.18000000
   H     90.08000000    61.44000000    38.61000000
   N     93.25000000    63.18000000    34.82000000
   C     93.62000000    63.65000000    33.50000000
   H     94.65200000    63.37000000    33.29100000
   H     92.96400000    63.19800000    32.75600000
   H     93.52400000    64.73500000    33.46000000
   H     93.83000000    63.49000000    35.59000000
  Ca     87.44000000    65.04000000    40.53000000
   O     89.50000000    66.61000000    41.57000000
   H     90.28000000    66.27000000    42.01000000
   H     89.35000000    67.47000000    41.96000000

Ca 1.70



