%chk=CaMKII_loop3_8.0.chk
%nprocshared=48
%mem=10GB
%nosave
#b3lyp/svp scf=(tight,noincore) Test 
#IOP(5/87=12) Density=Current Pop=(MK,readradii) iop(6/33=2) iop(6/42=6)

CaMKII_loop3_8.0 

   0   1
   C     76.85000000    55.24000000    15.95000000
   C     76.90000000    53.89000000    15.24000000
   O     77.97000000    53.51000000    14.75000000
   H     75.81800000    55.58700000    15.99700000
   H     77.24400000    55.13400000    16.96100000
   H     77.45100000    55.96300000    15.39900000
   N     75.86000000    53.06000000    15.14000000
   C     75.81000000    51.84000000    14.36000000
   C     75.70000000    52.19000000    12.88000000
   O     74.71000000    52.80000000    12.46000000
   C     74.62000000    51.04000000    14.89000000
   C     74.58000000    49.61000000    14.37000000
   O     73.62000000    48.91000000    14.78000000
   O     75.34000000    49.24000000    13.45000000
   H     75.02000000    53.44000000    15.56000000
   H     76.72000000    51.27000000    14.49000000
   H     73.68000000    51.45000000    14.55000000
   H     74.69000000    50.94000000    15.98000000
   N     76.67000000    51.84000000    12.04000000
   C     76.79000000    52.31000000    10.67000000
   C     75.98000000    51.40000000     9.75000000
   O     75.53000000    51.80000000     8.68000000
   C     78.26000000    52.53000000    10.33000000
   C     78.37000000    53.52000000     9.18000000
   C     79.85000000    53.73000000     8.87000000
   C     80.04000000    54.44000000     7.53000000
   N     81.48000000    54.50000000     7.26000000
   H     77.49000000    51.35000000    12.37000000
   H     76.38000000    53.31000000    10.54000000
   H     78.61000000    51.56000000     9.98000000
   H     78.70000000    52.90000000    11.26000000
   H     78.01000000    54.51000000     9.47000000
   H     77.88000000    53.17000000     8.28000000
   H     80.25000000    52.72000000     8.82000000
   H     80.35000000    54.30000000     9.66000000
   H     79.70000000    55.47000000     7.62000000
   H     79.45000000    53.89000000     6.79000000
   H     81.89000000    55.14000000     7.92000000
   H     81.97000000    53.61000000     7.29000000
   H     81.63000000    54.90000000     6.34000000
   N     75.76000000    50.13000000    10.12000000
   C     75.06000000    49.12000000     9.35000000
   C     73.70000000    48.80000000     9.94000000
   O     72.86000000    48.28000000     9.20000000
   C     76.04000000    47.94000000     9.35000000
   C     76.50000000    47.45000000    10.71000000
   O     77.53000000    47.89000000    11.28000000
   O     75.75000000    46.71000000    11.37000000
   H     76.19000000    49.76000000    10.95000000
   H     74.80000000    49.53000000     8.38000000
   H     76.86000000    48.26000000     8.70000000
   H     75.46000000    47.17000000     8.85000000
   N     73.49000000    48.99000000    11.24000000
   C     72.18000000    49.18000000    11.82000000
   C     71.55000000    47.82000000    12.14000000
   O     70.53000000    47.48000000    11.54000000
   H     74.24000000    49.32000000    11.84000000
   H     71.62000000    49.79000000    11.12000000
   H     72.22000000    49.68000000    12.79000000
   N     72.22000000    47.09000000    13.02000000
   C     71.95000000    45.72000000    13.43000000
   C     71.56000000    45.66000000    14.90000000
   O     70.66000000    44.87000000    15.17000000
   C     73.00000000    44.77000000    12.88000000
   C     74.35000000    44.95000000    13.56000000
   N     75.16000000    43.89000000    13.58000000
   O     74.70000000    45.93000000    14.22000000
   H     73.06000000    47.48000000    13.43000000
   H     71.01000000    45.58000000    12.89000000
   H     73.06000000    44.80000000    11.79000000
   H     72.62000000    43.79000000    13.14000000
   H     74.94000000    43.15000000    12.93000000
   H     76.07000000    43.93000000    14.00000000
   N     72.04000000    46.61000000    15.70000000
   C     71.91000000    46.88000000    17.12000000
   C     73.11000000    46.56000000    17.99000000
   O     72.97000000    46.19000000    19.16000000
   H     72.48000000    47.35000000    15.17000000
   H     70.98000000    46.51000000    17.56000000
   H     71.81000000    47.95000000    17.32000000
   N     74.31000000    46.72000000    17.43000000
   C     75.59000000    46.65000000    18.10000000
   C     76.43000000    47.79000000    17.56000000
   O     76.54000000    47.91000000    16.34000000
   C     76.27000000    45.29000000    17.96000000
   C     76.01000000    44.21000000    18.98000000
   C     76.43000000    44.36000000    20.31000000
   C     75.31000000    43.06000000    18.59000000
   C     76.17000000    43.34000000    21.23000000
   C     74.96000000    42.06000000    19.50000000
   C     75.39000000    42.23000000    20.83000000
   O     75.01000000    41.34000000    21.79000000
   H     74.34000000    47.07000000    16.48000000
   H     75.47000000    46.82000000    19.17000000
   H     77.35000000    45.44000000    18.00000000
   H     76.05000000    44.82000000    17.00000000
   H     76.94000000    45.24000000    20.66000000
   H     75.08000000    42.93000000    17.54000000
   H     76.42000000    43.42000000    22.28000000
   H     74.42000000    41.15000000    19.32000000
   H     74.40000000    40.73000000    21.39000000
   N     77.09000000    48.62000000    18.37000000
   C     78.22000000    49.43000000    17.98000000
   C     79.50000000    48.62000000    18.14000000
   O     79.65000000    47.86000000    19.10000000
   C     78.28000000    50.68000000    18.85000000
   C     76.93000000    51.31000000    19.17000000
   C     79.12000000    51.68000000    18.06000000
   C     77.05000000    52.33000000    20.31000000
   H     77.08000000    48.38000000    19.35000000
   H     78.22000000    49.72000000    16.93000000
   H     78.80000000    50.44000000    19.78000000
   H     76.29000000    50.49000000    19.50000000
   H     76.56000000    51.72000000    18.23000000
   H     80.15000000    51.34000000    18.13000000
   H     78.80000000    51.94000000    17.05000000
   H     79.16000000    52.63000000    18.59000000
   H     77.98000000    52.88000000    20.45000000
   H     76.24000000    53.06000000    20.32000000
   H     77.00000000    51.76000000    21.24000000
   N     80.47000000    48.75000000    17.23000000
   C     81.85000000    48.30000000    17.27000000
   C     82.88000000    49.38000000    16.99000000
   O     82.52000000    50.54000000    16.79000000
   C     81.97000000    47.06000000    16.40000000
   O     82.07000000    47.32000000    15.01000000
   H     80.28000000    49.25000000    16.37000000
   H     82.03000000    47.89000000    18.27000000
   H     81.11000000    46.41000000    16.55000000
   H     82.82000000    46.51000000    16.81000000
   H     81.17000000    47.58000000    14.77000000
   N     84.19000000    49.11000000    17.06000000
   C     85.24000000    50.10000000    17.17000000
   C     85.44000000    50.99000000    15.95000000
   O     85.62000000    52.19000000    16.16000000
   C     86.57000000    49.50000000    17.59000000
   H     84.36000000    48.14000000    17.30000000
   H     84.92000000    50.89000000    17.86000000
   H     86.85000000    48.57000000    17.09000000
   H     87.24000000    50.34000000    17.38000000
   H     86.58000000    49.44000000    18.67000000
   N     85.44000000    50.38000000    14.76000000
   C     85.46000000    51.06000000    13.48000000
   C     84.31000000    52.01000000    13.17000000
   O     84.42000000    53.08000000    12.58000000
   C     85.59000000    50.01000000    12.38000000
   H     85.38000000    49.38000000    14.90000000
   H     86.34000000    51.69000000    13.40000000
   H     84.60000000    49.60000000    12.20000000
   H     85.93000000    50.45000000    11.44000000
   H     86.30000000    49.23000000    12.65000000
   N     83.15000000    51.69000000    13.76000000
   C     81.93000000    52.46000000    13.66000000
   C     81.91000000    53.65000000    14.61000000
   O     81.55000000    54.78000000    14.29000000
   C     80.72000000    51.58000000    13.95000000
   C     80.70000000    50.25000000    13.20000000
   C     79.51000000    49.35000000    13.49000000
   O     79.75000000    48.22000000    13.97000000
   O     78.32000000    49.68000000    13.35000000
   H     83.13000000    50.91000000    14.40000000
   H     81.80000000    52.86000000    12.65000000
   H     79.86000000    52.15000000    13.59000000
   H     80.50000000    51.42000000    15.00000000
   H     81.56000000    49.64000000    13.49000000
   H     80.81000000    50.34000000    12.11000000
   N     82.22000000    53.40000000    15.89000000
   C     82.48000000    54.49000000    16.81000000
   H     83.31100000    55.08900000    16.43800000
   H     81.59100000    55.11600000    16.89300000
   H     82.73400000    54.08600000    17.79000000
   H     82.27000000    52.45000000    16.22000000
  Ca     77.07000000    47.44000000    13.67000000
   O     78.69000000    45.83000000    15.12000000
   H     78.60000000    45.19000000    15.83000000
   H     79.60000000    45.72000000    14.82000000

Ca 1.70



