%chk=CaMKII_loop3_7.0.chk
%nprocshared=48
%mem=10GB
%nosave
#b3lyp/svp scf=(tight,noincore) Test 
#IOP(5/87=12) Density=Current Pop=(MK,readradii) iop(6/33=2) iop(6/42=6)

CaMKII_loop3_7.0 

   0   1
   C     78.30000000    56.48000000    20.08000000
   C     78.02000000    55.05000000    19.62000000
   O     78.89000000    54.38000000    19.07000000
   H     79.19400000    56.85400000    19.58000000
   H     77.45100000    57.11600000    19.82900000
   H     78.45700000    56.49100000    21.15900000
   N     76.89000000    54.48000000    20.02000000
   C     76.58000000    53.14000000    19.55000000
   C     76.25000000    53.19000000    18.07000000
   O     75.26000000    53.76000000    17.64000000
   C     75.39000000    52.62000000    20.35000000
   C     75.07000000    51.15000000    20.12000000
   O     74.07000000    50.69000000    20.72000000
   O     75.66000000    50.53000000    19.21000000
   H     76.29000000    55.01000000    20.64000000
   H     77.41000000    52.44000000    19.67000000
   H     74.49000000    53.11000000    19.96000000
   H     75.36000000    52.76000000    21.43000000
   N     77.13000000    52.57000000    17.27000000
   C     77.23000000    52.81000000    15.84000000
   C     76.42000000    51.87000000    14.96000000
   O     76.46000000    51.98000000    13.73000000
   C     78.74000000    52.69000000    15.66000000
   C     79.26000000    53.39000000    14.41000000
   C     80.79000000    53.52000000    14.41000000
   C     81.59000000    52.23000000    14.50000000
   N     81.54000000    51.45000000    13.26000000
   H     77.92000000    52.19000000    17.77000000
   H     76.86000000    53.80000000    15.58000000
   H     78.95000000    51.62000000    15.66000000
   H     79.40000000    53.08000000    16.43000000
   H     78.97000000    54.44000000    14.37000000
   H     78.89000000    52.91000000    13.51000000
   H     81.16000000    54.16000000    15.22000000
   H     81.07000000    54.03000000    13.49000000
   H     81.08000000    51.59000000    15.22000000
   H     82.62000000    52.47000000    14.77000000
   H     80.66000000    50.98000000    13.08000000
   H     81.66000000    52.05000000    12.46000000
   H     82.20000000    50.68000000    13.26000000
   N     75.56000000    51.06000000    15.58000000
   C     74.47000000    50.22000000    15.12000000
   C     73.26000000    50.12000000    16.04000000
   O     72.28000000    49.51000000    15.62000000
   C     74.93000000    48.79000000    14.85000000
   C     75.59000000    48.00000000    15.98000000
   O     76.10000000    46.90000000    15.69000000
   O     75.57000000    48.40000000    17.16000000
   H     75.74000000    50.94000000    16.57000000
   H     74.11000000    50.77000000    14.25000000
   H     75.58000000    48.88000000    13.98000000
   H     74.05000000    48.31000000    14.43000000
   N     73.24000000    50.65000000    17.27000000
   C     72.10000000    50.64000000    18.16000000
   C     72.01000000    49.24000000    18.73000000
   O     70.89000000    48.83000000    19.06000000
   H     74.08000000    51.11000000    17.59000000
   H     71.16000000    50.82000000    17.65000000
   H     72.12000000    51.49000000    18.85000000
   N     73.08000000    48.46000000    18.88000000
   C     72.90000000    47.10000000    19.37000000
   C     72.85000000    47.06000000    20.89000000
   O     72.98000000    45.99000000    21.49000000
   C     73.94000000    46.19000000    18.73000000
   C     75.23000000    46.00000000    19.51000000
   N     75.62000000    44.75000000    19.79000000
   O     75.95000000    46.92000000    19.88000000
   H     73.96000000    48.72000000    18.46000000
   H     71.97000000    46.69000000    18.98000000
   H     74.21000000    46.35000000    17.69000000
   H     73.46000000    45.21000000    18.72000000
   H     75.18000000    43.97000000    19.33000000
   H     76.30000000    44.63000000    20.53000000
   N     72.70000000    48.18000000    21.60000000
   C     72.74000000    48.36000000    23.03000000
   C     74.08000000    48.53000000    23.73000000
   O     74.07000000    48.71000000    24.95000000
   H     72.71000000    49.08000000    21.14000000
   H     72.42000000    47.42000000    23.48000000
   H     71.99000000    49.10000000    23.32000000
   N     75.24000000    48.46000000    23.08000000
   C     76.59000000    48.59000000    23.59000000
   C     77.58000000    49.41000000    22.77000000
   O     77.41000000    49.60000000    21.57000000
   C     77.12000000    47.16000000    23.72000000
   C     76.41000000    46.16000000    24.60000000
   C     76.53000000    46.20000000    25.99000000
   C     75.49000000    45.27000000    24.02000000
   C     75.95000000    45.19000000    26.77000000
   C     74.74000000    44.38000000    24.79000000
   C     75.01000000    44.33000000    26.18000000
   O     74.33000000    43.39000000    26.91000000
   H     75.19000000    48.37000000    22.07000000
   H     76.57000000    49.00000000    24.60000000
   H     78.16000000    47.16000000    24.06000000
   H     77.11000000    46.70000000    22.73000000
   H     77.17000000    46.93000000    26.47000000
   H     75.26000000    45.28000000    22.97000000
   H     76.08000000    45.19000000    27.84000000
   H     73.96000000    43.72000000    24.44000000
   H     73.91000000    42.70000000    26.40000000
   N     78.65000000    49.85000000    23.43000000
   C     79.70000000    50.69000000    22.88000000
   C     81.01000000    49.93000000    22.99000000
   O     81.56000000    49.90000000    24.09000000
   C     79.82000000    52.10000000    23.45000000
   C     78.45000000    52.76000000    23.50000000
   C     80.67000000    53.08000000    22.64000000
   C     78.40000000    54.16000000    24.10000000
   H     78.69000000    49.71000000    24.43000000
   H     79.43000000    50.81000000    21.83000000
   H     80.18000000    52.01000000    24.48000000
   H     77.82000000    52.05000000    24.03000000
   H     78.29000000    52.86000000    22.43000000
   H     81.64000000    52.63000000    22.44000000
   H     80.14000000    53.37000000    21.74000000
   H     81.04000000    53.92000000    23.23000000
   H     78.39000000    54.18000000    25.19000000
   H     79.22000000    54.82000000    23.81000000
   H     77.44000000    54.59000000    23.84000000
   N     81.69000000    49.65000000    21.88000000
   C     83.07000000    49.22000000    21.98000000
   C     84.09000000    50.35000000    22.00000000
   O     83.83000000    51.50000000    21.64000000
   C     83.43000000    48.35000000    20.78000000
   O     83.42000000    49.19000000    19.64000000
   H     81.27000000    49.88000000    20.99000000
   H     83.16000000    48.66000000    22.90000000
   H     82.69000000    47.57000000    20.64000000
   H     84.40000000    47.86000000    20.78000000
   H     82.51000000    49.34000000    19.38000000
   N     85.32000000    49.96000000    22.35000000
   C     86.44000000    50.88000000    22.40000000
   C     86.72000000    51.44000000    21.01000000
   O     87.13000000    52.60000000    20.94000000
   C     87.67000000    50.24000000    23.03000000
   H     85.47000000    49.04000000    22.72000000
   H     86.08000000    51.76000000    22.94000000
   H     88.44000000    51.02000000    23.06000000
   H     87.44000000    50.01000000    24.07000000
   H     88.19000000    49.38000000    22.59000000
   N     86.55000000    50.76000000    19.88000000
   C     86.77000000    51.32000000    18.56000000
   C     85.67000000    52.31000000    18.20000000
   O     86.06000000    53.36000000    17.70000000
   C     86.82000000    50.21000000    17.53000000
   H     86.07000000    49.87000000    20.00000000
   H     87.75000000    51.80000000    18.60000000
   H     85.97000000    49.53000000    17.62000000
   H     86.74000000    50.67000000    16.54000000
   H     87.70000000    49.59000000    17.70000000
   N     84.41000000    52.08000000    18.58000000
   C     83.31000000    53.01000000    18.42000000
   C     83.61000000    54.26000000    19.24000000
   O     83.33000000    55.40000000    18.87000000
   C     81.94000000    52.58000000    18.94000000
   C     81.33000000    51.47000000    18.08000000
   C     80.32000000    50.55000000    18.74000000
   O     80.71000000    49.44000000    19.16000000
   O     79.10000000    50.84000000    18.75000000
   H     84.21000000    51.26000000    19.13000000
   H     83.26000000    53.37000000    17.39000000
   H     81.24000000    53.39000000    19.12000000
   H     82.02000000    52.09000000    19.91000000
   H     82.13000000    50.86000000    17.66000000
   H     80.86000000    51.87000000    17.18000000
   N     84.26000000    54.14000000    20.40000000
   C     84.65000000    55.24000000    21.26000000
   H     85.53800000    55.72300000    20.85200000
   H     83.83700000    55.96400000    21.31600000
   H     84.87000000    54.86100000    22.25800000
   H     84.64000000    53.22000000    20.53000000
  Ca     77.51000000    48.87000000    18.90000000
   O     78.97000000    47.29000000    20.45000000
   H     78.75000000    46.88000000    21.29000000
   H     79.69000000    46.76000000    20.10000000

Ca 1.70



