%chk=CaMKII_loop3_4.0.chk
%nprocshared=48
%mem=10GB
%nosave
#b3lyp/svp scf=(tight,noincore) Test 
#IOP(5/87=12) Density=Current Pop=(MK,readradii) iop(6/33=2) iop(6/42=6)

CaMKII_loop3_4.0 

   0   1
   C     72.94000000    49.08000000    33.22000000
   C     72.32000000    47.74000000    33.60000000
   O     72.64000000    46.75000000    32.95000000
   H     73.91900000    48.91200000    32.77000000
   H     72.29500000    49.59000000    32.50500000
   H     73.05200000    49.69600000    34.11300000
   N     71.35000000    47.76000000    34.51000000
   C     70.74000000    46.60000000    35.12000000
   C     69.67000000    46.07000000    34.18000000
   O     68.51000000    46.46000000    34.33000000
   C     70.34000000    46.97000000    36.55000000
   C     69.69000000    45.80000000    37.26000000
   O     68.70000000    46.03000000    37.99000000
   O     70.17000000    44.66000000    37.05000000
   H     70.90000000    48.59000000    34.87000000
   H     71.52000000    45.85000000    35.22000000
   H     69.62000000    47.78000000    36.46000000
   H     71.17000000    47.31000000    37.17000000
   N     70.03000000    45.21000000    33.22000000
   C     69.16000000    44.62000000    32.23000000
   C     68.02000000    43.84000000    32.86000000
   O     66.88000000    43.98000000    32.42000000
   C     70.02000000    43.80000000    31.27000000
   C     70.73000000    44.69000000    30.26000000
   C     71.76000000    43.89000000    29.47000000
   C     72.14000000    44.52000000    28.13000000
   N     71.06000000    44.36000000    27.15000000
   H     71.00000000    44.95000000    33.16000000
   H     68.74000000    45.38000000    31.56000000
   H     69.46000000    43.06000000    30.71000000
   H     70.70000000    43.12000000    31.80000000
   H     71.32000000    45.40000000    30.85000000
   H     70.05000000    45.12000000    29.53000000
   H     71.36000000    42.88000000    29.32000000
   H     72.68000000    43.81000000    30.04000000
   H     72.99000000    43.94000000    27.76000000
   H     72.54000000    45.53000000    28.22000000
   H     71.44000000    44.33000000    26.22000000
   H     70.44000000    43.57000000    27.30000000
   H     70.63000000    45.27000000    27.08000000
   N     68.37000000    42.98000000    33.82000000
   C     67.50000000    41.95000000    34.36000000
   C     66.75000000    42.60000000    35.51000000
   O     65.97000000    41.86000000    36.11000000
   C     68.35000000    40.78000000    34.86000000
   C     69.63000000    41.15000000    35.59000000
   O     70.60000000    41.65000000    34.97000000
   O     69.59000000    41.18000000    36.84000000
   H     69.31000000    42.98000000    34.17000000
   H     66.79000000    41.72000000    33.57000000
   H     68.65000000    40.27000000    33.94000000
   H     67.90000000    39.98000000    35.46000000
   N     66.93000000    43.88000000    35.84000000
   C     66.11000000    44.51000000    36.86000000
   C     66.28000000    44.03000000    38.29000000
   O     65.29000000    44.09000000    39.01000000
   H     67.57000000    44.51000000    35.38000000
   H     65.05000000    44.38000000    36.62000000
   H     66.32000000    45.58000000    36.92000000
   N     67.42000000    43.47000000    38.69000000
   C     67.67000000    42.82000000    39.97000000
   C     68.14000000    43.78000000    41.06000000
   O     68.21000000    43.40000000    42.22000000
   C     68.51000000    41.56000000    39.86000000
   C     70.02000000    41.74000000    39.91000000
   N     70.79000000    40.76000000    40.40000000
   O     70.50000000    42.78000000    39.46000000
   H     68.24000000    43.78000000    38.20000000
   H     66.66000000    42.53000000    40.27000000
   H     68.23000000    41.06000000    38.94000000
   H     68.25000000    40.95000000    40.73000000
   H     70.42000000    39.89000000    40.74000000
   H     71.79000000    40.82000000    40.23000000
   N     68.46000000    45.01000000    40.66000000
   C     69.07000000    46.00000000    41.53000000
   C     70.59000000    46.00000000    41.67000000
   O     71.18000000    46.68000000    42.51000000
   H     68.43000000    45.21000000    39.67000000
   H     68.60000000    46.04000000    42.51000000
   H     68.94000000    46.99000000    41.09000000
   N     71.30000000    45.20000000    40.89000000
   C     72.75000000    45.11000000    40.92000000
   C     73.35000000    44.99000000    39.53000000
   O     72.84000000    44.32000000    38.63000000
   C     73.12000000    43.83000000    41.68000000
   C     72.47000000    43.67000000    43.03000000
   C     73.01000000    44.18000000    44.22000000
   C     71.34000000    42.85000000    43.17000000
   C     72.46000000    43.89000000    45.47000000
   C     70.67000000    42.66000000    44.38000000
   C     71.24000000    43.19000000    45.56000000
   O     70.65000000    42.91000000    46.76000000
   H     70.79000000    44.63000000    40.22000000
   H     73.15000000    46.05000000    41.30000000
   H     74.20000000    43.71000000    41.73000000
   H     72.89000000    42.99000000    41.03000000
   H     73.94000000    44.72000000    44.14000000
   H     70.88000000    42.53000000    42.25000000
   H     72.93000000    44.34000000    46.33000000
   H     69.69000000    42.19000000    44.33000000
   H     69.87000000    42.36000000    46.70000000
   N     74.57000000    45.45000000    39.25000000
   C     75.14000000    45.68000000    37.93000000
   C     76.47000000    44.93000000    37.87000000
   O     77.33000000    45.17000000    38.71000000
   C     75.38000000    47.17000000    37.72000000
   C     74.08000000    47.93000000    37.48000000
   C     76.37000000    47.53000000    36.61000000
   C     74.14000000    49.43000000    37.75000000
   H     75.11000000    45.81000000    40.02000000
   H     74.47000000    45.39000000    37.13000000
   H     75.86000000    47.63000000    38.59000000
   H     73.34000000    47.51000000    38.16000000
   H     73.70000000    47.76000000    36.48000000
   H     75.92000000    47.31000000    35.64000000
   H     76.70000000    48.56000000    36.49000000
   H     77.34000000    47.03000000    36.61000000
   H     74.98000000    49.86000000    37.19000000
   H     73.18000000    49.88000000    37.52000000
   H     74.38000000    49.46000000    38.81000000
   N     76.53000000    43.86000000    37.08000000
   C     77.75000000    43.08000000    36.92000000
   C     78.84000000    43.61000000    36.00000000
   O     78.61000000    44.58000000    35.27000000
   C     77.25000000    41.74000000    36.38000000
   O     76.47000000    41.91000000    35.22000000
   H     75.65000000    43.58000000    36.69000000
   H     78.19000000    42.86000000    37.89000000
   H     76.69000000    41.11000000    37.08000000
   H     78.12000000    41.13000000    36.16000000
   H     75.67000000    42.37000000    35.49000000
   N     79.96000000    42.91000000    35.90000000
   C     80.99000000    43.33000000    34.97000000
   C     80.48000000    43.21000000    33.54000000
   O     80.72000000    44.09000000    32.71000000
   C     82.22000000    42.47000000    35.21000000
   H     80.05000000    42.03000000    36.40000000
   H     81.35000000    44.32000000    35.23000000
   H     82.57000000    42.51000000    36.24000000
   H     82.09000000    41.40000000    35.04000000
   H     82.99000000    42.90000000    34.56000000
   N     79.71000000    42.19000000    33.16000000
   C     79.35000000    41.96000000    31.78000000
   C     78.23000000    42.91000000    31.38000000
   O     78.20000000    43.37000000    30.24000000
   C     79.05000000    40.47000000    31.65000000
   H     79.58000000    41.39000000    33.76000000
   H     80.20000000    42.13000000    31.11000000
   H     79.94000000    39.86000000    31.78000000
   H     78.23000000    40.20000000    32.31000000
   H     78.69000000    40.30000000    30.64000000
   N     77.39000000    43.35000000    32.32000000
   C     76.41000000    44.40000000    32.13000000
   C     76.87000000    45.80000000    31.77000000
   O     76.29000000    46.59000000    31.03000000
   C     75.45000000    44.48000000    33.31000000
   C     74.27000000    43.51000000    33.26000000
   C     73.52000000    43.53000000    34.58000000
   O     72.33000000    43.93000000    34.64000000
   O     74.16000000    43.09000000    35.56000000
   H     77.47000000    42.82000000    33.18000000
   H     75.82000000    44.15000000    31.25000000
   H     75.11000000    45.52000000    33.35000000
   H     76.07000000    44.35000000    34.20000000
   H     74.67000000    42.52000000    33.05000000
   H     73.65000000    43.97000000    32.49000000
   N     78.00000000    46.16000000    32.39000000
   C     78.67000000    47.42000000    32.15000000
   H     79.63800000    47.23300000    31.68500000
   H     78.06200000    48.03500000    31.48700000
   H     78.81700000    47.94000000    33.09700000
   H     78.27000000    45.58000000    33.17000000
  Ca     71.80000000    42.70000000    36.94000000
   O     72.91000000    40.33000000    36.25000000
   H     72.53000000    39.84000000    35.53000000
   H     73.68000000    39.81000000    36.51000000

Ca 1.70



