%chk=holoCaM_loop3_99.0.chk
%nprocshared=48
%mem=10GB
%nosave
#b3lyp/svp scf=(tight,noincore) Test 
#IOP(5/87=12) Density=Current Pop=(MK,readradii) iop(6/33=2) iop(6/42=6)

holoCaM_loop3_99.0 

   0   1
   C     84.87000000    27.17000000    21.58000000
   C     86.36000000    27.25000000    21.91000000
   O     86.91000000    26.26000000    22.37000000
   H     84.34700000    27.99500000    22.06400000
   H     84.73200000    27.23600000    20.50100000
   H     84.46800000    26.22300000    21.94100000
   N     87.02000000    28.39000000    21.73000000
   C     88.37000000    28.67000000    22.19000000
   C     88.51000000    28.54000000    23.70000000
   O     87.86000000    29.30000000    24.42000000
   C     88.79000000    30.02000000    21.62000000
   C     90.27000000    30.38000000    21.69000000
   O     90.60000000    31.47000000    21.18000000
   O     91.09000000    29.55000000    22.14000000
   H     86.46000000    29.21000000    21.57000000
   H     89.00000000    27.93000000    21.71000000
   H     88.27000000    30.78000000    22.21000000
   H     88.49000000    30.20000000    20.59000000
   N     89.34000000    27.64000000    24.24000000
   C     89.37000000    27.28000000    25.64000000
   C     90.37000000    28.05000000    26.50000000
   O     90.02000000    28.26000000    27.66000000
   C     89.36000000    25.78000000    25.87000000
   C     88.21000000    25.00000000    25.24000000
   C     86.84000000    25.52000000    25.69000000
   C     85.68000000    24.63000000    25.25000000
   N     84.40000000    25.30000000    25.49000000
   H     89.75000000    26.95000000    23.63000000
   H     88.46000000    27.72000000    26.06000000
   H     89.32000000    25.68000000    26.95000000
   H     90.35000000    25.44000000    25.56000000
   H     88.19000000    23.94000000    25.53000000
   H     88.25000000    25.05000000    24.16000000
   H     86.66000000    26.50000000    25.26000000
   H     86.71000000    25.59000000    26.77000000
   H     85.70000000    23.70000000    25.83000000
   H     85.81000000    24.47000000    24.18000000
   H     84.42000000    25.65000000    26.44000000
   H     84.23000000    25.98000000    24.77000000
   H     83.72000000    24.58000000    25.28000000
   N     91.45000000    28.49000000    25.86000000
   C     92.53000000    29.24000000    26.48000000
   C     92.42000000    30.70000000    26.10000000
   O     92.67000000    31.64000000    26.85000000
   C     93.91000000    28.63000000    26.23000000
   C     94.19000000    28.13000000    24.82000000
   O     93.56000000    28.62000000    23.87000000
   O     95.11000000    27.30000000    24.64000000
   H     91.49000000    28.21000000    24.89000000
   H     92.51000000    29.13000000    27.56000000
   H     94.01000000    27.80000000    26.93000000
   H     94.68000000    29.34000000    26.52000000
   N     92.08000000    30.93000000    24.82000000
   C     91.97000000    32.25000000    24.24000000
   C     93.24000000    32.69000000    23.53000000
   O     94.14000000    33.24000000    24.16000000
   H     92.21000000    30.20000000    24.14000000
   H     91.83000000    32.95000000    25.07000000
   H     91.17000000    32.42000000    23.52000000
   N     93.29000000    32.36000000    22.24000000
   C     94.37000000    32.51000000    21.28000000
   C     93.89000000    32.53000000    19.83000000
   O     94.69000000    32.67000000    18.91000000
   C     95.49000000    31.52000000    21.57000000
   C     95.13000000    30.06000000    21.32000000
   N     96.17000000    29.29000000    21.63000000
   O     94.08000000    29.72000000    20.79000000
   H     92.43000000    32.00000000    21.85000000
   H     94.78000000    33.51000000    21.44000000
   H     95.77000000    31.57000000    22.62000000
   H     96.31000000    31.80000000    20.90000000
   H     97.09000000    29.63000000    21.86000000
   H     95.92000000    28.32000000    21.56000000
   N     92.58000000    32.51000000    19.59000000
   C     92.01000000    32.71000000    18.27000000
   C     91.90000000    31.51000000    17.34000000
   O     91.33000000    31.64000000    16.26000000
   H     91.89000000    32.38000000    20.31000000
   H     92.62000000    33.46000000    17.76000000
   H     91.05000000    33.21000000    18.36000000
   N     92.32000000    30.37000000    17.90000000
   C     92.17000000    29.11000000    17.19000000
   C     91.61000000    28.01000000    18.08000000
   O     91.73000000    27.96000000    19.31000000
   C     93.42000000    28.68000000    16.44000000
   C     94.74000000    29.21000000    16.95000000
   C     95.48000000    28.48000000    17.88000000
   C     95.20000000    30.46000000    16.51000000
   C     96.75000000    28.91000000    18.26000000
   C     96.47000000    30.90000000    16.88000000
   C     97.25000000    30.13000000    17.77000000
   O     98.47000000    30.60000000    18.15000000
   H     92.76000000    30.38000000    18.81000000
   H     91.38000000    29.24000000    16.45000000
   H     93.17000000    28.92000000    15.41000000
   H     93.55000000    27.60000000    16.51000000
   H     95.06000000    27.52000000    18.18000000
   H     94.60000000    30.97000000    15.77000000
   H     97.28000000    28.40000000    19.06000000
   H     96.88000000    31.85000000    16.56000000
   H     98.53000000    31.54000000    17.93000000
   N     91.03000000    26.99000000    17.46000000
   C     90.54000000    25.75000000    18.02000000
   C     91.34000000    24.57000000    17.49000000
   O     91.71000000    24.56000000    16.32000000
   C     89.06000000    25.47000000    17.79000000
   C     88.14000000    26.65000000    17.48000000
   C     88.47000000    24.69000000    18.97000000
   C     87.94000000    27.70000000    18.57000000
   H     90.83000000    27.16000000    16.48000000
   H     90.75000000    25.74000000    19.09000000
   H     88.99000000    24.86000000    16.89000000
   H     87.19000000    26.25000000    17.13000000
   H     88.48000000    27.24000000    16.63000000
   H     88.91000000    23.70000000    19.05000000
   H     88.66000000    25.26000000    19.89000000
   H     87.39000000    24.76000000    18.90000000
   H     88.93000000    28.06000000    18.86000000
   H     87.29000000    28.52000000    18.27000000
   H     87.48000000    27.22000000    19.43000000
   N     91.50000000    23.58000000    18.38000000
   C     92.23000000    22.36000000    18.12000000
   C     91.22000000    21.21000000    18.18000000
   O     90.24000000    21.22000000    18.92000000
   C     93.31000000    22.15000000    19.17000000
   O     92.84000000    21.94000000    20.48000000
   H     91.09000000    23.68000000    19.30000000
   H     92.66000000    22.29000000    17.12000000
   H     94.08000000    22.92000000    19.21000000
   H     93.83000000    21.26000000    18.81000000
   H     93.59000000    22.28000000    20.99000000
   N     91.68000000    20.03000000    17.75000000
   C     90.95000000    18.79000000    17.92000000
   C     90.77000000    18.41000000    19.38000000
   O     89.82000000    17.69000000    19.69000000
   C     91.63000000    17.69000000    17.11000000
   H     92.49000000    20.13000000    17.15000000
   H     89.92000000    18.90000000    17.60000000
   H     91.96000000    18.03000000    16.13000000
   H     92.51000000    17.38000000    17.68000000
   H     90.95000000    16.84000000    17.07000000
   N     91.68000000    18.89000000    20.22000000
   C     91.54000000    18.64000000    21.65000000
   C     90.45000000    19.49000000    22.27000000
   O     89.58000000    18.94000000    22.94000000
   C     92.90000000    18.78000000    22.32000000
   H     92.46000000    19.41000000    19.84000000
   H     91.10000000    17.66000000    21.82000000
   H     93.64000000    18.13000000    21.85000000
   H     93.18000000    19.83000000    22.36000000
   H     92.78000000    18.45000000    23.36000000
   N     90.53000000    20.80000000    22.02000000
   C     89.49000000    21.72000000    22.45000000
   C     88.11000000    21.35000000    21.95000000
   O     87.15000000    21.38000000    22.73000000
   C     89.86000000    23.14000000    22.04000000
   C     90.96000000    23.60000000    23.00000000
   C     91.48000000    25.03000000    22.84000000
   O     92.70000000    25.26000000    22.97000000
   O     90.79000000    25.91000000    22.28000000
   H     91.25000000    21.12000000    21.39000000
   H     89.46000000    21.70000000    23.54000000
   H     88.99000000    23.79000000    22.16000000
   H     90.23000000    23.26000000    21.02000000
   H     91.70000000    22.80000000    22.99000000
   H     90.52000000    23.52000000    23.99000000
   N     87.99000000    20.92000000    20.69000000
   C     86.83000000    20.33000000    20.07000000
   H     86.03300000    21.07100000    20.01400000
   H     87.08600000    19.99500000    19.06500000
   H     86.49400000    19.47900000    20.66300000
   H     88.86000000    20.87000000    20.18000000
  Ca     92.72000000    27.65000000    21.68000000
   O     95.22000000    26.61000000    21.96000000
   H     95.21000000    26.59000000    22.92000000
   H     95.84000000    25.93000000    21.71000000

Ca 1.70



