%chk=holoCaM_loop3_85.0.chk
%nprocshared=48
%mem=10GB
%nosave
#b3lyp/svp scf=(tight,noincore) Test 
#IOP(5/87=12) Density=Current Pop=(MK,readradii) iop(6/33=2) iop(6/42=6)

holoCaM_loop3_85.0 

   0   1
   C     67.98000000    50.24000000    92.95900000
   C     68.02000000    51.16000000    94.16900000
   O     68.30000000    50.69000000    95.25900000
   H     67.89400000    50.83800000    92.05200000
   H     68.89600000    49.65100000    92.92000000
   H     67.12100000    49.57300000    93.03700000
   N     67.66000000    52.44000000    93.99900000
   C     67.36000000    53.33000000    95.09900000
   C     65.96000000    53.17000000    95.67900000
   O     65.01000000    53.79000000    95.19900000
   C     67.60000000    54.78000000    94.66900000
   C     67.24000000    55.85000000    95.69900000
   O     67.33000000    57.05000000    95.37900000
   O     66.87000000    55.53000000    96.84900000
   H     67.52000000    52.79000000    93.05900000
   H     67.96000000    53.12000000    95.97900000
   H     67.00000000    54.97000000    93.77900000
   H     68.60000000    54.99000000    94.29900000
   N     65.79000000    52.36000000    96.72900000
   C     64.55000000    51.87000000    97.27900000
   C     63.64000000    52.86000000    97.99900000
   O     62.59000000    52.39000000    98.42900000
   C     64.82000000    50.64000000    98.13900000
   C     65.88000000    49.64000000    97.69900000
   C     65.45000000    48.93000000    96.41900000
   C     66.50000000    47.94000000    95.91900000
   N     65.85000000    47.25000000    94.78900000
   H     66.65000000    51.93000000    97.03900000
   H     64.05000000    51.57000000    96.35900000
   H     63.89000000    50.08000000    98.29900000
   H     65.08000000    51.05000000    99.10900000
   H     66.08000000    48.83000000    98.38900000
   H     66.83000000    50.16000000    97.54900000
   H     65.34000000    49.70000000    95.65900000
   H     64.51000000    48.44000000    96.68900000
   H     66.80000000    47.29000000    96.73900000
   H     67.44000000    48.43000000    95.64900000
   H     65.09000000    46.63000000    95.03900000
   H     65.53000000    47.95000000    94.13900000
   H     66.39000000    46.56000000    94.27900000
   N     64.02000000    54.14000000    98.09900000
   C     63.03000000    55.08000000    98.59900000
   C     62.97000000    56.29000000    97.68900000
   O     62.33000000    57.32000000    97.88900000
   C     63.22000000    55.40000000   100.07900000
   C     64.53000000    56.04000000   100.49900000
   O     65.57000000    55.88000000    99.81900000
   O     64.67000000    56.49000000   101.65900000
   H     64.84000000    54.42000000    97.58900000
   H     62.09000000    54.54000000    98.47900000
   H     63.17000000    54.43000000   100.55900000
   H     62.39000000    55.96000000   100.50900000
   N     63.76000000    56.31000000    96.60900000
   C     63.81000000    57.31000000    95.55900000
   C     64.25000000    58.71000000    95.99900000
   O     63.69000000    59.69000000    95.50900000
   H     64.31000000    55.47000000    96.48900000
   H     62.85000000    57.46000000    95.06900000
   H     64.57000000    56.96000000    94.86900000
   N     65.29000000    58.83000000    96.81900000
   C     65.85000000    60.11000000    97.20900000
   C     66.97000000    60.71000000    96.36900000
   O     67.61000000    61.63000000    96.85900000
   C     66.21000000    60.03000000    98.68900000
   C     67.63000000    59.60000000    99.00900000
   N     68.31000000    60.18000000   100.00900000
   O     68.12000000    58.65000000    98.39900000
   H     65.74000000    57.95000000    97.00900000
   H     65.09000000    60.89000000    97.19900000
   H     65.51000000    59.39000000    99.22900000
   H     66.02000000    61.01000000    99.12900000
   H     67.82000000    60.97000000   100.40900000
   H     69.23000000    59.81000000   100.20900000
   N     67.34000000    59.99000000    95.30900000
   C     68.39000000    60.22000000    94.33900000
   C     69.70000000    59.56000000    94.74900000
   O     70.58000000    59.58000000    93.89900000
   H     66.70000000    59.23000000    95.12900000
   H     68.67000000    61.27000000    94.29900000
   H     68.07000000    59.81000000    93.37900000
   N     69.89000000    58.90000000    95.89900000
   C     71.11000000    58.20000000    96.23900000
   C     70.90000000    56.72000000    96.53900000
   O     69.89000000    56.46000000    97.19900000
   C     71.84000000    58.87000000    97.40900000
   C     72.11000000    60.33000000    97.09900000
   C     71.09000000    61.25000000    97.32900000
   C     73.35000000    60.72000000    96.56900000
   C     71.29000000    62.60000000    96.98900000
   C     73.59000000    62.07000000    96.30900000
   C     72.54000000    62.99000000    96.45900000
   O     72.75000000    64.28000000    96.05900000
   H     69.15000000    58.79000000    96.56900000
   H     71.81000000    58.29000000    95.40900000
   H     72.82000000    58.41000000    97.45900000
   H     71.26000000    58.74000000    98.31900000
   H     70.17000000    60.88000000    97.75900000
   H     74.10000000    59.96000000    96.43900000
   H     70.41000000    63.22000000    96.96900000
   H     74.58000000    62.38000000    95.98900000
   H     73.67000000    64.44000000    95.82900000
   N     71.76000000    55.78000000    96.16900000
   C     71.79000000    54.41000000    96.64900000
   C     72.74000000    54.37000000    97.84900000
   O     73.90000000    54.75000000    97.71900000
   C     72.22000000    53.43000000    95.56900000
   C     71.40000000    53.56000000    94.27900000
   C     72.14000000    51.98000000    96.03900000
   C     72.13000000    53.01000000    93.05900000
   H     72.57000000    56.14000000    95.67900000
   H     70.77000000    54.16000000    96.91900000
   H     73.24000000    53.64000000    95.22900000
   H     71.18000000    54.59000000    94.02900000
   H     70.47000000    52.99000000    94.32900000
   H     72.52000000    51.27000000    95.29900000
   H     72.67000000    51.83000000    96.97900000
   H     71.11000000    51.80000000    96.34900000
   H     71.57000000    53.24000000    92.14900000
   H     73.09000000    53.50000000    92.89900000
   H     72.16000000    51.92000000    93.04900000
   N     72.31000000    53.96000000    99.03900000
   C     73.16000000    53.65000000   100.16900000
   C     73.62000000    52.20000000   100.22900000
   O     73.28000000    51.44000000    99.31900000
   C     72.26000000    53.95000000   101.35900000
   O     71.03000000    53.27000000   101.30900000
   H     71.32000000    53.74000000    99.06900000
   H     74.06000000    54.26000000   100.27900000
   H     72.01000000    55.01000000   101.47900000
   H     72.78000000    53.59000000   102.23900000
   H     70.64000000    53.24000000   102.18900000
   N     74.25000000    51.72000000   101.29900000
   C     74.88000000    50.42000000   101.42900000
   C     73.84000000    49.33000000   101.66900000
   O     73.89000000    48.29000000   101.02900000
   C     75.97000000    50.47000000   102.49900000
   H     74.52000000    52.47000000   101.91900000
   H     75.38000000    50.19000000   100.48900000
   H     75.66000000    51.11000000   103.31900000
   H     76.23000000    49.47000000   102.84900000
   H     76.88000000    50.90000000   102.09900000
   N     72.88000000    49.51000000   102.58900000
   C     71.71000000    48.69000000   102.82900000
   C     70.87000000    48.53000000   101.57900000
   O     70.34000000    47.44000000   101.36900000
   C     70.82000000    49.33000000   103.88900000
   H     72.87000000    50.45000000   102.92900000
   H     72.01000000    47.74000000   103.27900000
   H     71.40000000    49.40000000   104.80900000
   H     70.63000000    50.31000000   103.45900000
   H     69.98000000    48.70000000   104.15900000
   N     70.77000000    49.54000000   100.70900000
   C     70.01000000    49.50000000    99.47900000
   C     70.69000000    48.66000000    98.40900000
   O     70.10000000    47.79000000    97.78900000
   C     69.66000000    50.92000000    99.02900000
   C     68.69000000    51.65000000    99.93900000
   C     68.59000000    53.14000000    99.61900000
   O     68.73000000    53.60000000    98.46900000
   O     68.26000000    53.94000000   100.51900000
   H     71.28000000    50.39000000   100.89900000
   H     69.05000000    49.04000000    99.73900000
   H     69.29000000    50.86000000    97.99900000
   H     70.60000000    51.45000000    98.88900000
   H     69.01000000    51.61000000   100.98900000
   H     67.71000000    51.17000000    99.91900000
   N     72.03000000    48.74000000    98.39900000
   C     72.83000000    47.93000000    97.49900000
   H     73.80400000    47.74000000    97.95000000
   H     72.32400000    46.98200000    97.31600000
   H     72.96400000    48.45900000    96.55500000
   H     72.51000000    49.42000000    98.96900000
  Ca     67.97000000    56.11000000    99.04000000
   O     70.38000000    56.84000000   100.14900000
   H     70.57000000    57.74000000   100.41900000
   H     70.86000000    56.30000000   100.76900000

Ca 1.70



