%chk=holoCaM_loop3_64.0.chk
%nprocshared=48
%mem=10GB
%nosave
#b3lyp/svp scf=(tight,noincore) Test 
#IOP(5/87=12) Density=Current Pop=(MK,readradii) iop(6/33=2) iop(6/42=6)

holoCaM_loop3_64.0 

   0   1
   C     45.87000000    44.37000000    28.32000000
   C     45.85000000    43.72000000    29.69000000
   O     45.17000000    44.24000000    30.57000000
   H     46.61300000    45.16800000    28.30800000
   H     46.12600000    43.62400000    27.56700000
   H     44.88700000    44.78700000    28.10000000
   N     46.51000000    42.58000000    29.93000000
   C     46.74000000    41.96000000    31.22000000
   C     48.04000000    42.40000000    31.89000000
   O     49.04000000    42.58000000    31.21000000
   C     46.73000000    40.49000000    30.81000000
   C     46.93000000    39.49000000    31.94000000
   O     47.62000000    39.79000000    32.94000000
   O     46.14000000    38.54000000    32.08000000
   H     46.87000000    42.06000000    29.14000000
   H     45.91000000    42.17000000    31.89000000
   H     47.59000000    40.28000000    30.17000000
   H     45.86000000    40.16000000    30.26000000
   N     48.04000000    42.72000000    33.19000000
   C     49.14000000    43.19000000    33.99000000
   C     50.25000000    42.15000000    34.07000000
   O     51.39000000    42.57000000    34.27000000
   C     48.63000000    43.43000000    35.41000000
   C     49.57000000    44.41000000    36.10000000
   C     48.76000000    45.06000000    37.22000000
   C     49.63000000    45.75000000    38.26000000
   N     50.23000000    46.95000000    37.66000000
   H     47.24000000    42.42000000    33.73000000
   H     49.53000000    44.09000000    33.51000000
   H     48.61000000    42.51000000    36.01000000
   H     47.67000000    43.94000000    35.38000000
   H     49.90000000    45.17000000    35.39000000
   H     50.45000000    43.92000000    36.50000000
   H     48.12000000    44.36000000    37.76000000
   H     48.15000000    45.84000000    36.75000000
   H     50.38000000    45.04000000    38.60000000
   H     49.13000000    45.94000000    39.22000000
   H     51.02000000    46.70000000    37.09000000
   H     49.58000000    47.43000000    37.06000000
   H     50.62000000    47.47000000    38.44000000
   N     50.03000000    40.83000000    34.01000000
   C     50.98000000    39.75000000    34.13000000
   C     51.07000000    38.82000000    32.92000000
   O     52.03000000    38.08000000    32.74000000
   C     50.62000000    38.92000000    35.36000000
   C     49.15000000    38.59000000    35.56000000
   O     48.37000000    39.15000000    36.36000000
   O     48.73000000    37.66000000    34.82000000
   H     49.05000000    40.62000000    34.13000000
   H     51.94000000    40.20000000    34.36000000
   H     50.93000000    39.46000000    36.25000000
   H     51.11000000    37.94000000    35.38000000
   N     50.15000000    38.95000000    31.97000000
   C     50.11000000    38.09000000    30.80000000
   C     50.02000000    36.60000000    31.09000000
   O     50.51000000    35.89000000    30.22000000
   H     49.61000000    39.81000000    32.01000000
   H     51.06000000    38.19000000    30.28000000
   H     49.27000000    38.38000000    30.17000000
   N     49.34000000    36.20000000    32.17000000
   C     49.18000000    34.79000000    32.47000000
   C     47.98000000    34.07000000    31.85000000
   O     47.70000000    32.99000000    32.37000000
   C     49.00000000    34.83000000    33.98000000
   C     47.58000000    35.16000000    34.43000000
   N     47.06000000    34.35000000    35.36000000
   O     46.79000000    35.95000000    33.92000000
   H     48.97000000    36.88000000    32.82000000
   H     50.12000000    34.29000000    32.23000000
   H     49.75000000    35.50000000    34.40000000
   H     49.16000000    33.80000000    34.27000000
   H     47.64000000    33.59000000    35.69000000
   H     46.14000000    34.57000000    35.71000000
   N     47.26000000    34.64000000    30.88000000
   C     46.09000000    34.01000000    30.31000000
   C     44.69000000    34.13000000    30.91000000
   O     43.73000000    33.63000000    30.34000000
   H     47.37000000    35.64000000    30.74000000
   H     46.28000000    32.94000000    30.39000000
   H     46.12000000    34.22000000    29.25000000
   N     44.53000000    34.89000000    32.00000000
   C     43.25000000    35.35000000    32.48000000
   C     43.30000000    36.76000000    33.05000000
   O     44.17000000    37.11000000    33.84000000
   C     42.75000000    34.33000000    33.49000000
   C     42.74000000    32.88000000    33.09000000
   C     43.75000000    32.04000000    33.60000000
   C     41.68000000    32.37000000    32.33000000
   C     43.62000000    30.66000000    33.47000000
   C     41.62000000    30.99000000    32.11000000
   C     42.54000000    30.12000000    32.74000000
   O     42.37000000    28.77000000    32.64000000
   H     45.37000000    35.16000000    32.50000000
   H     42.51000000    35.35000000    31.68000000
   H     41.70000000    34.58000000    33.63000000
   H     43.31000000    34.41000000    34.42000000
   H     44.61000000    32.35000000    34.18000000
   H     40.85000000    33.00000000    32.02000000
   H     44.37000000    29.98000000    33.85000000
   H     40.74000000    30.57000000    31.67000000
   H     41.58000000    28.52000000    32.15000000
   N     42.33000000    37.56000000    32.60000000
   C     42.10000000    38.89000000    33.12000000
   C     41.15000000    38.78000000    34.31000000
   O     40.04000000    38.26000000    34.17000000
   C     41.64000000    39.83000000    32.01000000
   C     42.78000000    39.97000000    31.01000000
   C     41.04000000    41.13000000    32.55000000
   C     42.59000000    41.10000000    30.00000000
   H     41.68000000    37.22000000    31.91000000
   H     43.05000000    39.27000000    33.49000000
   H     40.78000000    39.35000000    31.55000000
   H     42.83000000    39.03000000    30.46000000
   H     43.76000000    40.10000000    31.47000000
   H     40.25000000    40.87000000    33.25000000
   H     41.81000000    41.70000000    33.07000000
   H     40.69000000    41.75000000    31.72000000
   H     43.26000000    41.12000000    29.13000000
   H     41.59000000    40.99000000    29.58000000
   H     42.69000000    42.06000000    30.49000000
   N     41.44000000    39.44000000    35.43000000
   C     40.61000000    39.64000000    36.60000000
   C     40.04000000    41.05000000    36.66000000
   O     40.37000000    41.95000000    35.89000000
   C     41.51000000    39.30000000    37.79000000
   O     42.65000000    40.12000000    37.87000000
   H     42.30000000    39.97000000    35.43000000
   H     39.73000000    39.00000000    36.62000000
   H     41.82000000    38.26000000    37.85000000
   H     40.88000000    39.45000000    38.67000000
   H     43.29000000    39.59000000    37.39000000
   N     39.06000000    41.26000000    37.54000000
   C     38.26000000    42.47000000    37.54000000
   C     39.07000000    43.76000000    37.55000000
   O     38.75000000    44.70000000    36.82000000
   C     37.37000000    42.34000000    38.77000000
   H     38.77000000    40.46000000    38.09000000
   H     37.66000000    42.53000000    36.64000000
   H     36.82000000    43.27000000    38.84000000
   H     36.73000000    41.47000000    38.65000000
   H     37.89000000    42.25000000    39.73000000
   N     40.09000000    43.87000000    38.41000000
   C     40.79000000    45.13000000    38.50000000
   C     41.66000000    45.30000000    37.27000000
   O     41.98000000    46.44000000    36.94000000
   C     41.69000000    45.20000000    39.73000000
   H     40.34000000    43.06000000    38.96000000
   H     40.06000000    45.94000000    38.57000000
   H     41.18000000    45.05000000    40.68000000
   H     42.40000000    44.37000000    39.69000000
   H     42.15000000    46.18000000    39.85000000
   N     42.00000000    44.22000000    36.56000000
   C     42.52000000    44.26000000    35.21000000
   C     41.65000000    44.75000000    34.06000000
   O     42.14000000    45.46000000    33.18000000
   C     43.31000000    43.00000000    34.86000000
   C     44.42000000    42.47000000    35.77000000
   C     44.96000000    41.09000000    35.44000000
   O     45.96000000    41.02000000    34.70000000
   O     44.40000000    39.99000000    35.67000000
   H     41.43000000    43.40000000    36.74000000
   H     43.27000000    45.05000000    35.23000000
   H     43.81000000    43.05000000    33.89000000
   H     42.57000000    42.20000000    34.92000000
   H     43.90000000    42.42000000    36.73000000
   H     45.25000000    43.17000000    35.86000000
   N     40.36000000    44.43000000    34.09000000
   C     39.37000000    44.78000000    33.09000000
   H     38.51100000    45.24200000    33.57600000
   H     39.80400000    45.48200000    32.37800000
   H     39.04900000    43.88000000    32.56500000
   H     40.04000000    44.13000000    35.00000000
  Ca     46.20000000    38.43000000    34.77000000
   O     44.98000000    37.33000000    36.97000000
   H     45.00000000    37.48000000    37.91000000
   H     44.72000000    36.41000000    36.88000000

Ca 1.70



