%chk=holoCaM_loop3_57.0.chk
%nprocshared=48
%mem=10GB
%nosave
#b3lyp/svp scf=(tight,noincore) Test 
#IOP(5/87=12) Density=Current Pop=(MK,readradii) iop(6/33=2) iop(6/42=6)

holoCaM_loop3_57.0 

   0   1
   C     70.22000000    52.42000000    92.27000000
   C     70.23000000    53.03000000    93.66000000
   O     70.52000000    52.30000000    94.61000000
   H     70.59600000    53.14800000    91.55200000
   H     70.85600000    51.53500000    92.25600000
   H     69.20100000    52.14000000    92.00300000
   N     69.77000000    54.27000000    93.74000000
   C     69.53000000    54.95000000    95.01000000
   C     68.21000000    54.61000000    95.68000000
   O     67.13000000    54.89000000    95.17000000
   C     69.54000000    56.44000000    94.70000000
   C     69.51000000    57.30000000    95.95000000
   O     69.11000000    58.48000000    95.79000000
   O     69.68000000    56.77000000    97.07000000
   H     69.65000000    54.82000000    92.90000000
   H     70.29000000    54.73000000    95.76000000
   H     68.73000000    56.63000000    93.99000000
   H     70.47000000    56.63000000    94.17000000
   N     68.37000000    53.93000000    96.82000000
   C     67.29000000    53.14000000    97.40000000
   C     66.65000000    53.93000000    98.53000000
   O     65.65000000    53.46000000    99.06000000
   C     67.81000000    51.85000000    98.01000000
   C     68.55000000    50.84000000    97.14000000
   C     67.67000000    50.30000000    96.01000000
   C     68.40000000    49.24000000    95.20000000
   N     67.66000000    48.49000000    94.18000000
   H     69.29000000    53.68000000    97.14000000
   H     66.49000000    52.95000000    96.68000000
   H     66.95000000    51.26000000    98.33000000
   H     68.34000000    52.07000000    98.94000000
   H     68.83000000    50.03000000    97.81000000
   H     69.47000000    51.25000000    96.71000000
   H     67.40000000    51.05000000    95.27000000
   H     66.76000000    49.86000000    96.42000000
   H     68.67000000    48.53000000    95.98000000
   H     69.29000000    49.67000000    94.74000000
   H     67.33000000    49.13000000    93.47000000
   H     68.31000000    47.80000000    93.83000000
   H     66.88000000    47.98000000    94.57000000
   N     67.18000000    55.13000000    98.80000000
   C     66.61000000    55.94000000    99.86000000
   C     66.18000000    57.34000000    99.45000000
   O     65.61000000    58.06000000   100.27000000
   C     67.49000000    55.97000000   101.10000000
   C     68.88000000    56.51000000   100.77000000
   O     69.90000000    55.90000000   101.14000000
   O     69.04000000    57.46000000    99.97000000
   H     68.00000000    55.35000000    98.25000000
   H     65.66000000    55.51000000   100.18000000
   H     67.62000000    54.92000000   101.38000000
   H     66.99000000    56.52000000   101.89000000
   N     66.43000000    57.71000000    98.20000000
   C     66.03000000    58.99000000    97.65000000
   C     66.97000000    60.14000000    98.00000000
   O     66.59000000    61.28000000    97.75000000
   H     67.10000000    57.14000000    97.71000000
   H     65.00000000    59.24000000    97.89000000
   H     66.13000000    58.83000000    96.58000000
   N     68.10000000    59.89000000    98.66000000
   C     68.95000000    60.94000000    99.18000000
   C     69.70000000    61.62000000    98.04000000
   O     70.31000000    62.61000000    98.45000000
   C     69.65000000    60.51000000   100.47000000
   C     70.99000000    59.81000000   100.44000000
   N     71.72000000    59.89000000   101.56000000
   O     71.41000000    59.13000000    99.51000000
   H     68.35000000    58.93000000    98.86000000
   H     68.22000000    61.70000000    99.45000000
   H     68.98000000    59.88000000   101.06000000
   H     69.79000000    61.41000000   101.07000000
   H     71.37000000    60.30000000   102.41000000
   H     72.56000000    59.34000000   101.69000000
   N     69.76000000    61.07000000    96.83000000
   C     70.41000000    61.63000000    95.66000000
   C     71.64000000    60.84000000    95.21000000
   O     72.35000000    61.41000000    94.39000000
   H     69.31000000    60.17000000    96.71000000
   H     70.78000000    62.63000000    95.90000000
   H     69.70000000    61.65000000    94.84000000
   N     72.01000000    59.77000000    95.92000000
   C     73.34000000    59.19000000    95.93000000
   C     73.31000000    57.67000000    95.98000000
   O     72.59000000    57.10000000    96.80000000
   C     74.15000000    59.72000000    97.11000000
   C     74.26000000    61.21000000    97.33000000
   C     73.58000000    61.86000000    98.37000000
   C     74.90000000    61.97000000    96.34000000
   C     73.53000000    63.25000000    98.52000000
   C     74.91000000    63.36000000    96.50000000
   C     74.21000000    63.99000000    97.54000000
   O     74.24000000    65.34000000    97.72000000
   H     71.32000000    59.41000000    96.56000000
   H     73.91000000    59.50000000    95.06000000
   H     75.13000000    59.24000000    97.06000000
   H     73.64000000    59.33000000    97.98000000
   H     73.12000000    61.14000000    99.04000000
   H     75.29000000    61.47000000    95.46000000
   H     73.10000000    63.78000000    99.36000000
   H     75.30000000    63.99000000    95.72000000
   H     74.86000000    65.69000000    97.07000000
   N     74.10000000    56.93000000    95.20000000
   C     74.37000000    55.51000000    95.34000000
   C     75.57000000    55.28000000    96.25000000
   O     76.63000000    55.78000000    95.87000000
   C     74.70000000    54.86000000    94.00000000
   C     73.80000000    55.39000000    92.89000000
   C     74.57000000    53.33000000    94.02000000
   C     74.14000000    54.84000000    91.51000000
   H     74.64000000    57.42000000    94.51000000
   H     73.47000000    55.01000000    95.70000000
   H     75.72000000    55.03000000    93.67000000
   H     74.00000000    56.46000000    92.79000000
   H     72.76000000    55.10000000    93.04000000
   H     75.20000000    52.90000000    93.24000000
   H     74.97000000    52.91000000    94.94000000
   H     73.55000000    52.96000000    93.93000000
   H     74.07000000    53.76000000    91.40000000
   H     73.38000000    55.16000000    90.80000000
   H     75.14000000    55.19000000    91.23000000
   N     75.45000000    54.57000000    97.37000000
   C     76.55000000    54.29000000    98.28000000
   C     77.11000000    52.97000000    97.76000000
   O     76.52000000    52.31000000    96.91000000
   C     76.10000000    54.24000000    99.73000000
   O     75.33000000    53.10000000   100.04000000
   H     74.53000000    54.35000000    97.72000000
   H     77.37000000    54.99000000    98.10000000
   H     75.42000000    55.01000000   100.10000000
   H     77.03000000    54.28000000   100.30000000
   H     74.88000000    53.35000000   100.86000000
   N     78.28000000    52.66000000    98.31000000
   C     78.78000000    51.32000000    98.08000000
   C     77.90000000    50.17000000    98.55000000
   O     77.79000000    49.22000000    97.78000000
   C     80.16000000    51.27000000    98.74000000
   H     78.80000000    53.17000000    99.02000000
   H     79.00000000    51.14000000    97.03000000
   H     80.69000000    52.22000000    98.68000000
   H     79.92000000    51.00000000    99.77000000
   H     80.91000000    50.59000000    98.34000000
   N     77.07000000    50.41000000    99.56000000
   C     76.13000000    49.48000000   100.18000000
   C     74.89000000    49.34000000    99.31000000
   O     74.17000000    48.35000000    99.38000000
   C     75.81000000    49.97000000   101.59000000
   H     77.30000000    51.25000000   100.07000000
   H     76.66000000    48.54000000   100.30000000
   H     75.39000000    50.98000000   101.60000000
   H     75.22000000    49.24000000   102.14000000
   H     76.77000000    50.10000000   102.09000000
   N     74.67000000    50.33000000    98.44000000
   C     73.58000000    50.27000000    97.49000000
   C     74.10000000    49.64000000    96.20000000
   O     73.44000000    48.73000000    95.71000000
   C     72.97000000    51.66000000    97.27000000
   C     72.18000000    52.07000000    98.51000000
   C     71.82000000    53.55000000    98.36000000
   O     72.69000000    54.42000000    98.14000000
   O     70.64000000    53.94000000    98.42000000
   H     75.22000000    51.18000000    98.46000000
   H     72.76000000    49.66000000    97.86000000
   H     72.35000000    51.75000000    96.38000000
   H     73.80000000    52.36000000    97.17000000
   H     72.81000000    51.86000000    99.37000000
   H     71.25000000    51.51000000    98.54000000
   N     75.25000000    50.10000000    95.71000000
   C     75.77000000    49.61000000    94.45000000
   H     76.78900000    49.24900000    94.59400000
   H     75.14300000    48.79400000    94.09000000
   H     75.77100000    50.41800000    93.71800000
   H     75.78000000    50.82000000    96.18000000
  Ca     71.27000000    56.46000000    98.96000000
   O     73.10000000    56.22000000   100.87200000
   H     72.86000000    55.53000000   101.49200000
   H     74.01000000    56.43000000   101.09200000

Ca 1.70



