%chk=holoCaM_loop3_59.0.chk
%nprocshared=48
%mem=10GB
%nosave
#b3lyp/svp scf=(tight,noincore) Test 
#IOP(5/87=12) Density=Current Pop=(MK,readradii) iop(6/33=2) iop(6/42=6)

holoCaM_loop3_59.0 

   0   1
   C     36.38000000    48.28000000    44.32000000
   C     36.45000000    47.66000000    45.71000000
   O     35.42000000    47.44000000    46.33000000
   H     36.10500000    49.33100000    44.40500000
   H     37.35300000    48.19800000    43.83600000
   H     35.63200000    47.75600000    43.72500000
   N     37.66000000    47.45000000    46.24000000
   C     37.79000000    46.93000000    47.58000000
   C     37.46000000    48.05000000    48.55000000
   O     38.20000000    49.03000000    48.64000000
   C     39.25000000    46.53000000    47.83000000
   C     39.51000000    45.91000000    49.19000000
   O     38.58000000    45.84000000    50.02000000
   O     40.62000000    45.36000000    49.37000000
   H     38.46000000    47.60000000    45.63000000
   H     37.08000000    46.13000000    47.78000000
   H     39.87000000    47.42000000    47.73000000
   H     39.60000000    45.80000000    47.10000000
   N     36.41000000    47.86000000    49.35000000
   C     35.78000000    48.78000000    50.27000000
   C     36.44000000    48.92000000    51.64000000
   O     36.12000000    49.84000000    52.40000000
   C     34.33000000    48.32000000    50.43000000
   C     33.40000000    49.38000000    51.01000000
   C     31.97000000    48.83000000    51.08000000
   C     31.03000000    49.79000000    51.81000000
   N     29.67000000    49.24000000    51.83000000
   H     35.89000000    47.01000000    49.18000000
   H     35.89000000    49.74000000    49.77000000
   H     34.43000000    47.39000000    50.98000000
   H     33.96000000    47.98000000    49.47000000
   H     33.54000000    50.26000000    50.38000000
   H     33.76000000    49.60000000    52.02000000
   H     32.03000000    47.85000000    51.54000000
   H     31.56000000    48.70000000    50.08000000
   H     31.10000000    50.77000000    51.34000000
   H     31.46000000    49.89000000    52.81000000
   H     29.05000000    49.80000000    52.39000000
   H     29.28000000    49.21000000    50.90000000
   H     29.70000000    48.29000000    52.17000000
   N     37.45000000    48.11000000    51.94000000
   C     38.24000000    48.16000000    53.16000000
   C     39.73000000    48.10000000    52.87000000
   O     40.49000000    48.01000000    53.83000000
   C     37.77000000    47.18000000    54.23000000
   C     37.89000000    45.70000000    53.89000000
   O     38.12000000    45.31000000    52.72000000
   O     37.84000000    44.92000000    54.86000000
   H     37.66000000    47.36000000    51.29000000
   H     38.09000000    49.16000000    53.55000000
   H     36.73000000    47.41000000    54.44000000
   H     38.35000000    47.48000000    55.10000000
   N     40.10000000    48.11000000    51.59000000
   C     41.49000000    47.92000000    51.24000000
   C     42.15000000    46.60000000    51.63000000
   O     43.37000000    46.53000000    51.50000000
   H     39.39000000    48.11000000    50.87000000
   H     42.03000000    48.77000000    51.66000000
   H     41.64000000    47.87000000    50.17000000
   N     41.47000000    45.53000000    52.06000000
   C     42.12000000    44.42000000    52.72000000
   C     42.81000000    43.47000000    51.75000000
   O     43.31000000    42.45000000    52.21000000
   C     41.13000000    43.70000000    53.63000000
   C     40.27000000    42.55000000    53.14000000
   N     39.81000000    41.65000000    54.01000000
   O     39.88000000    42.61000000    51.98000000
   H     40.47000000    45.55000000    51.96000000
   H     42.89000000    44.71000000    53.44000000
   H     40.49000000    44.47000000    54.06000000
   H     41.73000000    43.30000000    54.46000000
   H     40.10000000    41.51000000    54.97000000
   H     39.16000000    41.01000000    53.57000000
   N     42.74000000    43.67000000    50.43000000
   C     43.30000000    42.85000000    49.37000000
   C     42.31000000    41.94000000    48.66000000
   O     42.77000000    41.26000000    47.75000000
   H     42.39000000    44.57000000    50.14000000
   H     44.08000000    42.15000000    49.67000000
   H     43.81000000    43.42000000    48.59000000
   N     41.03000000    41.81000000    49.04000000
   C     40.10000000    40.87000000    48.45000000
   C     38.76000000    41.54000000    48.19000000
   O     38.33000000    42.42000000    48.93000000
   C     39.86000000    39.60000000    49.26000000
   C     41.15000000    38.88000000    49.59000000
   C     41.73000000    38.97000000    50.86000000
   C     41.79000000    38.17000000    48.57000000
   C     42.98000000    38.38000000    51.11000000
   C     42.99000000    37.49000000    48.83000000
   C     43.55000000    37.57000000    50.11000000
   O     44.65000000    36.83000000    50.47000000
   H     40.71000000    42.48000000    49.72000000
   H     40.43000000    40.43000000    47.51000000
   H     39.12000000    38.95000000    48.79000000
   H     39.44000000    39.91000000    50.22000000
   H     41.24000000    39.45000000    51.69000000
   H     41.30000000    38.15000000    47.61000000
   H     43.40000000    38.40000000    52.10000000
   H     43.51000000    36.80000000    48.18000000
   H     45.07000000    36.31000000    49.78000000
   N     38.05000000    41.11000000    47.15000000
   C     36.81000000    41.74000000    46.74000000
   C     35.72000000    40.69000000    46.81000000
   O     35.97000000    39.52000000    46.53000000
   C     36.99000000    42.40000000    45.37000000
   C     37.91000000    43.60000000    45.55000000
   C     35.64000000    42.66000000    44.71000000
   C     38.50000000    44.16000000    44.26000000
   H     38.49000000    40.53000000    46.44000000
   H     36.55000000    42.50000000    47.48000000
   H     37.59000000    41.66000000    44.84000000
   H     38.81000000    43.41000000    46.14000000
   H     37.39000000    44.48000000    45.93000000
   H     35.08000000    43.24000000    45.45000000
   H     35.76000000    43.21000000    43.78000000
   H     35.13000000    41.72000000    44.53000000
   H     39.32000000    43.55000000    43.89000000
   H     37.72000000    44.12000000    43.49000000
   H     38.74000000    45.21000000    44.40000000
   N     34.51000000    41.13000000    47.16000000
   C     33.31000000    40.34000000    47.34000000
   C     32.17000000    40.83000000    46.45000000
   O     32.18000000    41.98000000    46.02000000
   C     32.86000000    40.32000000    48.80000000
   O     32.29000000    41.55000000    49.20000000
   H     34.43000000    42.14000000    47.13000000
   H     33.62000000    39.34000000    47.02000000
   H     33.78000000    40.14000000    49.37000000
   H     32.11000000    39.58000000    49.06000000
   H     32.56000000    41.74000000    50.10000000
   N     31.15000000    39.98000000    46.27000000
   C     29.91000000    40.43000000    45.68000000
   C     29.19000000    41.61000000    46.33000000
   O     28.68000000    42.48000000    45.64000000
   C     29.05000000    39.18000000    45.52000000
   H     31.16000000    39.08000000    46.73000000
   H     30.19000000    40.79000000    44.70000000
   H     28.73000000    38.93000000    46.53000000
   H     28.22000000    39.23000000    44.82000000
   H     29.65000000    38.33000000    45.19000000
   N     29.30000000    41.79000000    47.65000000
   C     28.90000000    42.93000000    48.46000000
   C     29.64000000    44.24000000    48.25000000
   O     29.02000000    45.30000000    48.28000000
   C     28.92000000    42.46000000    49.91000000
   H     29.91000000    41.10000000    48.05000000
   H     27.86000000    43.19000000    48.26000000
   H     29.96000000    42.25000000    50.17000000
   H     28.51000000    43.31000000    50.45000000
   H     28.24000000    41.61000000    50.04000000
   N     30.93000000    44.16000000    47.90000000
   C     31.75000000    45.33000000    47.67000000
   C     31.72000000    45.71000000    46.20000000
   O     31.87000000    46.87000000    45.81000000
   C     33.20000000    45.13000000    48.09000000
   C     33.22000000    45.05000000    49.61000000
   C     34.60000000    44.55000000    50.03000000
   O     34.71000000    43.99000000    51.14000000
   O     35.68000000    44.80000000    49.46000000
   H     31.33000000    43.23000000    47.85000000
   H     31.31000000    46.21000000    48.15000000
   H     33.76000000    46.02000000    47.82000000
   H     33.58000000    44.19000000    47.70000000
   H     32.42000000    44.39000000    49.94000000
   H     33.04000000    46.01000000    50.10000000
   N     31.50000000    44.77000000    45.28000000
   C     31.10000000    44.94000000    43.90000000
   H     30.25000000    45.62000000    43.85000000
   H     31.93100000    45.35500000    43.32900000
   H     30.81700000    43.97400000    43.48200000
   H     31.54000000    43.82000000    45.63000000
  Ca     37.46000000    43.61000000    51.03000000
   O     36.94000000    41.00000000    51.02000000
   H     36.44000000    40.38000000    50.49000000
   H     37.16000000    40.52000000    51.81000000

Ca 1.70



