%chk=holoCaM_loop3_42.0.chk
%nprocshared=48
%mem=10GB
%nosave
#b3lyp/svp scf=(tight,noincore) Test 
#IOP(5/87=12) Density=Current Pop=(MK,readradii) iop(6/33=2) iop(6/42=6)

holoCaM_loop3_42.0 

   0   1
   C     42.95000000    44.66000000    30.88000000
   C     43.52000000    43.83000000    32.02000000
   O     43.16000000    44.01000000    33.18000000
   H     42.05100000    45.17400000    31.22000000
   H     43.68900000    45.39400000    30.56000000
   H     42.70000000    44.00700000    30.04400000
   N     44.44000000    42.91000000    31.74000000
   C     45.06000000    42.04000000    32.73000000
   C     46.21000000    42.68000000    33.50000000
   O     47.23000000    42.98000000    32.88000000
   C     45.49000000    40.82000000    31.93000000
   C     46.11000000    39.81000000    32.88000000
   O     45.92000000    39.88000000    34.12000000
   O     46.70000000    38.86000000    32.32000000
   H     44.81000000    42.94000000    30.80000000
   H     44.32000000    41.78000000    33.48000000
   H     46.13000000    41.03000000    31.08000000
   H     44.61000000    40.30000000    31.52000000
   N     46.04000000    42.99000000    34.78000000
   C     47.01000000    43.79000000    35.50000000
   C     48.16000000    42.90000000    35.97000000
   O     49.27000000    43.41000000    35.86000000
   C     46.38000000    44.72000000    36.53000000
   C     45.26000000    45.58000000    35.97000000
   C     45.03000000    46.87000000    36.76000000
   C     44.56000000    46.60000000    38.19000000
   N     44.47000000    47.86000000    38.93000000
   H     45.19000000    42.69000000    35.23000000
   H     47.51000000    44.45000000    34.80000000
   H     47.14000000    45.41000000    36.91000000
   H     46.11000000    44.17000000    37.43000000
   H     44.35000000    44.97000000    36.04000000
   H     45.38000000    45.85000000    34.92000000
   H     44.26000000    47.47000000    36.27000000
   H     45.84000000    47.59000000    36.79000000
   H     45.29000000    45.99000000    38.73000000
   H     43.61000000    46.08000000    38.07000000
   H     45.35000000    48.20000000    39.29000000
   H     44.13000000    48.64000000    38.39000000
   H     43.94000000    47.72000000    39.78000000
   N     47.85000000    41.75000000    36.58000000
   C     48.71000000    40.79000000    37.24000000
   C     49.35000000    39.76000000    36.31000000
   O     50.40000000    39.18000000    36.58000000
   C     47.94000000    40.09000000    38.35000000
   C     46.62000000    39.46000000    37.91000000
   O     45.52000000    39.93000000    38.26000000
   O     46.66000000    38.44000000    37.18000000
   H     46.87000000    41.64000000    36.78000000
   H     49.52000000    41.32000000    37.74000000
   H     47.78000000    40.75000000    39.20000000
   H     48.48000000    39.23000000    38.75000000
   N     48.89000000    39.67000000    35.06000000
   C     49.41000000    38.90000000    33.96000000
   C     49.15000000    37.40000000    33.88000000
   O     49.67000000    36.75000000    32.98000000
   H     48.07000000    40.20000000    34.81000000
   H     50.49000000    39.05000000    34.05000000
   H     49.11000000    39.36000000    33.02000000
   N     48.20000000    36.94000000    34.70000000
   C     47.81000000    35.55000000    34.78000000
   C     46.92000000    35.13000000    33.61000000
   O     46.48000000    33.98000000    33.58000000
   C     47.03000000    35.24000000    36.05000000
   C     45.66000000    35.91000000    36.08000000
   N     44.94000000    35.42000000    37.09000000
   O     45.15000000    36.63000000    35.22000000
   H     47.64000000    37.59000000    35.24000000
   H     48.65000000    34.86000000    34.72000000
   H     47.60000000    35.69000000    36.87000000
   H     46.87000000    34.17000000    36.19000000
   H     45.38000000    34.78000000    37.74000000
   H     44.06000000    35.86000000    37.31000000
   N     46.50000000    35.91000000    32.62000000
   C     45.80000000    35.40000000    31.45000000
   C     44.29000000    35.30000000    31.59000000
   O     43.68000000    34.71000000    30.71000000
   H     46.56000000    36.91000000    32.75000000
   H     46.19000000    34.40000000    31.30000000
   H     45.96000000    36.01000000    30.56000000
   N     43.71000000    35.93000000    32.62000000
   C     42.31000000    36.00000000    32.95000000
   C     41.95000000    37.37000000    33.50000000
   O     42.76000000    37.98000000    34.19000000
   C     41.93000000    34.91000000    33.96000000
   C     42.00000000    33.47000000    33.54000000
   C     42.61000000    32.55000000    34.40000000
   C     41.50000000    33.05000000    32.30000000
   C     42.63000000    31.19000000    34.05000000
   C     41.73000000    31.74000000    31.84000000
   C     42.20000000    30.79000000    32.77000000
   O     42.26000000    29.47000000    32.44000000
   H     44.30000000    36.29000000    33.35000000
   H     41.73000000    35.83000000    32.04000000
   H     40.88000000    34.97000000    34.24000000
   H     42.61000000    35.06000000    34.80000000
   H     43.01000000    32.94000000    35.32000000
   H     40.88000000    33.73000000    31.73000000
   H     43.08000000    30.44000000    34.68000000
   H     41.46000000    31.47000000    30.83000000
   H     42.07000000    29.27000000    31.52000000
   N     40.76000000    37.92000000    33.23000000
   C     40.26000000    39.17000000    33.78000000
   C     39.30000000    38.88000000    34.92000000
   O     38.28000000    38.26000000    34.62000000
   C     39.70000000    40.08000000    32.69000000
   C     40.71000000    40.48000000    31.62000000
   C     39.14000000    41.37000000    33.29000000
   C     40.04000000    40.67000000    30.26000000
   H     40.05000000    37.41000000    32.72000000
   H     41.07000000    39.70000000    34.27000000
   H     38.89000000    39.54000000    32.19000000
   H     41.46000000    39.70000000    31.45000000
   H     41.30000000    41.34000000    31.92000000
   H     39.90000000    41.93000000    33.82000000
   H     38.89000000    41.97000000    32.42000000
   H     38.24000000    41.11000000    33.85000000
   H     39.24000000    41.40000000    30.36000000
   H     40.78000000    41.11000000    29.60000000
   H     39.75000000    39.68000000    29.89000000
   N     39.46000000    39.47000000    36.10000000
   C     38.54000000    39.52000000    37.22000000
   C     37.77000000    40.84000000    37.20000000
   O     38.13000000    41.79000000    36.51000000
   C     39.28000000    39.20000000    38.51000000
   O     40.39000000    40.04000000    38.72000000
   H     40.30000000    40.03000000    36.13000000
   H     37.75000000    38.76000000    37.19000000
   H     39.62000000    38.16000000    38.55000000
   H     38.66000000    39.32000000    39.40000000
   H     41.05000000    39.84000000    38.05000000
   N     36.71000000    40.94000000    38.01000000
   C     35.96000000    42.17000000    38.07000000
   C     36.71000000    43.39000000    38.58000000
   O     36.51000000    44.51000000    38.11000000
   C     34.74000000    41.88000000    38.95000000
   H     36.48000000    40.20000000    38.65000000
   H     35.64000000    42.41000000    37.06000000
   H     34.03000000    42.71000000    38.87000000
   H     34.27000000    40.93000000    38.70000000
   H     34.99000000    41.77000000    40.00000000
   N     37.58000000    43.29000000    39.60000000
   C     38.35000000    44.40000000    40.10000000
   C     39.23000000    45.02000000    39.02000000
   O     39.35000000    46.24000000    39.04000000
   C     39.23000000    43.81000000    41.20000000
   H     37.49000000    42.41000000    40.08000000
   H     37.78000000    45.22000000    40.53000000
   H     39.92000000    43.10000000    40.74000000
   H     39.84000000    44.57000000    41.69000000
   H     38.56000000    43.37000000    41.94000000
   N     39.73000000    44.17000000    38.12000000
   C     40.48000000    44.62000000    36.96000000
   C     39.66000000    45.33000000    35.89000000
   O     40.20000000    46.25000000    35.27000000
   C     41.13000000    43.36000000    36.41000000
   C     42.22000000    42.76000000    37.30000000
   C     42.81000000    41.46000000    36.77000000
   O     42.23000000    40.36000000    36.81000000
   O     43.91000000    41.48000000    36.18000000
   H     39.54000000    43.19000000    38.25000000
   H     41.23000000    45.34000000    37.30000000
   H     41.64000000    43.69000000    35.50000000
   H     40.41000000    42.57000000    36.19000000
   H     41.80000000    42.50000000    38.27000000
   H     43.04000000    43.45000000    37.46000000
   N     38.44000000    44.86000000    35.66000000
   C     37.59000000    45.50000000    34.68000000
   H     36.69700000    45.88600000    35.17100000
   H     38.13000000    46.32200000    34.21100000
   H     37.30100000    44.77400000    33.92000000
   H     38.07000000    44.15000000    36.28000000
  Ca     44.43000000    38.93000000    35.98000000
   O     42.68000000    37.16000000    37.59000000
   H     42.52000000    37.40000000    38.50000000
   H     41.87000000    36.74000000    37.30000000

Ca 1.70



