%chk=holoCaM_loop3_60.0.chk
%nprocshared=48
%mem=10GB
%nosave
#b3lyp/svp scf=(tight,noincore) Test 
#IOP(5/87=12) Density=Current Pop=(MK,readradii) iop(6/33=2) iop(6/42=6)

holoCaM_loop3_60.0 

   0   1
   C     77.57000000    52.12000000    90.33000000
   C     78.41000000    53.00000000    89.42000000
   O     78.90000000    52.54000000    88.39000000
   H     76.59800000    51.94600000    89.86900000
   H     78.07600000    51.16600000    90.48200000
   H     77.43300000    52.61600000    91.29100000
   N     78.51000000    54.30000000    89.71000000
   C     79.23000000    55.29000000    88.94000000
   C     80.61000000    55.61000000    89.48000000
   O     80.74000000    55.97000000    90.65000000
   C     78.28000000    56.49000000    88.82000000
   C     78.90000000    57.57000000    87.94000000
   O     78.65000000    57.59000000    86.72000000
   O     79.59000000    58.48000000    88.43000000
   H     78.12000000    54.61000000    90.59000000
   H     79.37000000    54.83000000    87.96000000
   H     78.10000000    56.90000000    89.81000000
   H     77.32000000    56.23000000    88.37000000
   N     81.53000000    55.71000000    88.52000000
   C     82.93000000    55.90000000    88.84000000
   C     83.68000000    57.09000000    88.24000000
   O     84.84000000    57.34000000    88.54000000
   C     83.60000000    54.57000000    88.51000000
   C     83.14000000    53.31000000    89.24000000
   C     83.81000000    52.09000000    88.61000000
   C     83.62000000    50.76000000    89.34000000
   N     84.56000000    49.73000000    88.86000000
   H     81.19000000    55.50000000    87.59000000
   H     83.00000000    55.99000000    89.92000000
   H     84.69000000    54.61000000    88.59000000
   H     83.49000000    54.42000000    87.43000000
   H     82.06000000    53.23000000    89.07000000
   H     83.46000000    53.44000000    90.27000000
   H     84.85000000    52.37000000    88.51000000
   H     83.54000000    52.02000000    87.56000000
   H     82.60000000    50.44000000    89.15000000
   H     83.62000000    50.87000000    90.42000000
   H     84.88000000    49.92000000    87.92000000
   H     85.40000000    49.96000000    89.37000000
   H     84.33000000    48.76000000    89.04000000
   N     82.96000000    57.90000000    87.46000000
   C     83.55000000    58.99000000    86.71000000
   C     82.88000000    60.32000000    87.03000000
   O     83.37000000    61.41000000    86.74000000
   C     83.54000000    58.73000000    85.21000000
   C     82.17000000    58.37000000    84.64000000
   O     82.02000000    57.20000000    84.23000000
   O     81.22000000    59.18000000    84.68000000
   H     82.01000000    57.63000000    87.27000000
   H     84.61000000    59.06000000    86.94000000
   H     84.22000000    57.90000000    85.03000000
   H     83.81000000    59.58000000    84.58000000
   N     81.75000000    60.31000000    87.74000000
   C     80.97000000    61.40000000    88.30000000
   C     79.80000000    61.94000000    87.50000000
   O     79.11000000    62.82000000    88.01000000
   H     81.38000000    59.40000000    87.97000000
   H     81.70000000    62.18000000    88.50000000
   H     80.52000000    61.02000000    89.22000000
   N     79.43000000    61.44000000    86.31000000
   C     78.27000000    61.88000000    85.57000000
   C     76.96000000    61.21000000    85.97000000
   O     75.88000000    61.60000000    85.54000000
   C     78.57000000    61.95000000    84.07000000
   C     78.33000000    60.63000000    83.35000000
   N     78.25000000    60.62000000    82.01000000
   O     78.18000000    59.55000000    83.91000000
   H     80.12000000    60.81000000    85.92000000
   H     78.22000000    62.95000000    85.77000000
   H     79.59000000    62.30000000    83.93000000
   H     77.82000000    62.58000000    83.58000000
   H     78.36000000    61.45000000    81.44000000
   H     78.13000000    59.73000000    81.56000000
   N     77.07000000    60.08000000    86.67000000
   C     75.98000000    59.29000000    87.20000000
   C     75.44000000    58.21000000    86.27000000
   O     74.95000000    57.18000000    86.72000000
   H     77.99000000    59.70000000    86.87000000
   H     75.23000000    59.92000000    87.68000000
   H     76.47000000    58.64000000    87.92000000
   N     75.55000000    58.40000000    84.95000000
   C     75.00000000    57.52000000    83.94000000
   C     75.94000000    56.34000000    83.74000000
   O     77.07000000    56.65000000    83.39000000
   C     74.79000000    58.27000000    82.63000000
   C     74.05000000    59.57000000    82.75000000
   C     74.16000000    60.39000000    81.61000000
   C     73.08000000    59.87000000    83.72000000
   C     73.41000000    61.55000000    81.44000000
   C     72.33000000    61.04000000    83.62000000
   C     72.54000000    61.88000000    82.50000000
   O     71.91000000    63.09000000    82.52000000
   H     75.96000000    59.28000000    84.65000000
   H     74.02000000    57.22000000    84.31000000
   H     74.19000000    57.60000000    82.02000000
   H     75.75000000    58.43000000    82.14000000
   H     74.93000000    60.10000000    80.92000000
   H     72.94000000    59.26000000    84.60000000
   H     73.52000000    62.14000000    80.54000000
   H     71.49000000    61.22000000    84.27000000
   H     71.44000000    63.25000000    83.34000000
   N     75.42000000    55.13000000    83.97000000
   C     76.28000000    53.96000000    83.92000000
   C     76.77000000    53.77000000    82.50000000
   O     75.92000000    53.99000000    81.64000000
   C     75.69000000    52.74000000    84.63000000
   C     75.09000000    53.25000000    85.94000000
   C     76.60000000    51.53000000    84.80000000
   C     76.00000000    53.91000000    86.97000000
   H     74.42000000    55.15000000    83.96000000
   H     77.19000000    54.20000000    84.47000000
   H     74.89000000    52.42000000    83.97000000
   H     74.67000000    52.35000000    86.40000000
   H     74.22000000    53.89000000    85.81000000
   H     76.07000000    50.67000000    85.23000000
   H     76.97000000    51.25000000    83.81000000
   H     77.41000000    51.71000000    85.50000000
   H     76.88000000    53.30000000    87.18000000
   H     76.27000000    54.96000000    86.93000000
   H     75.60000000    53.99000000    87.98000000
   N     78.03000000    53.40000000    82.27000000
   C     78.55000000    53.08000000    80.95000000
   C     78.93000000    51.62000000    80.76000000
   O     78.80000000    50.88000000    81.74000000
   C     79.70000000    54.01000000    80.59000000
   O     80.72000000    53.87000000    81.56000000
   H     78.62000000    53.39000000    83.09000000
   H     77.78000000    53.26000000    80.21000000
   H     79.44000000    55.07000000    80.62000000
   H     80.06000000    53.74000000    79.59000000
   H     80.47000000    54.25000000    82.40000000
   N     79.39000000    51.23000000    79.57000000
   C     79.84000000    49.88000000    79.31000000
   C     80.84000000    49.36000000    80.34000000
   O     80.77000000    48.25000000    80.85000000
   C     80.53000000    49.83000000    77.95000000
   H     79.41000000    51.89000000    78.81000000
   H     78.97000000    49.22000000    79.31000000
   H     79.84000000    50.30000000    77.25000000
   H     81.44000000    50.44000000    77.95000000
   H     80.96000000    48.89000000    77.60000000
   N     81.84000000    50.17000000    80.70000000
   C     82.93000000    50.01000000    81.64000000
   C     82.61000000    50.01000000    83.13000000
   O     83.34000000    49.44000000    83.94000000
   C     83.94000000    51.11000000    81.33000000
   H     82.00000000    50.98000000    80.12000000
   H     83.54000000    49.11000000    81.55000000
   H     84.41000000    50.82000000    80.39000000
   H     83.40000000    52.05000000    81.21000000
   H     84.75000000    51.29000000    82.02000000
   N     81.45000000    50.56000000    83.48000000
   C     81.01000000    50.58000000    84.86000000
   C     79.91000000    49.56000000    85.15000000
   O     79.92000000    49.01000000    86.25000000
   C     80.38000000    51.93000000    85.19000000
   C     81.37000000    53.09000000    85.15000000
   C     80.58000000    54.39000000    85.07000000
   O     80.53000000    55.27000000    85.95000000
   O     79.87000000    54.63000000    84.06000000
   H     80.97000000    51.11000000    82.78000000
   H     81.81000000    50.52000000    85.60000000
   H     79.96000000    51.86000000    86.20000000
   H     79.57000000    52.21000000    84.51000000
   H     82.09000000    53.08000000    84.33000000
   H     81.95000000    53.17000000    86.07000000
   N     79.10000000    49.24000000    84.14000000
   C     78.07000000    48.21000000    84.16000000
   H     77.18300000    48.57400000    83.64100000
   H     78.44100000    47.31500000    83.66100000
   H     77.81400000    47.97100000    85.19200000
   H     79.23000000    49.75000000    83.28000000
  Ca     79.49000000    57.23000000    84.37000000
   O     80.11000000    57.18000000    81.91000000
   H     80.90000000    57.22000000    81.36000000
   H     79.43000000    57.57000000    81.37000000

Ca 1.70



