%chk=holoCaM_loop3_39.0.chk
%nprocshared=48
%mem=10GB
%nosave
#b3lyp/svp scf=(tight,noincore) Test 
#IOP(5/87=12) Density=Current Pop=(MK,readradii) iop(6/33=2) iop(6/42=6)

holoCaM_loop3_39.0 

   0   1
   C     94.50000000    55.62000000     3.50300000
   C     95.62000000    56.54000000     3.02300000
   O     96.74000000    56.13000000     2.74300000
   H     93.61400000    55.77500000     2.88700000
   H     94.82200000    54.58200000     3.42100000
   H     94.26300000    55.84600000     4.54300000
   N     95.44000000    57.85000000     3.18300000
   C     96.47000000    58.87000000     3.21300000
   C     97.16000000    58.85000000     4.56300000
   O     96.54000000    58.83000000     5.63300000
   C     95.70000000    60.17000000     2.96300000
   C     96.66000000    61.35000000     2.99300000
   O     96.45000000    62.31000000     3.75300000
   O     97.65000000    61.29000000     2.22300000
   H     94.52000000    58.18000000     3.43300000
   H     97.14000000    58.80000000     2.35300000
   H     94.97000000    60.29000000     3.76300000
   H     95.22000000    60.14000000     1.99300000
   N     98.49000000    58.78000000     4.43300000
   C     99.38000000    58.70000000     5.56300000
   C    100.21000000    59.95000000     5.79300000
   O    100.90000000    60.05000000     6.81300000
   C    100.33000000    57.53000000     5.29300000
   C     99.59000000    56.19000000     5.31300000
   C     98.97000000    55.88000000     6.67300000
   C     98.90000000    54.36000000     6.73300000
   N     97.78000000    53.76000000     5.99300000
   H     98.97000000    58.83000000     3.54300000
   H     98.89000000    58.50000000     6.51300000
   H    101.15000000    57.39000000     5.99300000
   H    100.77000000    57.65000000     4.30300000
   H    100.32000000    55.40000000     5.14300000
   H     98.78000000    56.18000000     4.58300000
   H     98.00000000    56.35000000     6.85300000
   H     99.69000000    56.22000000     7.42300000
   H     98.89000000    54.03000000     7.77300000
   H     99.79000000    53.82000000     6.42300000
   H     97.79000000    53.99000000     5.00300000
   H     97.64000000    52.78000000     6.18300000
   H     96.92000000    54.17000000     6.32300000
   N    100.09000000    61.00000000     4.97300000
   C    100.87000000    62.21000000     5.17300000
   C    100.14000000    63.51000000     5.46300000
   O    100.60000000    64.49000000     6.04300000
   C    101.77000000    62.52000000     3.98300000
   C    101.15000000    62.33000000     2.61300000
   O    101.69000000    61.67000000     1.70300000
   O     99.98000000    62.72000000     2.41300000
   H     99.40000000    60.96000000     4.24300000
   H    101.52000000    62.08000000     6.04300000
   H    102.64000000    61.85000000     4.02300000
   H    102.23000000    63.50000000     4.08300000
   N     98.86000000    63.54000000     5.06300000
   C     97.96000000    64.66000000     5.22300000
   C     97.76000000    65.51000000     3.97300000
   O     97.12000000    66.55000000     4.05300000
   H     98.38000000    62.78000000     4.60300000
   H     98.33000000    65.33000000     6.00300000
   H     96.99000000    64.21000000     5.40300000
   N     98.22000000    65.11000000     2.78300000
   C     97.92000000    65.67000000     1.48300000
   C     96.71000000    65.07000000     0.80300000
   O     96.30000000    65.58000000    -0.23700000
   C     99.21000000    65.63000000     0.66300000
   C     99.45000000    64.37000000    -0.15700000
   N    100.65000000    64.23000000    -0.72700000
   O     98.64000000    63.49000000    -0.44700000
   H     98.62000000    64.18000000     2.74300000
   H     97.74000000    66.74000000     1.58300000
   H    100.06000000    65.86000000     1.29300000
   H     99.20000000    66.40000000    -0.10700000
   H    101.42000000    64.80000000    -0.40700000
   H    100.74000000    63.67000000    -1.56700000
   N     96.08000000    64.03000000     1.36300000
   C     94.80000000    63.44000000     1.00300000
   C     94.70000000    62.80000000    -0.37700000
   O     93.62000000    62.32000000    -0.69700000
   H     96.50000000    63.53000000     2.14300000
   H     93.97000000    64.13000000     1.14300000
   H     94.70000000    62.71000000     1.80300000
   N     95.75000000    62.64000000    -1.16700000
   C     95.90000000    61.95000000    -2.43700000
   C     96.61000000    60.64000000    -2.11700000
   O     97.59000000    60.65000000    -1.37700000
   C     96.72000000    62.75000000    -3.44700000
   C     96.23000000    64.14000000    -3.74700000
   C     97.15000000    65.10000000    -4.17700000
   C     94.85000000    64.42000000    -3.72700000
   C     96.72000000    66.38000000    -4.51700000
   C     94.37000000    65.70000000    -4.04700000
   C     95.33000000    66.64000000    -4.47700000
   O     94.93000000    67.90000000    -4.80700000
   H     96.60000000    63.07000000    -0.82700000
   H     94.88000000    61.78000000    -2.77700000
   H     96.68000000    62.17000000    -4.37700000
   H     97.73000000    62.80000000    -3.04700000
   H     98.21000000    64.89000000    -4.20700000
   H     94.19000000    63.70000000    -3.28700000
   H     97.42000000    67.16000000    -4.79700000
   H     93.33000000    65.90000000    -3.83700000
   H     93.98000000    67.98000000    -4.69700000
   N     96.19000000    59.57000000    -2.80700000
   C     96.83000000    58.28000000    -2.65700000
   C     97.91000000    57.95000000    -3.67700000
   O     97.58000000    57.75000000    -4.84700000
   C     95.75000000    57.21000000    -2.51700000
   C     94.69000000    57.37000000    -1.42700000
   C     96.50000000    55.90000000    -2.24700000
   C     95.33000000    57.91000000    -0.15700000
   H     95.46000000    59.61000000    -3.49700000
   H     97.34000000    58.38000000    -1.69700000
   H     95.19000000    57.19000000    -3.44700000
   H     94.21000000    56.40000000    -1.31700000
   H     94.00000000    58.17000000    -1.68700000
   H     95.80000000    55.10000000    -2.47700000
   H     97.36000000    55.76000000    -2.90700000
   H     96.69000000    55.69000000    -1.19700000
   H     94.55000000    57.97000000     0.60300000
   H     96.22000000    57.35000000     0.15300000
   H     95.56000000    58.97000000    -0.23700000
   N     99.14000000    57.78000000    -3.16700000
   C    100.32000000    57.38000000    -3.90700000
   C    100.68000000    55.92000000    -3.69700000
   O    100.07000000    55.20000000    -2.91700000
   C    101.45000000    58.34000000    -3.52700000
   O    102.02000000    58.10000000    -2.26700000
   H     99.25000000    57.95000000    -2.17700000
   H    100.11000000    57.44000000    -4.97700000
   H    101.07000000    59.36000000    -3.42700000
   H    102.24000000    58.36000000    -4.27700000
   H    101.36000000    58.25000000    -1.58700000
   N    101.61000000    55.46000000    -4.54700000
   C    101.63000000    54.05000000    -4.86700000
   C    101.98000000    53.23000000    -3.62700000
   O    101.61000000    52.07000000    -3.49700000
   C    102.46000000    53.85000000    -6.12700000
   H    102.07000000    56.04000000    -5.22700000
   H    100.63000000    53.68000000    -5.10700000
   H    101.81000000    54.25000000    -6.89700000
   H    103.34000000    54.49000000    -6.00700000
   H    102.75000000    52.81000000    -6.25700000
   N    102.71000000    53.78000000    -2.65700000
   C    103.06000000    53.10000000    -1.42700000
   C    101.93000000    53.08000000    -0.40700000
   O    101.74000000    52.14000000     0.36300000
   C    104.24000000    53.80000000    -0.75700000
   H    102.88000000    54.77000000    -2.80700000
   H    103.21000000    52.08000000    -1.75700000
   H    104.64000000    53.17000000     0.05300000
   H    105.06000000    53.64000000    -1.45700000
   H    104.09000000    54.83000000    -0.45700000
   N    101.12000000    54.14000000    -0.39700000
   C     99.91000000    54.26000000     0.39300000
   C     98.90000000    53.18000000     0.05300000
   O     98.30000000    52.54000000     0.91300000
   C     99.33000000    55.67000000     0.28300000
   C    100.30000000    56.58000000     1.02300000
   C    100.03000000    58.07000000     0.82300000
   O     99.85000000    58.85000000     1.77300000
   O     99.91000000    58.57000000    -0.31700000
   H    101.46000000    54.94000000    -0.92700000
   H    100.30000000    54.09000000     1.39300000
   H     98.43000000    55.69000000     0.89300000
   H     99.00000000    55.95000000    -0.71700000
   H    101.32000000    56.34000000     0.73300000
   H    100.23000000    56.45000000     2.10300000
   N     98.66000000    53.03000000    -1.25700000
   C     97.88000000    51.95000000    -1.81700000
   H     96.95600000    52.34900000    -2.23600000
   H     98.45200000    51.45800000    -2.60400000
   H     97.64200000    51.22900000    -1.03500000
   H     99.18000000    53.65000000    -1.86700000
  Ca     99.42000000    61.06000000     0.42000000
   O    101.05700000    61.47000000    -1.68700000
   H    100.60700000    61.61000000    -2.51700000
   H    101.94700000    61.21000000    -1.92700000

Ca 1.70



