%chk=CaMKII_loop3_35.0.chk
%nprocshared=48
%mem=10GB
%nosave
#b3lyp/svp scf=(tight,noincore) Test 
#IOP(5/87=12) Density=Current Pop=(MK,readradii) iop(6/33=2) iop(6/42=6)

CaMKII_loop3_35.0 

   0   1
   C     84.07000000    67.33000000    28.39000000
   C     83.56000000    67.02000000    29.79000000
   O     84.03000000    66.08000000    30.43000000
   H     85.09500000    66.97400000    28.29000000
   H     83.43900000    66.83100000    27.65400000
   H     84.04200000    68.40700000    28.22300000
   N     82.50000000    67.74000000    30.14000000
   C     81.83000000    67.39000000    31.37000000
   C     80.98000000    66.13000000    31.32000000
   O     80.00000000    66.00000000    30.59000000
   C     80.94000000    68.56000000    31.79000000
   C     80.22000000    68.44000000    33.13000000
   O     80.43000000    67.40000000    33.79000000
   O     79.44000000    69.36000000    33.46000000
   H     82.05000000    68.34000000    29.45000000
   H     82.49000000    67.28000000    32.23000000
   H     80.09000000    68.85000000    31.17000000
   H     81.47000000    69.51000000    31.71000000
   N     81.32000000    65.10000000    32.10000000
   C     80.71000000    63.78000000    32.02000000
   C     79.39000000    63.63000000    32.76000000
   O     78.51000000    62.86000000    32.39000000
   C     81.74000000    62.72000000    32.39000000
   C     81.31000000    61.45000000    31.66000000
   C     82.26000000    60.35000000    32.10000000
   C     81.84000000    58.96000000    31.63000000
   N     82.80000000    57.91000000    32.01000000
   H     82.09000000    65.14000000    32.75000000
   H     80.51000000    63.62000000    30.97000000
   H     81.66000000    62.56000000    33.47000000
   H     82.75000000    63.02000000    32.10000000
   H     81.52000000    61.57000000    30.60000000
   H     80.28000000    61.14000000    31.87000000
   H     82.37000000    60.32000000    33.19000000
   H     83.27000000    60.52000000    31.72000000
   H     81.78000000    58.97000000    30.54000000
   H     80.84000000    58.75000000    32.00000000
   H     82.71000000    57.09000000    31.42000000
   H     83.73000000    58.29000000    32.01000000
   H     82.55000000    57.46000000    32.88000000
   N     79.14000000    64.40000000    33.83000000
   C     77.89000000    64.33000000    34.55000000
   C     77.05000000    65.54000000    34.21000000
   O     75.85000000    65.52000000    34.50000000
   C     77.99000000    64.14000000    36.07000000
   C     78.91000000    65.10000000    36.80000000
   O     79.44000000    66.06000000    36.20000000
   O     79.20000000    64.88000000    38.00000000
   H     79.84000000    65.07000000    34.14000000
   H     77.22000000    63.54000000    34.20000000
   H     78.38000000    63.16000000    36.34000000
   H     77.08000000    64.20000000    36.67000000
   N     77.50000000    66.66000000    33.64000000
   C     76.74000000    67.89000000    33.50000000
   C     76.53000000    68.70000000    34.77000000
   O     75.59000000    69.48000000    34.85000000
   H     78.47000000    66.67000000    33.36000000
   H     75.72000000    67.75000000    33.14000000
   H     77.08000000    68.55000000    32.70000000
   N     77.53000000    68.69000000    35.66000000
   C     77.46000000    69.44000000    36.90000000
   C     77.91000000    70.87000000    36.61000000
   O     77.85000000    71.67000000    37.55000000
   C     78.12000000    68.77000000    38.10000000
   C     79.57000000    69.17000000    38.29000000
   N     79.94000000    69.70000000    39.46000000
   O     80.32000000    69.17000000    37.32000000
   H     78.36000000    68.16000000    35.47000000
   H     76.40000000    69.58000000    37.11000000
   H     78.07000000    67.69000000    37.97000000
   H     77.49000000    68.93000000    38.97000000
   H     79.31000000    69.88000000    40.23000000
   H     80.90000000    70.00000000    39.53000000
   N     78.40000000    71.25000000    35.43000000
   C     78.84000000    72.58000000    35.04000000
   C     80.36000000    72.69000000    35.03000000
   O     80.84000000    73.80000000    34.82000000
   H     78.41000000    70.62000000    34.65000000
   H     78.59000000    73.33000000    35.79000000
   H     78.43000000    72.87000000    34.08000000
   N     81.10000000    71.62000000    35.33000000
   C     82.54000000    71.57000000    35.50000000
   C     83.20000000    70.37000000    34.83000000
   O     82.60000000    69.31000000    34.70000000
   C     82.83000000    71.70000000    36.99000000
   C     82.16000000    72.82000000    37.76000000
   C     82.79000000    74.04000000    38.02000000
   C     80.86000000    72.58000000    38.23000000
   C     82.10000000    75.11000000    38.61000000
   C     80.23000000    73.62000000    38.93000000
   C     80.79000000    74.90000000    39.08000000
   O     80.04000000    75.87000000    39.67000000
   H     80.61000000    70.74000000    35.36000000
   H     82.95000000    72.45000000    34.99000000
   H     83.89000000    71.75000000    37.24000000
   H     82.60000000    70.83000000    37.60000000
   H     83.79000000    74.21000000    37.67000000
   H     80.32000000    71.65000000    38.14000000
   H     82.62000000    76.05000000    38.70000000
   H     79.29000000    73.44000000    39.43000000
   H     79.10000000    75.71000000    39.79000000
   N     84.52000000    70.42000000    34.66000000
   C     85.38000000    69.33000000    34.24000000
   C     86.25000000    68.90000000    35.42000000
   O     86.78000000    69.75000000    36.12000000
   C     86.17000000    69.74000000    33.00000000
   C     85.37000000    70.22000000    31.80000000
   C     86.95000000    68.52000000    32.51000000
   C     86.21000000    70.95000000    30.75000000
   H     84.92000000    71.25000000    35.06000000
   H     84.79000000    68.49000000    33.90000000
   H     86.80000000    70.58000000    33.28000000
   H     84.57000000    70.88000000    32.12000000
   H     84.81000000    69.42000000    31.32000000
   H     86.21000000    67.76000000    32.27000000
   H     87.56000000    68.72000000    31.63000000
   H     87.58000000    68.14000000    33.32000000
   H     85.57000000    71.06000000    29.87000000
   H     86.44000000    71.97000000    31.06000000
   H     87.18000000    70.47000000    30.62000000
   N     86.45000000    67.60000000    35.69000000
   C     87.38000000    67.02000000    36.64000000
   C     88.31000000    66.01000000    35.98000000
   O     88.15000000    65.69000000    34.80000000
   C     86.71000000    66.68000000    37.96000000
   O     85.50000000    66.01000000    37.65000000
   H     86.01000000    66.94000000    35.07000000
   H     88.08000000    67.82000000    36.87000000
   H     86.51000000    67.61000000    38.49000000
   H     87.41000000    66.06000000    38.52000000
   H     85.69000000    65.07000000    37.73000000
   N     89.41000000    65.62000000    36.62000000
   C     90.53000000    64.89000000    36.05000000
   C     90.11000000    63.64000000    35.29000000
   O     90.52000000    63.44000000    34.15000000
   C     91.54000000    64.58000000    37.15000000
   H     89.62000000    66.10000000    37.49000000
   H     91.05000000    65.57000000    35.38000000
   H     91.12000000    64.18000000    38.07000000
   H     92.34000000    63.92000000    36.79000000
   H     91.98000000    65.48000000    37.56000000
   N     89.18000000    62.85000000    35.83000000
   C     88.67000000    61.63000000    35.23000000
   C     87.79000000    61.79000000    34.00000000
   O     87.63000000    60.89000000    33.18000000
   C     88.02000000    60.77000000    36.31000000
   H     88.94000000    63.08000000    36.79000000
   H     89.58000000    61.10000000    34.96000000
   H     88.71000000    60.44000000    37.08000000
   H     87.24000000    61.40000000    36.76000000
   H     87.58000000    59.84000000    35.96000000
   N     87.18000000    62.97000000    33.90000000
   C     86.32000000    63.36000000    32.80000000
   C     87.21000000    63.84000000    31.66000000
   O     87.01000000    63.36000000    30.54000000
   C     85.43000000    64.53000000    33.18000000
   C     84.88000000    64.27000000    34.57000000
   C     83.75000000    65.26000000    34.82000000
   O     82.58000000    64.84000000    34.95000000
   O     83.90000000    66.50000000    34.76000000
   H     87.26000000    63.63000000    34.66000000
   H     85.63000000    62.54000000    32.58000000
   H     84.60000000    64.51000000    32.46000000
   H     86.02000000    65.45000000    33.20000000
   H     85.62000000    64.37000000    35.37000000
   H     84.48000000    63.26000000    34.69000000
   N     88.20000000    64.69000000    31.93000000
   C     89.15000000    65.09000000    30.91000000
   H     90.09500000    64.57000000    31.07000000
   H     88.75700000    64.83400000    29.92600000
   H     89.31400000    66.16600000    30.96700000
   H     88.27000000    65.15000000    32.83000000
  Ca     81.66000000    67.28000000    36.00000000
   O     81.68000000    65.72000000    38.07000000
   H     80.82000000    65.33000000    38.22000000
   H     82.25000000    65.33000000    38.74000000

Ca 1.70



