%chk=CaMKII_loop3_32.0.chk
%nprocshared=48
%mem=10GB
%nosave
#b3lyp/svp scf=(tight,noincore) Test 
#IOP(5/87=12) Density=Current Pop=(MK,readradii) iop(6/33=2) iop(6/42=6)

CaMKII_loop3_32.0 

   0   1
   C     66.69000000    46.30000000    25.24000000
   C     65.33000000    45.72000000    25.59000000
   O     65.14000000    44.55000000    25.93000000
   H     67.42700000    45.49800000    25.20000000
   H     66.63700000    46.79200000    24.26900000
   H     66.98300000    47.02500000    26.00000000
   N     64.26000000    46.49000000    25.40000000
   C     62.93000000    46.10000000    25.83000000
   C     62.37000000    45.09000000    24.83000000
   O     62.00000000    45.46000000    23.72000000
   C     61.99000000    47.30000000    25.98000000
   C     60.56000000    46.91000000    26.32000000
   O     60.43000000    45.84000000    26.95000000
   O     59.67000000    47.73000000    26.02000000
   H     64.41000000    47.44000000    25.10000000
   H     63.01000000    45.68000000    26.83000000
   H     61.82000000    47.75000000    25.01000000
   H     62.42000000    47.97000000    26.73000000
   N     62.32000000    43.80000000    25.16000000
   C     62.24000000    42.69000000    24.23000000
   C     60.81000000    42.42000000    23.77000000
   O     60.65000000    42.08000000    22.60000000
   C     62.95000000    41.44000000    24.74000000
   C     63.44000000    40.61000000    23.56000000
   C     64.41000000    39.46000000    23.81000000
   C     64.88000000    38.89000000    22.48000000
   N     65.27000000    37.48000000    22.68000000
   H     62.40000000    43.62000000    26.16000000
   H     62.85000000    42.89000000    23.35000000
   H     62.28000000    40.78000000    25.28000000
   H     63.80000000    41.69000000    25.37000000
   H     63.93000000    41.31000000    22.88000000
   H     62.55000000    40.23000000    23.06000000
   H     63.95000000    38.64000000    24.37000000
   H     65.28000000    39.84000000    24.34000000
   H     65.64000000    39.42000000    21.89000000
   H     63.99000000    38.81000000    21.86000000
   H     64.45000000    36.90000000    22.61000000
   H     65.91000000    37.18000000    21.95000000
   H     65.66000000    37.35000000    23.60000000
   N     59.85000000    42.55000000    24.69000000
   C     58.44000000    42.40000000    24.41000000
   C     57.78000000    43.71000000    24.03000000
   O     56.58000000    43.76000000    23.75000000
   C     57.80000000    41.69000000    25.61000000
   C     58.05000000    42.24000000    27.00000000
   O     57.53000000    41.70000000    28.00000000
   O     58.83000000    43.19000000    27.20000000
   H     60.13000000    42.88000000    25.60000000
   H     58.23000000    41.85000000    23.50000000
   H     58.13000000    40.66000000    25.74000000
   H     56.72000000    41.77000000    25.46000000
   N     58.51000000    44.83000000    24.15000000
   C     58.00000000    46.14000000    23.81000000
   C     57.04000000    46.77000000    24.80000000
   O     56.23000000    47.63000000    24.44000000
   H     59.46000000    44.77000000    24.48000000
   H     57.43000000    46.08000000    22.88000000
   H     58.83000000    46.85000000    23.75000000
   N     57.04000000    46.37000000    26.08000000
   C     55.98000000    46.59000000    27.04000000
   C     56.20000000    47.87000000    27.84000000
   O     55.37000000    48.16000000    28.70000000
   C     55.71000000    45.34000000    27.87000000
   C     56.82000000    45.05000000    28.87000000
   N     56.58000000    44.17000000    29.85000000
   O     57.89000000    45.64000000    28.93000000
   H     57.73000000    45.67000000    26.31000000
   H     55.10000000    46.80000000    26.43000000
   H     55.55000000    44.51000000    27.19000000
   H     54.79000000    45.45000000    28.43000000
   H     55.77000000    43.57000000    29.90000000
   H     57.23000000    44.12000000    30.62000000
   N     57.27000000    48.62000000    27.57000000
   C     57.48000000    49.87000000    28.26000000
   C     58.61000000    49.89000000    29.28000000
   O     58.89000000    50.88000000    29.94000000
   H     57.95000000    48.31000000    26.88000000
   H     56.60000000    50.26000000    28.76000000
   H     57.82000000    50.69000000    27.62000000
   N     59.32000000    48.77000000    29.49000000
   C     60.28000000    48.62000000    30.56000000
   C     61.45000000    47.74000000    30.16000000
   O     61.18000000    46.74000000    29.50000000
   C     59.55000000    48.05000000    31.78000000
   C     58.54000000    48.95000000    32.45000000
   C     58.91000000    49.68000000    33.59000000
   C     57.22000000    48.91000000    31.97000000
   C     57.87000000    50.25000000    34.33000000
   C     56.18000000    49.48000000    32.72000000
   C     56.53000000    50.17000000    33.90000000
   O     55.50000000    50.68000000    34.64000000
   H     59.07000000    47.93000000    28.99000000
   H     60.64000000    49.62000000    30.82000000
   H     60.27000000    47.80000000    32.56000000
   H     59.06000000    47.15000000    31.43000000
   H     59.92000000    49.55000000    33.95000000
   H     56.86000000    48.35000000    31.13000000
   H     58.14000000    50.76000000    35.24000000
   H     55.18000000    49.53000000    32.34000000
   H     54.60000000    50.56000000    34.34000000
   N     62.66000000    48.10000000    30.60000000
   C     63.85000000    47.27000000    30.62000000
   C     63.96000000    46.70000000    32.02000000
   O     64.03000000    47.38000000    33.04000000
   C     64.98000000    48.23000000    30.26000000
   C     64.68000000    49.01000000    28.99000000
   C     66.25000000    47.38000000    30.29000000
   C     65.76000000    50.00000000    28.57000000
   H     62.64000000    48.91000000    31.20000000
   H     63.85000000    46.45000000    29.90000000
   H     64.99000000    48.95000000    31.08000000
   H     63.77000000    49.61000000    28.98000000
   H     64.49000000    48.32000000    28.17000000
   H     66.47000000    47.05000000    31.30000000
   H     66.30000000    46.51000000    29.63000000
   H     67.15000000    47.90000000    29.98000000
   H     66.67000000    49.41000000    28.45000000
   H     65.54000000    50.32000000    27.55000000
   H     65.78000000    50.87000000    29.22000000
   N     64.06000000    45.37000000    32.03000000
   C     64.29000000    44.52000000    33.18000000
   C     65.74000000    44.08000000    33.28000000
   O     66.53000000    44.20000000    32.34000000
   C     63.37000000    43.30000000    33.17000000
   O     63.81000000    42.48000000    32.10000000
   H     63.89000000    44.93000000    31.13000000
   H     64.01000000    45.13000000    34.04000000
   H     62.33000000    43.61000000    33.08000000
   H     63.40000000    42.86000000    34.16000000
   H     63.26000000    42.74000000    31.36000000
   N     66.11000000    43.54000000    34.44000000
   C     67.43000000    42.98000000    34.64000000
   C     67.66000000    41.71000000    33.83000000
   O     68.72000000    41.56000000    33.22000000
   C     67.71000000    42.65000000    36.10000000
   H     65.41000000    43.42000000    35.16000000
   H     68.16000000    43.77000000    34.44000000
   H     68.77000000    42.49000000    36.30000000
   H     67.56000000    43.59000000    36.64000000
   H     67.04000000    41.91000000    36.53000000
   N     66.69000000    40.85000000    33.54000000
   C     66.85000000    39.81000000    32.54000000
   C     67.00000000    40.22000000    31.08000000
   O     67.65000000    39.48000000    30.35000000
   C     65.71000000    38.80000000    32.60000000
   H     65.76000000    41.04000000    33.89000000
   H     67.72000000    39.21000000    32.81000000
   H     66.11000000    37.82000000    32.31000000
   H     65.19000000    38.69000000    33.55000000
   H     64.95000000    39.09000000    31.87000000
   N     66.40000000    41.33000000    30.63000000
   C     66.53000000    41.85000000    29.29000000
   C     67.91000000    42.49000000    29.20000000
   O     68.48000000    42.37000000    28.12000000
   C     65.39000000    42.81000000    28.95000000
   C     64.05000000    42.08000000    28.96000000
   C     62.80000000    42.94000000    28.87000000
   O     61.94000000    42.68000000    28.00000000
   O     62.55000000    43.82000000    29.72000000
   H     65.83000000    41.83000000    31.30000000
   H     66.59000000    40.99000000    28.62000000
   H     65.62000000    43.30000000    28.00000000
   H     65.46000000    43.61000000    29.69000000
   H     63.94000000    41.39000000    29.79000000
   H     64.13000000    41.52000000    28.03000000
   N     68.36000000    43.26000000    30.19000000
   C     69.60000000    43.98000000    29.98000000
   H     70.38000000    43.28000000    29.68200000
   H     69.46100000    44.72300000    29.19500000
   H     69.89300000    44.47800000    30.90400000
   H     67.71000000    43.56000000    30.90000000
  Ca     60.17000000    44.38000000    29.13000000
   O     59.98000000    44.57000000    31.67000000
   H     60.54000000    44.85000000    32.39000000
   H     59.10000000    44.82000000    31.94000000

Ca 1.70



