%chk=CaMKII_loop3_54.0.chk
%nprocshared=48
%mem=10GB
%nosave
#b3lyp/svp scf=(tight,noincore) Test 
#IOP(5/87=12) Density=Current Pop=(MK,readradii) iop(6/33=2) iop(6/42=6)

CaMKII_loop3_54.0 

   0   1
   C     82.52000000    60.44000000    31.17000000
   C     82.00000000    60.29000000    32.59000000
   O     82.56000000    59.50000000    33.35000000
   H     83.54500000    60.07300000    31.11800000
   H     81.89300000    59.86300000    30.49000000
   H     82.49600000    61.49100000    30.88300000
   N     80.88000000    60.94000000    32.92000000
   C     80.30000000    60.91000000    34.24000000
   C     79.42000000    59.67000000    34.38000000
   O     78.22000000    59.73000000    34.11000000
   C     79.49000000    62.20000000    34.36000000
   C     78.73000000    62.41000000    35.66000000
   O     78.71000000    61.45000000    36.46000000
   O     78.01000000    63.41000000    35.86000000
   H     80.50000000    61.53000000    32.19000000
   H     81.08000000    60.94000000    35.01000000
   H     78.86000000    62.23000000    33.47000000
   H     80.24000000    62.98000000    34.47000000
   N     79.94000000    58.57000000    34.92000000
   C     79.30000000    57.28000000    34.84000000
   C     77.88000000    57.18000000    35.40000000
   O     77.09000000    56.46000000    34.79000000
   C     80.27000000    56.32000000    35.52000000
   C     79.92000000    54.84000000    35.41000000
   C     80.97000000    54.02000000    36.13000000
   C     80.60000000    52.55000000    36.29000000
   N     79.36000000    52.30000000    37.04000000
   H     80.92000000    58.55000000    35.16000000
   H     79.23000000    56.98000000    33.79000000
   H     80.31000000    56.54000000    36.59000000
   H     81.23000000    56.55000000    35.06000000
   H     79.89000000    54.49000000    34.38000000
   H     78.99000000    54.57000000    35.90000000
   H     81.14000000    54.52000000    37.09000000
   H     81.90000000    54.03000000    35.55000000
   H     81.34000000    52.08000000    36.94000000
   H     80.61000000    52.08000000    35.31000000
   H     78.57000000    52.40000000    36.41000000
   H     79.30000000    51.34000000    37.34000000
   H     79.16000000    52.95000000    37.78000000
   N     77.63000000    57.74000000    36.58000000
   C     76.37000000    57.73000000    37.30000000
   C     75.52000000    58.95000000    36.98000000
   O     74.30000000    59.03000000    37.12000000
   C     76.48000000    57.65000000    38.82000000
   C     77.47000000    58.62000000    39.44000000
   O     78.05000000    59.53000000    38.82000000
   O     77.55000000    58.55000000    40.69000000
   H     78.37000000    58.25000000    37.04000000
   H     75.82000000    56.85000000    36.96000000
   H     76.77000000    56.62000000    39.01000000
   H     75.48000000    57.86000000    39.20000000
   N     76.14000000    59.97000000    36.38000000
   C     75.51000000    61.17000000    35.86000000
   C     75.17000000    62.33000000    36.79000000
   O     74.35000000    63.20000000    36.53000000
   H     77.14000000    60.04000000    36.49000000
   H     74.60000000    60.85000000    35.35000000
   H     76.20000000    61.57000000    35.12000000
   N     75.74000000    62.33000000    37.99000000
   C     75.46000000    63.28000000    39.05000000
   C     76.01000000    64.69000000    38.89000000
   O     75.73000000    65.54000000    39.74000000
   C     75.95000000    62.62000000    40.34000000
   C     77.46000000    62.64000000    40.56000000
   N     77.89000000    62.67000000    41.82000000
   O     78.33000000    62.79000000    39.71000000
   H     76.65000000    61.89000000    38.01000000
   H     74.38000000    63.35000000    39.13000000
   H     75.56000000    61.61000000    40.45000000
   H     75.53000000    63.19000000    41.17000000
   H     77.22000000    62.94000000    42.53000000
   H     78.87000000    62.66000000    42.04000000
   N     76.81000000    64.98000000    37.86000000
   C     77.05000000    66.32000000    37.38000000
   C     78.51000000    66.69000000    37.20000000
   O     78.87000000    67.80000000    36.80000000
   H     77.22000000    64.26000000    37.28000000
   H     76.60000000    67.08000000    38.03000000
   H     76.60000000    66.37000000    36.39000000
   N     79.40000000    65.74000000    37.47000000
   C     80.85000000    65.85000000    37.57000000
   C     81.48000000    64.49000000    37.26000000
   O     80.82000000    63.45000000    37.32000000
   C     81.25000000    66.24000000    38.98000000
   C     80.20000000    66.64000000    39.99000000
   C     79.94000000    67.99000000    40.25000000
   C     79.68000000    65.67000000    40.86000000
   C     79.11000000    68.38000000    41.32000000
   C     78.95000000    66.08000000    41.98000000
   C     78.60000000    67.42000000    42.22000000
   O     77.82000000    67.77000000    43.27000000
   H     79.09000000    64.78000000    37.55000000
   H     81.21000000    66.62000000    36.89000000
   H     82.02000000    67.00000000    38.87000000
   H     81.80000000    65.42000000    39.45000000
   H     80.37000000    68.73000000    39.60000000
   H     79.99000000    64.66000000    40.64000000
   H     78.87000000    69.40000000    41.57000000
   H     78.58000000    65.31000000    42.65000000
   H     77.63000000    67.03000000    43.85000000
   N     82.79000000    64.50000000    37.01000000
   C     83.63000000    63.33000000    36.87000000
   C     84.76000000    63.33000000    37.89000000
   O     85.45000000    64.33000000    38.08000000
   C     84.21000000    63.45000000    35.47000000
   C     83.25000000    63.41000000    34.28000000
   C     85.21000000    62.31000000    35.24000000
   C     83.63000000    64.24000000    33.06000000
   H     83.31000000    65.36000000    37.01000000
   H     83.06000000    62.40000000    36.94000000
   H     84.70000000    64.42000000    35.39000000
   H     82.23000000    63.57000000    34.63000000
   H     83.21000000    62.36000000    33.99000000
   H     84.76000000    61.35000000    35.47000000
   H     85.43000000    62.16000000    34.18000000
   H     86.15000000    62.45000000    35.76000000
   H     83.73000000    65.28000000    33.34000000
   H     84.57000000    63.89000000    32.61000000
   H     82.81000000    64.13000000    32.35000000
   N     85.13000000    62.17000000    38.45000000
   C     86.20000000    61.85000000    39.37000000
   C     87.24000000    60.91000000    38.77000000
   O     87.05000000    60.26000000    37.74000000
   C     85.58000000    61.10000000    40.54000000
   O     84.60000000    60.14000000    40.19000000
   H     84.74000000    61.32000000    38.07000000
   H     86.70000000    62.74000000    39.73000000
   H     85.04000000    61.88000000    41.08000000
   H     86.33000000    60.62000000    41.16000000
   H     84.47000000    59.65000000    41.01000000
   N     88.34000000    60.77000000    39.51000000
   C     89.45000000    59.98000000    39.02000000
   C     89.09000000    58.52000000    38.79000000
   O     89.43000000    57.87000000    37.80000000
   C     90.66000000    60.05000000    39.95000000
   H     88.52000000    61.33000000    40.33000000
   H     89.71000000    60.34000000    38.03000000
   H     90.68000000    61.04000000    40.40000000
   H     90.58000000    59.28000000    40.71000000
   H     91.61000000    59.83000000    39.46000000
   N     88.22000000    57.96000000    39.63000000
   C     87.69000000    56.62000000    39.54000000
   C     87.00000000    56.43000000    38.19000000
   O     87.16000000    55.44000000    37.49000000
   C     86.75000000    56.30000000    40.70000000
   H     87.99000000    58.54000000    40.43000000
   H     88.45000000    55.85000000    39.68000000
   H     87.27000000    56.54000000    41.63000000
   H     85.79000000    56.80000000    40.69000000
   H     86.55000000    55.24000000    40.86000000
   N     86.21000000    57.41000000    37.74000000
   C     85.34000000    57.24000000    36.60000000
   C     86.13000000    57.57000000    35.34000000
   O     85.94000000    57.04000000    34.25000000
   C     84.16000000    58.21000000    36.67000000
   C     83.28000000    57.99000000    37.90000000
   C     82.12000000    58.96000000    38.04000000
   O     81.94000000    59.90000000    37.24000000
   O     81.24000000    58.76000000    38.91000000
   H     86.17000000    58.28000000    38.25000000
   H     84.91000000    56.26000000    36.43000000
   H     83.50000000    58.21000000    35.81000000
   H     84.56000000    59.23000000    36.70000000
   H     84.01000000    58.07000000    38.71000000
   H     82.99000000    56.95000000    37.76000000
   N     87.09000000    58.49000000    35.46000000
   C     87.99000000    58.79000000    34.36000000
   H     88.95100000    58.30600000    34.53500000
   H     87.56200000    58.42100000    33.42800000
   H     88.13500000    59.86800000    34.29200000
   H     87.11000000    59.03000000    36.31000000
  Ca     80.04000000    61.02000000    38.58000000
   O     82.28000000    61.88000000    39.75000000
   H     82.61000000    62.52000000    40.39000000
   H     82.97000000    61.21000000    39.72000000

Ca 1.70



