%chk=CaMKII_loop3_33.0.chk
%nprocshared=48
%mem=10GB
%nosave
#b3lyp/svp scf=(tight,noincore) Test 
#IOP(5/87=12) Density=Current Pop=(MK,readradii) iop(6/33=2) iop(6/42=6)

CaMKII_loop3_33.0 

   0   1
   C     78.26000000    56.97000000    20.80000000
   C     78.07000000    55.54000000    20.29000000
   O     78.87000000    55.03000000    19.51000000
   H     79.10800000    57.42700000    20.29000000
   H     77.35900000    57.55100000    20.60000000
   H     78.45000000    56.95100000    21.87300000
   N     76.97000000    54.94000000    20.74000000
   C     76.66000000    53.56000000    20.42000000
   C     76.21000000    53.40000000    18.97000000
   O     75.05000000    53.49000000    18.58000000
   C     75.74000000    53.04000000    21.52000000
   C     75.38000000    51.56000000    21.47000000
   O     74.24000000    51.30000000    21.93000000
   O     76.07000000    50.69000000    20.91000000
   H     76.38000000    55.40000000    21.41000000
   H     77.58000000    52.98000000    20.53000000
   H     74.84000000    53.63000000    21.42000000
   H     76.32000000    53.22000000    22.43000000
   N     77.21000000    53.01000000    18.18000000
   C     77.14000000    53.10000000    16.73000000
   C     76.18000000    52.02000000    16.27000000
   O     75.18000000    52.31000000    15.62000000
   C     78.53000000    53.18000000    16.11000000
   C     78.48000000    53.66000000    14.66000000
   C     79.79000000    53.57000000    13.90000000
   C     80.89000000    52.71000000    14.51000000
   N     82.07000000    52.69000000    13.63000000
   H     78.10000000    53.16000000    18.64000000
   H     76.55000000    54.01000000    16.59000000
   H     78.95000000    52.17000000    16.11000000
   H     79.25000000    53.84000000    16.60000000
   H     78.05000000    54.66000000    14.64000000
   H     77.77000000    53.01000000    14.15000000
   H     80.21000000    54.58000000    13.90000000
   H     79.53000000    53.25000000    12.89000000
   H     80.52000000    51.68000000    14.53000000
   H     81.17000000    52.98000000    15.53000000
   H     82.25000000    53.61000000    13.25000000
   H     82.91000000    52.59000000    14.18000000
   H     81.98000000    52.01000000    12.89000000
   N     76.40000000    50.73000000    16.56000000
   C     75.49000000    49.62000000    16.33000000
   C     74.29000000    49.66000000    17.27000000
   O     73.28000000    49.06000000    16.91000000
   C     76.23000000    48.29000000    16.43000000
   C     76.98000000    48.00000000    17.71000000
   O     77.93000000    47.19000000    17.60000000
   O     76.74000000    48.63000000    18.76000000
   H     77.19000000    50.42000000    17.09000000
   H     75.02000000    49.69000000    15.35000000
   H     76.93000000    48.26000000    15.59000000
   H     75.48000000    47.52000000    16.21000000
   N     74.32000000    50.34000000    18.42000000
   C     73.11000000    50.48000000    19.20000000
   C     72.85000000    49.31000000    20.14000000
   O     71.69000000    49.10000000    20.49000000
   H     75.26000000    50.54000000    18.73000000
   H     72.21000000    50.55000000    18.59000000
   H     73.05000000    51.36000000    19.85000000
   N     73.84000000    48.47000000    20.42000000
   C     73.67000000    47.10000000    20.86000000
   C     73.67000000    46.92000000    22.38000000
   O     73.53000000    45.81000000    22.90000000
   C     74.71000000    46.21000000    20.20000000
   C     76.08000000    46.35000000    20.84000000
   N     76.95000000    45.36000000    20.63000000
   O     76.37000000    47.30000000    21.57000000
   H     74.79000000    48.68000000    20.15000000
   H     72.70000000    46.75000000    20.51000000
   H     74.82000000    46.42000000    19.14000000
   H     74.52000000    45.13000000    20.26000000
   H     76.64000000    44.61000000    20.03000000
   H     77.77000000    45.27000000    21.20000000
   N     73.60000000    48.05000000    23.07000000
   C     73.38000000    48.25000000    24.49000000
   C     74.59000000    48.72000000    25.28000000
   O     74.54000000    48.85000000    26.50000000
   H     73.62000000    48.92000000    22.55000000
   H     73.01000000    47.33000000    24.94000000
   H     72.59000000    48.99000000    24.64000000
   N     75.70000000    49.00000000    24.60000000
   C     77.00000000    49.25000000    25.20000000
   C     77.79000000    50.22000000    24.34000000
   O     77.73000000    50.13000000    23.11000000
   C     77.79000000    47.95000000    25.25000000
   C     77.02000000    46.82000000    25.89000000
   C     77.01000000    46.70000000    27.28000000
   C     76.36000000    45.86000000    25.11000000
   C     76.35000000    45.64000000    27.91000000
   C     75.67000000    44.82000000    25.75000000
   C     75.65000000    44.68000000    27.15000000
   O     75.05000000    43.63000000    27.78000000
   H     75.64000000    48.71000000    23.63000000
   H     76.87000000    49.54000000    26.24000000
   H     78.75000000    48.04000000    25.76000000
   H     78.09000000    47.68000000    24.23000000
   H     77.47000000    47.42000000    27.94000000
   H     76.35000000    45.87000000    24.03000000
   H     76.19000000    45.53000000    28.98000000
   H     75.18000000    44.08000000    25.15000000
   H     74.74000000    42.92000000    27.20000000
   N     78.57000000    51.11000000    24.96000000
   C     79.70000000    51.73000000    24.31000000
   C     81.03000000    51.00000000    24.50000000
   O     81.40000000    50.69000000    25.63000000
   C     79.79000000    53.23000000    24.60000000
   C     78.51000000    54.04000000    24.47000000
   C     80.81000000    53.84000000    23.65000000
   C     78.48000000    55.28000000    25.36000000
   H     78.67000000    51.13000000    25.97000000
   H     79.52000000    51.64000000    23.24000000
   H     80.16000000    53.27000000    25.63000000
   H     77.65000000    53.47000000    24.82000000
   H     78.30000000    54.27000000    23.42000000
   H     81.85000000    53.59000000    23.86000000
   H     80.54000000    53.63000000    22.62000000
   H     80.92000000    54.92000000    23.79000000
   H     78.50000000    54.99000000    26.41000000
   H     79.40000000    55.82000000    25.16000000
   H     77.60000000    55.93000000    25.29000000
   N     81.74000000    50.80000000    23.38000000
   C     83.07000000    50.24000000    23.38000000
   C     84.15000000    51.14000000    22.79000000
   O     83.86000000    52.14000000    22.14000000
   C     83.26000000    48.86000000    22.76000000
   O     82.64000000    48.76000000    21.50000000
   H     81.38000000    51.08000000    22.48000000
   H     83.34000000    50.12000000    24.43000000
   H     82.65000000    48.20000000    23.38000000
   H     84.29000000    48.53000000    22.70000000
   H     83.14000000    48.14000000    20.96000000
   N     85.45000000    50.93000000    23.05000000
   C     86.57000000    51.79000000    22.73000000
   C     86.56000000    52.37000000    21.33000000
   O     86.61000000    53.60000000    21.25000000
   C     87.82000000    50.98000000    23.07000000
   H     85.73000000    50.13000000    23.59000000
   H     86.44000000    52.63000000    23.41000000
   H     88.64000000    51.62000000    22.74000000
   H     87.87000000    50.65000000    24.10000000
   H     87.77000000    50.03000000    22.55000000
   N     86.43000000    51.56000000    20.28000000
   C     86.30000000    51.94000000    18.88000000
   C     85.21000000    52.98000000    18.65000000
   O     85.34000000    53.81000000    17.75000000
   C     85.94000000    50.67000000    18.11000000
   H     86.31000000    50.59000000    20.52000000
   H     87.21000000    52.39000000    18.48000000
   H     85.69000000    50.80000000    17.06000000
   H     86.76000000    49.95000000    18.10000000
   H     85.04000000    50.23000000    18.52000000
   N     84.10000000    52.78000000    19.36000000
   C     82.95000000    53.61000000    19.06000000
   C     83.01000000    54.95000000    19.78000000
   O     82.66000000    55.97000000    19.20000000
   C     81.66000000    52.91000000    19.48000000
   C     81.53000000    51.51000000    18.88000000
   C     80.24000000    50.86000000    19.34000000
   O     79.85000000    51.04000000    20.52000000
   O     79.56000000    50.07000000    18.65000000
   H     84.01000000    51.97000000    19.94000000
   H     82.91000000    53.74000000    17.98000000
   H     80.84000000    53.50000000    19.09000000
   H     81.51000000    52.85000000    20.56000000
   H     82.31000000    50.88000000    19.31000000
   H     81.61000000    51.42000000    17.79000000
   N     83.50000000    55.04000000    21.02000000
   C     83.90000000    56.30000000    21.62000000
   H     84.81100000    56.65700000    21.14000000
   H     83.10700000    57.03500000    21.48500000
   H     84.08400000    56.15400000    22.68400000
   H     84.00000000    54.23000000    21.36000000
  Ca     78.15000000    49.20000000    20.79000000
   O     79.92000000    48.20000000    22.45000000
   H     79.95000000    47.40000000    22.97000000
   H     80.84000000    48.41000000    22.28000000

Ca 1.70



