%chk=CaMKII_loop3_48.0.chk
%nprocshared=48
%mem=10GB
%nosave
#b3lyp/svp scf=(tight,noincore) Test 
#IOP(5/87=12) Density=Current Pop=(MK,readradii) iop(6/33=2) iop(6/42=6)

CaMKII_loop3_48.0 

   0   1
   C     69.53000000    50.10000000    22.95000000
   C     68.07000000    49.67000000    23.04000000
   O     67.77000000    48.51000000    23.29000000
   H     70.14000000    49.25000000    22.64500000
   H     69.62900000    50.90000000    22.21600000
   H     69.86500000    50.45600000    23.92400000
   N     67.17000000    50.65000000    23.07000000
   C     65.84000000    50.45000000    23.60000000
   C     64.99000000    49.78000000    22.53000000
   O     64.42000000    50.45000000    21.67000000
   C     65.31000000    51.79000000    24.12000000
   C     63.95000000    51.69000000    24.81000000
   O     63.45000000    50.55000000    24.86000000
   O     63.44000000    52.77000000    25.17000000
   H     67.48000000    51.61000000    23.03000000
   H     65.82000000    49.77000000    24.45000000
   H     65.16000000    52.46000000    23.28000000
   H     66.04000000    52.07000000    24.88000000
   N     64.83000000    48.46000000    22.60000000
   C     64.28000000    47.63000000    21.54000000
   C     62.78000000    47.78000000    21.36000000
   O     62.25000000    47.31000000    20.36000000
   C     64.71000000    46.17000000    21.65000000
   C     64.84000000    45.58000000    20.25000000
   C     65.46000000    44.19000000    20.32000000
   C     64.46000000    43.10000000    20.71000000
   N     65.17000000    41.87000000    21.08000000
   H     65.24000000    47.98000000    23.39000000
   H     64.74000000    48.03000000    20.64000000
   H     64.10000000    45.56000000    22.33000000
   H     65.65000000    46.12000000    22.20000000
   H     65.46000000    46.17000000    19.58000000
   H     63.86000000    45.51000000    19.76000000
   H     66.29000000    44.14000000    21.03000000
   H     65.87000000    43.98000000    19.33000000
   H     63.86000000    42.80000000    19.85000000
   H     63.80000000    43.37000000    21.53000000
   H     65.60000000    41.40000000    20.30000000
   H     65.84000000    42.00000000    21.83000000
   H     64.64000000    41.11000000    21.47000000
   N     62.10000000    48.42000000    22.32000000
   C     60.69000000    48.73000000    22.20000000
   C     60.33000000    50.18000000    22.51000000
   O     59.20000000    50.63000000    22.38000000
   C     59.89000000    47.83000000    23.14000000
   C     60.23000000    47.77000000    24.62000000
   O     59.74000000    46.90000000    25.36000000
   O     61.26000000    48.37000000    25.00000000
   H     62.55000000    48.60000000    23.20000000
   H     60.34000000    48.46000000    21.21000000
   H     59.85000000    46.78000000    22.83000000
   H     58.86000000    48.13000000    22.93000000
   N     61.31000000    51.02000000    22.87000000
   C     61.11000000    52.43000000    23.10000000
   C     60.26000000    52.80000000    24.31000000
   O     59.41000000    53.68000000    24.34000000
   H     62.23000000    50.60000000    22.94000000
   H     60.67000000    52.79000000    22.17000000
   H     62.02000000    53.03000000    23.18000000
   N     60.45000000    51.98000000    25.35000000
   C     59.79000000    52.26000000    26.62000000
   C     60.37000000    53.29000000    27.58000000
   O     59.71000000    53.54000000    28.59000000
   C     59.45000000    50.92000000    27.27000000
   C     60.52000000    50.33000000    28.17000000
   N     60.20000000    49.87000000    29.38000000
   O     61.73000000    50.37000000    27.95000000
   H     61.28000000    51.41000000    25.40000000
   H     58.85000000    52.78000000    26.40000000
   H     59.23000000    50.18000000    26.50000000
   H     58.54000000    51.12000000    27.82000000
   H     59.21000000    49.70000000    29.48000000
   H     60.89000000    49.54000000    30.04000000
   N     61.63000000    53.70000000    27.44000000
   C     62.25000000    54.64000000    28.36000000
   C     63.19000000    54.08000000    29.42000000
   O     63.62000000    54.77000000    30.33000000
   H     62.12000000    53.49000000    26.58000000
   H     61.45000000    55.14000000    28.90000000
   H     62.75000000    55.42000000    27.78000000
   N     63.43000000    52.77000000    29.25000000
   C     64.17000000    51.91000000    30.16000000
   C     65.02000000    51.00000000    29.29000000
   O     64.65000000    50.68000000    28.16000000
   C     63.28000000    51.08000000    31.07000000
   C     62.32000000    51.81000000    31.99000000
   C     62.47000000    51.86000000    33.38000000
   C     61.20000000    52.37000000    31.37000000
   C     61.53000000    52.54000000    34.17000000
   C     60.30000000    53.09000000    32.16000000
   C     60.47000000    53.23000000    33.55000000
   O     59.54000000    53.87000000    34.32000000
   H     62.99000000    52.26000000    28.51000000
   H     64.78000000    52.56000000    30.79000000
   H     63.98000000    50.59000000    31.75000000
   H     62.82000000    50.24000000    30.56000000
   H     63.31000000    51.40000000    33.88000000
   H     60.96000000    52.36000000    30.31000000
   H     61.59000000    52.50000000    35.25000000
   H     59.46000000    53.55000000    31.67000000
   H     59.02000000    54.38000000    33.70000000
   N     66.12000000    50.43000000    29.79000000
   C     66.91000000    49.31000000    29.32000000
   C     66.81000000    48.11000000    30.24000000
   O     67.12000000    48.30000000    31.42000000
   C     68.38000000    49.70000000    29.21000000
   C     68.40000000    50.83000000    28.19000000
   C     69.26000000    48.52000000    28.77000000
   C     69.78000000    51.40000000    27.85000000
   H     66.55000000    50.99000000    30.52000000
   H     66.64000000    48.96000000    28.32000000
   H     68.79000000    50.16000000    30.11000000
   H     67.79000000    51.65000000    28.58000000
   H     68.01000000    50.58000000    27.21000000
   H     70.25000000    48.90000000    28.52000000
   H     69.29000000    47.81000000    29.60000000
   H     68.84000000    48.13000000    27.85000000
   H     70.37000000    51.54000000    28.76000000
   H     70.36000000    50.75000000    27.21000000
   H     69.73000000    52.36000000    27.34000000
   N     66.46000000    46.94000000    29.71000000
   C     66.64000000    45.68000000    30.41000000
   C     67.90000000    44.96000000    29.94000000
   O     68.43000000    45.27000000    28.88000000
   C     65.39000000    44.80000000    30.33000000
   O     64.87000000    45.01000000    29.04000000
   H     66.43000000    46.96000000    28.71000000
   H     66.82000000    45.94000000    31.45000000
   H     64.73000000    45.19000000    31.11000000
   H     65.61000000    43.75000000    30.56000000
   H     64.30000000    44.27000000    28.80000000
   N     68.45000000    44.06000000    30.75000000
   C     69.69000000    43.33000000    30.60000000
   C     69.65000000    42.53000000    29.30000000
   O     70.61000000    42.46000000    28.53000000
   C     69.88000000    42.48000000    31.85000000
   H     67.97000000    43.95000000    31.64000000
   H     70.48000000    44.08000000    30.61000000
   H     69.89000000    43.25000000    32.63000000
   H     69.09000000    41.74000000    31.96000000
   H     70.85000000    42.00000000    31.77000000
   N     68.48000000    42.02000000    28.94000000
   C     68.31000000    41.35000000    27.66000000
   C     68.63000000    42.17000000    26.42000000
   O     69.18000000    41.76000000    25.40000000
   C     66.91000000    40.75000000    27.57000000
   H     67.76000000    41.82000000    29.62000000
   H     68.93000000    40.46000000    27.61000000
   H     66.79000000    40.41000000    26.54000000
   H     66.79000000    39.94000000    28.28000000
   H     66.19000000    41.53000000    27.81000000
   N     68.24000000    43.44000000    26.49000000
   C     68.49000000    44.41000000    25.44000000
   C     69.97000000    44.77000000    25.41000000
   O     70.60000000    44.97000000    24.38000000
   C     67.58000000    45.63000000    25.58000000
   C     66.11000000    45.36000000    25.89000000
   C     65.37000000    46.69000000    25.97000000
   O     65.65000000    47.56000000    26.82000000
   O     64.45000000    46.93000000    25.16000000
   H     67.79000000    43.77000000    27.34000000
   H     68.22000000    43.99000000    24.47000000
   H     67.67000000    46.09000000    24.60000000
   H     67.97000000    46.33000000    26.32000000
   H     66.07000000    44.95000000    26.90000000
   H     65.64000000    44.70000000    25.16000000
   N     70.59000000    44.87000000    26.59000000
   C     71.98000000    45.27000000    26.64000000
   H     72.57200000    44.60200000    26.01400000
   H     72.07800000    46.29200000    26.27400000
   H     72.33800000    45.21600000    27.66800000
   H     70.12000000    44.83000000    27.48000000
  Ca     63.24000000    48.71000000    26.62000000
   O     63.82000000    47.96000000    29.02000000
   H     63.51000000    47.94000000    29.93000000
   H     64.44000000    47.23000000    28.96000000

Ca 1.70



