%Nproc=28
%chk=holo8.0.chk
%mem=80GB
%NoSave
#MP2(semidirect)/Gen scf=(tight,noincore) Test
#IOP(5/87=12) Density=Current Pop=(MK,readradii) iop(6/33=2) iop(6/42=6)

holo_loop_3_model_8.0 

   0   1
   C     32.25000000    73.54000000    10.67000000
   C     31.18000000    73.10000000     9.67000000
   C     30.32000000    74.32000000     9.36000000
   O     29.16000000    74.34000000     9.74000000
   O     30.96000000    75.34000000     8.70000000
   H     32.91600000    72.68400000    10.77800000
   H     31.74500000    73.83500000    11.59000000
   H     32.89000000    74.37000000    10.36000000
   H     30.46000000    72.45000000    10.18000000
   H     31.60000000    72.72000000     8.74000000
   H     31.81000000    75.14000000     8.30000000
   C     31.17000000    78.01000000    13.03000000
   C     32.10000000    78.89000000    12.22000000
   C     32.00000000    78.46000000    10.76000000
   O     31.89000000    79.36000000     9.90000000
   O     32.22000000    77.27000000    10.44000000
   H     31.51200000    76.97700000    13.09700000
   H     30.18100000    77.96200000    12.57400000
   H     31.13000000    78.51000000    14.00000000
   H     33.15000000    78.74000000    12.49000000
   H     31.80000000    79.93000000    12.36000000
   C     39.24000000    75.23000000    10.14000000
   C     37.90000000    75.51000000     9.47000000
   C     37.44000000    76.95000000     9.68000000
   C     36.06000000    77.20000000     9.08000000
   O     35.73000000    76.87000000     7.92000000
   O     35.19000000    77.69000000     9.82000000
   H     40.03000000    75.77600000     9.62500000
   H     39.45600000    74.16300000    10.09500000
   H     39.19000000    75.55000000    11.18000000
   H     37.13000000    74.83000000     9.82000000
   H     37.93000000    75.35000000     8.40000000
   H     38.12000000    77.71000000     9.29000000
   H     37.36000000    77.16000000    10.74000000
  Ca     33.21000000    77.88000000     8.12000000
   O     34.25000000    78.06000000     5.78000000
   H     35.04000000    77.66000000     6.16000000
   H     34.55000000    78.48000000     4.98000000

C O H 0
aug-cc-pVTZ 
****
@/home/pzhang5/ca_ccpvtz_basisset.gbs/N

Ca 1.70




