%Nproc=28
%chk=holo9.0.chk
%mem=80GB
%NoSave
#MP2(semidirect)/Gen scf=(tight,noincore) Test
#IOP(5/87=12) Density=Current Pop=(MK,readradii) iop(6/33=2) iop(6/42=6)

holo_loop_3_model_9.0 

   0   1
   C     31.76000000    73.22000000    10.80000000
   C     30.76000000    72.80000000     9.73000000
   C     29.65000000    73.79000000     9.40000000
   O     28.47000000    73.52000000     9.59000000
   O     30.01000000    75.01000000     8.90000000
   H     32.35800000    72.39300000    11.18200000
   H     31.25400000    73.63400000    11.67200000
   H     32.35000000    73.98000000    10.29000000
   H     30.28000000    71.86000000     9.99000000
   H     31.28000000    72.60000000     8.79000000
   H     30.97000000    75.03000000     8.88000000
   C     30.35000000    77.84000000    12.87000000
   C     31.23000000    78.82000000    12.10000000
   C     31.50000000    78.35000000    10.68000000
   O     31.81000000    79.20000000     9.82000000
   O     31.57000000    77.12000000    10.45000000
   H     30.86700000    76.89500000    13.03700000
   H     29.44400000    77.62300000    12.30500000
   H     30.10000000    78.32000000    13.81000000
   H     32.20000000    78.88000000    12.61000000
   H     30.80000000    79.81000000    12.03000000
   C     38.94000000    74.79000000    10.41000000
   C     37.57000000    75.13000000     9.83000000
   C     37.15000000    76.59000000     9.68000000
   C     35.81000000    76.92000000     9.03000000
   O     35.41000000    76.35000000     7.99000000
   O     35.07000000    77.73000000     9.63000000
   H     39.75500000    75.21900000     9.82700000
   H     39.10100000    73.71200000    10.41400000
   H     38.91000000    75.18000000    11.43000000
   H     36.85000000    74.47000000    10.30000000
   H     37.59000000    74.72000000     8.82000000
   H     37.91000000    77.06000000     9.06000000
   H     37.15000000    77.01000000    10.69000000
  Ca     32.95000000    77.55000000     7.90000000
   O     34.30000000    77.86000000     5.55000000
   H     34.81000000    78.66000000     5.70000000
   H     34.26000000    77.77000000     4.60000000

C O H 0
aug-cc-pVTZ 
****
@/home/pzhang5/ca_ccpvtz_basisset.gbs/N

Ca 1.70




