%Nproc=28
%chk=holo0.0.chk
%mem=80GB
%NoSave
#MP2(semidirect)/Gen scf=(tight,noincore) Test
#IOP(5/87=12) Density=Current Pop=(MK,readradii) iop(6/33=2) iop(6/42=6)

holo_loop_3_model_0.0 

   0   1
   C     44.75000000    64.15000000    38.54000000
   C     43.97000000    65.43000000    38.80000000
   C     43.28000000    65.58000000    40.15000000
   O     42.16000000    66.05000000    40.32000000
   O     43.93000000    65.13000000    41.26000000
   H     45.08200000    64.14200000    37.50200000
   H     44.10700000    63.29100000    38.73200000
   H     45.62000000    64.10000000    39.19000000
   H     43.22000000    65.54000000    38.01000000
   H     44.68000000    66.25000000    38.71000000
   H     43.41000000    65.28000000    42.05000000
   C     43.58000000    61.27000000    43.09000000
   C     44.71000000    61.78000000    43.99000000
   C     45.22000000    63.12000000    43.50000000
   O     46.25000000    63.16000000    42.78000000
   O     44.45000000    64.08000000    43.69000000
   H     43.91200000    61.29400000    42.05200000
   H     42.70500000    61.90800000    43.21300000
   H     43.32000000    60.24000000    43.36000000
   H     45.52000000    61.07000000    43.82000000
   H     44.40000000    61.90000000    45.03000000
   C     51.36000000    64.44000000    38.40000000
   C     50.07000000    65.05000000    38.92000000
   C     49.93000000    64.58000000    40.37000000
   C     48.77000000    65.28000000    41.06000000
   O     47.62000000    65.13000000    40.59000000
   O     48.94000000    66.20000000    41.89000000
   H     52.25800000    64.90800000    38.80400000
   H     51.44400000    64.55500000    37.31900000
   H     51.25000000    63.39000000    38.68000000
   H     49.22000000    64.76000000    38.31000000
   H     50.07000000    66.14000000    38.86000000
   H     50.79000000    64.70000000    41.03000000
   H     49.70000000    63.52000000    40.38000000
  Ca     46.25000000    66.00000000    42.68000000
   O     47.75000000    65.64000000    45.17000000
   H     48.19000000    65.16000000    45.87000000
   H     47.97000000    66.56000000    45.34000000

C O H 0
aug-cc-pVTZ 
****
@/home/pzhang5/ca_ccpvtz_basisset.gbs/N

Ca 1.70




