%Nproc=28
%chk=holo3.1.chk
%mem=80GB
%NoSave
#MP2(semidirect)/Gen scf=(tight,noincore) Test
#IOP(5/87=12) Density=Current Pop=(MK,readradii) iop(6/33=2) iop(6/42=6)

holo_loop_3_model_3.1 

   0   1
   C     44.37000000    51.77000000    35.57000000
   C     43.45000000    52.97000000    35.79000000
   C     42.29000000    52.71000000    36.75000000
   O     41.12000000    53.01000000    36.54000000
   O     42.58000000    52.06000000    37.91000000
   H     45.13200000    51.94300000    34.81000000
   H     43.81000000    50.90300000    35.22100000
   H     44.78000000    51.60000000    36.56000000
   H     43.00000000    53.26000000    34.84000000
   H     44.04000000    53.83000000    36.08000000
   H     41.78000000    51.85000000    38.40000000
   C     41.24000000    47.76000000    38.59000000
   C     41.64000000    48.05000000    40.04000000
   C     41.84000000    49.54000000    40.29000000
   O     42.48000000    49.82000000    41.33000000
   O     41.34000000    50.47000000    39.61000000
   H     42.01700000    48.13500000    37.92400000
   H     40.29400000    48.25500000    38.37000000
   H     41.13000000    46.69000000    38.44000000
   H     42.62000000    47.63000000    40.24000000
   H     40.95000000    47.66000000    40.79000000
   C     50.38000000    52.06000000    39.26000000
   C     48.92000000    52.44000000    39.04000000
   C     47.95000000    51.55000000    39.80000000
   C     46.51000000    52.05000000    39.80000000
   O     46.27000000    53.13000000    40.38000000
   O     45.62000000    51.36000000    39.26000000
   H     50.66300000    52.36100000    40.26900000
   H     50.99500000    52.56800000    38.51700000
   H     50.53000000    50.99000000    39.17000000
   H     48.74000000    52.28000000    37.97000000
   H     48.65000000    53.49000000    39.18000000
   H     48.23000000    51.39000000    40.84000000
   H     47.96000000    50.50000000    39.50000000
  Ca     43.57000000    52.25000000    40.81000000
   O     43.53000000    54.22000000    42.70000000
   H     43.22000000    53.73000000    43.47000000
   H     43.91000000    55.02000000    43.06000000

C O H 0
aug-cc-pVTZ 
****
@/home/pzhang5/ca_ccpvtz_basisset.gbs/N

Ca 1.70




