%Nproc=28
%chk=holo36.0.chk
%mem=80GB
%NoSave
#MP2(semidirect)/Gen scf=(tight,noincore) Test
#IOP(5/87=12) Density=Current Pop=(MK,readradii) iop(6/33=2) iop(6/42=6)

holo_loop_3_model_36.0 

   0   1
   C     30.48000000    71.72000000    10.14000000
   C     29.63000000    71.08000000     9.05000000
   C     28.39000000    71.77000000     8.51000000
   O     27.33000000    71.18000000     8.36000000
   O     28.50000000    73.02000000     7.98000000
   H     31.17300000    70.99500000    10.56700000
   H     29.84300000    72.08700000    10.94500000
   H     31.02000000    72.55000000     9.68000000
   H     29.18000000    70.15000000     9.39000000
   H     30.29000000    70.99000000     8.18000000
   H     29.34000000    73.30000000     8.36000000
   C     28.42000000    76.47000000    11.19000000
   C     29.20000000    77.16000000    10.08000000
   C     29.69000000    76.24000000     8.97000000
   O     29.92000000    75.02000000     9.12000000
   O     29.92000000    76.80000000     7.88000000
   H     28.98200000    75.62200000    11.58200000
   H     27.47000000    76.10000000    10.80300000
   H     28.24000000    77.21000000    11.98000000
   H     30.07000000    77.67000000    10.49000000
   H     28.62000000    77.96000000     9.63000000
   C     37.57000000    74.04000000     9.32000000
   C     36.13000000    74.01000000     8.82000000
   C     35.61000000    75.42000000     8.59000000
   C     34.35000000    75.45000000     7.74000000
   O     34.40000000    74.95000000     6.59000000
   O     33.28000000    75.78000000     8.30000000
   H     38.29600000    74.38800000     8.58500000
   H     37.92200000    73.04500000     9.59200000
   H     37.47000000    74.68000000    10.19000000
   H     35.45000000    73.46000000     9.48000000
   H     36.28000000    73.46000000     7.89000000
   H     36.33000000    76.07000000     8.09000000
   H     35.35000000    75.90000000     9.53000000
  Ca     31.41000000    74.97000000     6.71000000
   O     32.76000000    74.85000000     4.36000000
   H     33.36000000    75.46000000     4.78000000
   H     32.75000000    75.11000000     3.44000000

C O H 0
aug-cc-pVTZ 
****
@/home/pzhang5/ca_ccpvtz_basisset.gbs/N

Ca 1.70




