%Nproc=28
%chk=holo28.0.chk
%mem=80GB
%NoSave
#MP2(semidirect)/Gen scf=(tight,noincore) Test
#IOP(5/87=12) Density=Current Pop=(MK,readradii) iop(6/33=2) iop(6/42=6)

holo_loop_3_model_28.0 

   0   1
   C     48.08000000    48.83000000    47.27000000
   C     46.97000000    49.83000000    46.94000000
   C     46.12000000    50.19000000    48.15000000
   O     45.05000000    50.77000000    47.93000000
   O     46.60000000    49.87000000    49.38000000
   H     48.66800000    48.52300000    46.40500000
   H     47.67300000    47.90200000    47.67200000
   H     48.65000000    49.37000000    48.02000000
   H     46.32000000    49.46000000    46.15000000
   H     47.43000000    50.75000000    46.58000000
   H     45.99000000    50.16000000    50.06000000
   C     45.95000000    45.91000000    51.81000000
   C     46.50000000    46.63000000    53.04000000
   C     46.92000000    48.08000000    52.91000000
   O     46.59000000    48.70000000    51.88000000
   O     47.69000000    48.61000000    53.74000000
   H     46.70700000    45.92300000    51.02600000
   H     45.04900000    46.41900000    51.46800000
   H     45.71000000    44.88000000    52.05000000
   H     47.37000000    46.11000000    53.44000000
   H     45.72000000    46.64000000    53.79000000
   C     54.70000000    47.80000000    49.48000000
   C     53.28000000    48.35000000    49.42000000
   C     52.54000000    48.16000000    50.74000000
   C     51.13000000    48.75000000    50.79000000
   O     50.16000000    47.97000000    50.94000000
   O     51.02000000    49.97000000    50.55000000
   H     55.31100000    48.39200000    50.16100000
   H     55.15700000    47.84000000    48.49100000
   H     54.64000000    46.77000000    49.82000000
   H     52.69000000    47.77000000    48.72000000
   H     53.25000000    49.40000000    49.12000000
   H     53.03000000    48.74000000    51.52000000
   H     52.48000000    47.11000000    51.04000000
  Ca     48.76000000    50.26000000    51.64000000
   O     49.80000000    52.51000000    52.99000000
   H     50.51000000    52.01000000    53.39000000
   H     49.98000000    53.42000000    53.23000000

C O H 0
aug-cc-pVTZ 
****
@/home/pzhang5/ca_ccpvtz_basisset.gbs/N

Ca 1.70




