%Nproc=28
%chk=holo37.0.chk
%mem=80GB
%NoSave
#MP2(semidirect)/Gen scf=(tight,noincore) Test
#IOP(5/87=12) Density=Current Pop=(MK,readradii) iop(6/33=2) iop(6/42=6)

holo_loop_3_model_37.0 

   0   1
   C     30.99000000    71.71000000     9.57000000
   C     30.10000000    70.91000000     8.63000000
   C     28.95000000    71.70000000     8.02000000
   O     27.82000000    71.22000000     7.99000000
   O     29.23000000    72.91000000     7.46000000
   H     31.68400000    71.06200000    10.10500000
   H     30.38500000    72.22600000    10.31600000
   H     31.52000000    72.43000000     8.95000000
   H     29.61000000    70.13000000     9.23000000
   H     30.66000000    70.40000000     7.84000000
   H     30.12000000    73.25000000     7.59000000
   C     28.90000000    76.47000000    10.68000000
   C     29.66000000    77.19000000     9.57000000
   C     30.46000000    76.51000000     8.47000000
   O     30.70000000    75.29000000     8.57000000
   O     30.81000000    77.19000000     7.48000000
   H     29.51000000    75.67200000    11.10300000
   H     27.98800000    76.02800000    10.27900000
   H     28.65000000    77.21000000    11.45000000
   H     30.36000000    77.86000000    10.08000000
   H     28.99000000    77.91000000     9.10000000
   C     38.18000000    74.04000000     9.22000000
   C     36.81000000    74.05000000     8.55000000
   C     36.27000000    75.48000000     8.51000000
   C     35.02000000    75.61000000     7.66000000
   O     34.95000000    74.97000000     6.59000000
   O     33.99000000    76.19000000     8.08000000
   H     38.91900000    74.51400000     8.57400000
   H     38.49200000    73.01300000     9.40800000
   H     38.10000000    74.58000000    10.16000000
   H     36.09000000    73.48000000     9.13000000
   H     36.90000000    73.54000000     7.59000000
   H     36.96000000    76.20000000     8.08000000
   H     36.04000000    75.81000000     9.52000000
  Ca     32.30000000    75.44000000     6.34000000
   O     33.47000000    75.87000000     3.95000000
   H     34.30000000    76.35000000     3.83000000
   H     33.35000000    75.39000000     3.13000000

C O H 0
aug-cc-pVTZ 
****
@/home/pzhang5/ca_ccpvtz_basisset.gbs/N

Ca 1.70




