%Nproc=28
%chk=holo23.0.chk
%mem=80GB
%NoSave
#MP2(semidirect)/Gen scf=(tight,noincore) Test
#IOP(5/87=12) Density=Current Pop=(MK,readradii) iop(6/33=2) iop(6/42=6)

holo_loop_3_model_23.0 

   0   1
   C     31.19000000    71.15000000     9.96000000
   C     30.18000000    70.44000000     9.07000000
   C     29.10000000    71.26000000     8.38000000
   O     27.91000000    70.98000000     8.49000000
   O     29.47000000    72.25000000     7.51000000
   H     31.99900000    70.46300000    10.20900000
   H     30.69900000    71.48000000    10.87500000
   H     31.60000000    72.02000000     9.43000000
   H     29.62000000    69.80000000     9.76000000
   H     30.64000000    69.81000000     8.31000000
   H     30.39000000    72.11000000     7.26000000
   C     29.01000000    76.05000000    11.09000000
   C     29.50000000    76.97000000     9.97000000
   C     29.85000000    76.36000000     8.62000000
   O     29.70000000    75.14000000     8.39000000
   O     30.15000000    77.18000000     7.73000000
   H     29.76600000    75.29300000    11.29600000
   H     28.08500000    75.56200000    10.78300000
   H     28.83000000    76.64000000    11.99000000
   H     30.38000000    77.41000000    10.44000000
   H     28.75000000    77.72000000     9.74000000
   C     37.70000000    74.33000000     9.01000000
   C     36.41000000    74.20000000     8.21000000
   C     35.60000000    75.48000000     8.00000000
   C     34.39000000    75.24000000     7.12000000
   O     33.29000000    75.43000000     7.68000000
   O     34.56000000    74.88000000     5.93000000
   H     38.50800000    74.76700000     8.42300000
   H     38.05200000    73.35100000     9.33600000
   H     37.43000000    74.95000000     9.87000000
   H     35.81000000    73.49000000     8.76000000
   H     36.55000000    73.69000000     7.25000000
   H     36.20000000    76.31000000     7.63000000
   H     35.28000000    75.93000000     8.94000000
  Ca     31.30000000    75.38000000     5.99000000
   O     31.24000000    78.07000000     5.06000000
   H     31.54000000    78.30000000     4.18000000
   H     31.21000000    78.91000000     5.52000000

C O H 0
aug-cc-pVTZ 
****
@/home/pzhang5/ca_ccpvtz_basisset.gbs/N

Ca 1.70




