%Nproc=28
%chk=holo17.0.chk
%mem=80GB
%NoSave
#MP2(semidirect)/Gen scf=(tight,noincore) Test
#IOP(5/87=12) Density=Current Pop=(MK,readradii) iop(6/33=2) iop(6/42=6)

holo_loop_3_model_17.0 

   0   1
   C     31.13000000    70.42000000     9.17000000
   C     30.26000000    69.54000000     8.28000000
   C     29.33000000    70.32000000     7.36000000
   O     28.15000000    69.98000000     7.25000000
   O     29.79000000    71.52000000     6.91000000
   H     31.83600000    69.81000000     9.73300000
   H     30.50500000    70.96400000     9.87800000
   H     31.66000000    71.12000000     8.53000000
   H     29.61000000    68.95000000     8.92000000
   H     30.79000000    68.74000000     7.77000000
   H     30.74000000    71.53000000     7.01000000
   C     28.62000000    75.25000000    10.33000000
   C     29.35000000    76.19000000     9.37000000
   C     30.04000000    75.59000000     8.15000000
   O     30.66000000    76.34000000     7.36000000
   O     30.11000000    74.35000000     8.05000000
   H     29.29300000    74.49400000    10.73400000
   H     27.81900000    74.72500000     9.81000000
   H     28.21000000    75.88000000    11.12000000
   H     30.10000000    76.69000000     9.98000000
   H     28.64000000    76.87000000     8.90000000
   C     37.60000000    72.47000000     9.44000000
   C     36.30000000    72.35000000     8.66000000
   C     35.43000000    73.60000000     8.79000000
   C     34.18000000    73.56000000     7.93000000
   O     34.21000000    73.02000000     6.80000000
   O     33.18000000    74.16000000     8.38000000
   H     38.33200000    73.04900000     8.87800000
   H     38.01800000    71.48000000     9.62300000
   H     37.37000000    72.96000000    10.39000000
   H     35.87000000    71.45000000     9.10000000
   H     36.47000000    72.07000000     7.62000000
   H     36.00000000    74.49000000     8.50000000
   H     35.10000000    73.60000000     9.83000000
  Ca     31.89000000    74.07000000     6.01000000
   O     33.54000000    76.23000000     5.77000000
   H     33.41000000    77.15000000     5.56000000
   H     34.44000000    76.17000000     6.10000000

C O H 0
aug-cc-pVTZ 
****
@/home/pzhang5/ca_ccpvtz_basisset.gbs/N

Ca 1.70




