%Nproc=28
%chk=holo5.0.chk
%mem=80GB
%NoSave
#MP2(semidirect)/Gen scf=(tight,noincore) Test
#IOP(5/87=12) Density=Current Pop=(MK,readradii) iop(6/33=2) iop(6/42=6)

holo_loop_3_model_5.0 

   0   1
   C     31.51000000    74.59000000    11.25000000
   C     30.41000000    74.13000000    10.30000000
   C     29.39000000    75.18000000     9.92000000
   O     28.16000000    75.05000000     9.92000000
   O     29.87000000    76.42000000     9.62000000
   H     32.18800000    73.77500000    11.50500000
   H     31.08000000    74.95100000    12.18400000
   H     32.03000000    75.40000000    10.73000000
   H     29.79000000    73.35000000    10.74000000
   H     30.86000000    73.71000000     9.40000000
   H     30.81000000    76.53000000     9.82000000
   C     30.26000000    79.24000000    13.61000000
   C     31.20000000    80.07000000    12.74000000
   C     31.54000000    79.58000000    11.34000000
   O     31.70000000    80.53000000    10.54000000
   O     31.54000000    78.37000000    11.00000000
   H     30.58000000    78.20700000    13.74600000
   H     29.26800000    79.16500000    13.16500000
   H     30.24000000    79.82000000    14.53000000
   H     32.20000000    80.16000000    13.17000000
   H     30.78000000    81.07000000    12.68000000
   C     38.55000000    75.79000000    11.10000000
   C     37.12000000    76.08000000    10.66000000
   C     36.87000000    77.58000000    10.70000000
   C     35.54000000    77.82000000    10.01000000
   O     35.43000000    77.63000000     8.78000000
   O     34.61000000    78.30000000    10.69000000
   H     39.24100000    76.24400000    10.38900000
   H     38.70700000    74.71200000    11.13100000
   H     38.73000000    76.21000000    12.09000000
   H     36.42000000    75.65000000    11.38000000
   H     37.04000000    75.64000000     9.66000000
   H     37.61000000    78.17000000    10.16000000
   H     36.89000000    77.97000000    11.72000000
  Ca     32.93000000    78.98000000     8.71000000
   O     33.86000000    78.84000000     6.08000000
   H     34.25000000    79.71000000     6.17000000
   H     33.49000000    78.84000000     5.19000000

C O H 0
aug-cc-pVTZ 
****
@/home/pzhang5/ca_ccpvtz_basisset.gbs/N

Ca 1.70




