%Nproc=28
%chk=holo39.0.chk
%mem=80GB
%NoSave
#MP2(semidirect)/Gen scf=(tight,noincore) Test
#IOP(5/87=12) Density=Current Pop=(MK,readradii) iop(6/33=2) iop(6/42=6)

holo_loop_3_model_39.0 

   0   1
   C     30.94000000    71.88000000     9.14000000
   C     30.07000000    71.02000000     8.23000000
   C     28.95000000    71.79000000     7.53000000
   O     27.76000000    71.51000000     7.63000000
   O     29.30000000    72.95000000     6.90000000
   H     31.74600000    71.29000000     9.57700000
   H     30.34200000    72.28600000     9.95600000
   H     31.34000000    72.69000000     8.53000000
   H     29.61000000    70.20000000     8.78000000
   H     30.64000000    70.69000000     7.37000000
   H     30.22000000    72.88000000     6.63000000
   C     29.07000000    76.88000000    10.25000000
   C     29.95000000    77.62000000     9.25000000
   C     30.42000000    76.87000000     8.01000000
   O     30.43000000    75.62000000     8.06000000
   O     30.75000000    77.53000000     7.00000000
   H     29.59200000    75.99900000    10.62400000
   H     28.14700000    76.56300000     9.76400000
   H     28.84000000    77.55000000    11.07000000
   H     30.85000000    78.05000000     9.69000000
   H     29.45000000    78.54000000     8.94000000
   C     37.97000000    74.08000000     9.19000000
   C     36.60000000    73.93000000     8.54000000
   C     36.09000000    75.25000000     7.96000000
   C     34.65000000    75.18000000     7.46000000
   O     34.42000000    74.51000000     6.43000000
   O     33.81000000    75.97000000     7.94000000
   H     38.71100000    74.48400000     8.50100000
   H     38.34900000    73.11200000     9.51700000
   H     37.80000000    74.74000000    10.05000000
   H     35.96000000    73.64000000     9.37000000
   H     36.47000000    73.14000000     7.80000000
   H     36.58000000    75.58000000     7.05000000
   H     36.24000000    76.08000000     8.65000000
  Ca     31.95000000    75.44000000     5.86000000
   O     33.28000000    75.12000000     3.41000000
   H     33.85000000    75.88000000     3.47000000
   H     33.37000000    74.82000000     2.51000000

C O H 0
aug-cc-pVTZ 
****
@/home/pzhang5/ca_ccpvtz_basisset.gbs/N

Ca 1.70




