%chk=Ng-295_loop3_30.0.chk
%nprocshared=48
%mem=10GB
%nosave
#b3lyp/svp scf=(tight,noincore) Test 
#IOP(5/87=12) Density=Current Pop=(MK,readradii) iop(6/33=2) iop(6/42=6)

Ng-295_loop3_30.0 

   0   1
   C     89.24700000    72.43700000    58.12000000
   C     88.75700000    70.99700000    58.25000000
   O     87.56700000    70.73700000    58.39000000
   H     90.21400000    72.44700000    57.61800000
   H     88.52900000    73.01400000    57.53700000
   H     89.34900000    72.87800000    59.11200000
   N     89.74700000    70.10700000    58.34000000
   C     89.42700000    68.68700000    58.39000000
   C     89.04700000    68.27700000    59.81000000
   O     89.86700000    68.53700000    60.69000000
   C     90.56700000    67.80700000    57.88000000
   C     90.00700000    66.48700000    57.35000000
   O     90.32700000    66.13700000    56.19000000
   O     89.26700000    65.74700000    58.03000000
   H     90.67700000    70.40700000    58.56000000
   H     88.55700000    68.55700000    57.75000000
   H     91.40700000    67.67700000    58.57000000
   H     91.02700000    68.32700000    57.05000000
   N     87.94700000    67.55700000    60.03000000
   C     87.50700000    66.95700000    61.28000000
   C     88.49700000    66.00700000    61.93000000
   O     88.30700000    65.78700000    63.12000000
   C     86.18700000    66.22700000    61.03000000
   C     86.40700000    64.90700000    60.29000000
   C     85.22700000    63.95700000    60.12000000
   C     85.47700000    62.69700000    59.30000000
   N     86.27700000    61.71700000    60.05000000
   H     87.39700000    67.32700000    59.22000000
   H     87.27700000    67.76700000    61.97000000
   H     85.49700000    66.84700000    60.47000000
   H     85.66700000    66.02700000    61.96000000
   H     87.13700000    64.26700000    60.79000000
   H     86.80700000    65.04700000    59.29000000
   H     84.49700000    64.53700000    59.56000000
   H     84.77700000    63.69700000    61.08000000
   H     86.03700000    62.96700000    58.40000000
   H     84.51700000    62.29700000    58.96000000
   H     87.21700000    62.01700000    60.24000000
   H     85.76700000    61.52700000    60.90000000
   H     86.32700000    60.81700000    59.60000000
   N     89.49700000    65.48700000    61.21000000
   C     90.45700000    64.57700000    61.80000000
   C     91.87700000    64.95700000    61.41000000
   O     92.83700000    64.39700000    61.93000000
   C     90.20700000    63.12700000    61.41000000
   C     89.95700000    62.96700000    59.91000000
   O     88.82700000    62.58700000    59.52000000
   O     90.80700000    63.43700000    59.13000000
   H     89.26700000    65.43700000    60.22000000
   H     90.34700000    64.57700000    62.89000000
   H     89.30700000    62.76700000    61.91000000
   H     90.96700000    62.41700000    61.73000000
   N     92.06700000    66.11700000    60.77000000
   C     93.37700000    66.60700000    60.39000000
   C     94.04700000    65.75700000    59.32000000
   O     95.25700000    65.97700000    59.21000000
   H     91.29700000    66.67700000    60.43000000
   H     94.05700000    66.48700000    61.23000000
   H     93.27700000    67.65700000    60.12000000
   N     93.40700000    64.74700000    58.73000000
   C     94.03700000    63.79700000    57.84000000
   C     93.25700000    63.80700000    56.53000000
   O     92.03700000    63.69700000    56.45000000
   C     94.31700000    62.46700000    58.54000000
   C     94.81700000    61.25700000    57.76000000
   N     95.29700000    60.21700000    58.45000000
   O     94.70700000    61.15700000    56.54000000
   H     92.41700000    64.64700000    58.90000000
   H     95.01700000    64.17700000    57.56000000
   H     93.30700000    62.20700000    58.82000000
   H     94.89700000    62.62700000    59.44000000
   H     95.50700000    60.33700000    59.43000000
   H     95.87700000    59.58700000    57.91000000
   N     93.98700000    63.73700000    55.42000000
   C     93.42700000    63.84700000    54.09000000
   C     92.74700000    62.60700000    53.53000000
   O     92.44700000    62.56700000    52.34000000
   H     94.98700000    63.78700000    55.48000000
   H     94.25700000    64.08700000    53.42000000
   H     92.72700000    64.67700000    54.18000000
   N     92.56700000    61.52700000    54.30000000
   C     91.72700000    60.42700000    53.89000000
   C     90.27700000    60.85700000    54.00000000
   O     89.79700000    61.42700000    54.98000000
   C     91.95700000    59.18700000    54.75000000
   C     90.99700000    58.05700000    54.48000000
   C     90.00700000    57.97700000    55.46000000
   C     91.20700000    57.20700000    53.38000000
   C     89.09700000    56.92700000    55.32000000
   C     90.20700000    56.23700000    53.25000000
   C     89.18700000    56.06700000    54.21000000
   O     88.25700000    55.07700000    54.09000000
   H     92.95700000    61.58700000    55.23000000
   H     91.88700000    60.08700000    52.86000000
   H     91.93700000    59.49700000    55.80000000
   H     92.94700000    58.77700000    54.59000000
   H     89.79700000    58.60700000    56.32000000
   H     92.03700000    57.24700000    52.69000000
   H     88.32700000    56.73700000    56.05000000
   H     90.25700000    55.41700000    52.54000000
   H     88.48700000    54.43700000    53.42000000
   N     89.52700000    60.44700000    52.97000000
   C     88.08700000    60.42700000    52.82000000
   C     87.24700000    59.51700000    53.71000000
   O     87.38700000    59.44700000    54.92000000
   C     87.58700000    61.86700000    52.70000000
   C     86.07700000    62.00700000    52.79000000
   C     88.06700000    62.41700000    51.36000000
   C     85.69700000    63.47700000    52.75000000
   H     90.03700000    60.01700000    52.21000000
   H     88.02700000    60.00700000    51.82000000
   H     88.08700000    62.42700000    53.48000000
   H     85.67700000    61.51700000    53.68000000
   H     85.68700000    61.41700000    51.96000000
   H     89.12700000    62.68700000    51.43000000
   H     87.97700000    61.63700000    50.60000000
   H     87.53700000    63.28700000    50.98000000
   H     84.63700000    63.52700000    53.00000000
   H     86.42700000    64.13700000    53.21000000
   H     85.66700000    63.66700000    51.67000000
   N     86.30700000    58.81700000    53.06000000
   C     85.39700000    57.93700000    53.76000000
   C     84.72700000    56.86700000    52.90000000
   O     84.45700000    55.79700000    53.44000000
   C     84.24700000    58.80700000    54.26000000
   O     83.72700000    59.54700000    53.18000000
   H     86.14700000    59.07700000    52.10000000
   H     85.95700000    57.46700000    54.56000000
   H     84.62700000    59.50700000    55.00000000
   H     83.43700000    58.24700000    54.73000000
   H     83.22700000    60.24700000    53.59000000
   N     84.75700000    57.01700000    51.57000000
   C     84.15700000    56.17700000    50.56000000
   C     82.80700000    55.58700000    50.97000000
   O     82.59700000    54.37700000    51.02000000
   C     85.18700000    55.09700000    50.26000000
   H     85.15700000    57.88700000    51.24000000
   H     83.94700000    56.77700000    49.68000000
   H     85.38700000    54.54700000    51.18000000
   H     84.98700000    54.43700000    49.42000000
   H     86.15700000    55.51700000    49.96000000
   N     81.81700000    56.33700000    51.44000000
   C     81.60700000    57.77700000    51.35000000
   C     80.90700000    58.23700000    50.08000000
   O     80.13700000    57.55700000    49.42000000
   C     80.86700000    58.25700000    52.59000000
   H     81.03700000    55.85700000    51.86000000
   H     82.59700000    58.21700000    51.23000000
   H     79.80700000    58.02700000    52.45000000
   H     81.16700000    57.67700000    53.47000000
   H     80.88700000    59.33700000    52.68000000
   N     81.13700000    59.44700000    49.55000000
   C     82.04700000    60.49700000    49.93000000
   C     82.84700000    60.99700000    48.74000000
   O     84.07700000    61.03700000    48.76000000
   C     81.30700000    61.65700000    50.60000000
   C     82.13700000    62.87700000    50.97000000
   C     81.41700000    63.99700000    51.72000000
   O     80.94700000    64.99700000    51.14000000
   O     81.24700000    63.81700000    52.94000000
   H     80.58700000    59.73700000    48.75000000
   H     82.81700000    60.13700000    50.62000000
   H     80.74700000    61.37700000    51.49000000
   H     80.54700000    62.02700000    49.90000000
   H     82.50700000    63.35700000    50.06000000
   H     82.95700000    62.55700000    51.61000000
   N     82.21700000    61.43700000    47.65000000
   C     82.82700000    61.81700000    46.39000000
   H     83.84000000    61.41700000    46.34200000
   H     82.23900000    61.41500000    45.56500000
   H     82.86200000    62.90400000    46.31600000
   H     81.20700000    61.36700000    47.57000000
  Ca     89.47000000    63.13000000    57.04000000
   O     87.25000000    64.53000000    56.92000000
   H     87.50000000    65.44000000    57.06000000
   H     86.34000000    64.58000000    56.61000000

Ca 1.70



