%chk=Ng-295_loop3_29.0.chk
%nprocshared=48
%mem=10GB
%nosave
#b3lyp/svp scf=(tight,noincore) Test 
#IOP(5/87=12) Density=Current Pop=(MK,readradii) iop(6/33=2) iop(6/42=6)

Ng-295_loop3_29.0 

   0   1
   C     99.51100000    77.78100000    29.77000000
   C     98.66100000    76.56100000    29.47000000
   O     97.59100000    76.40100000    30.04000000
   H    100.44000000    77.72400000    29.20300000
   H     98.96700000    78.68200000    29.48600000
   H     99.73800000    77.81300000    30.83600000
   N     99.08100000    75.62100000    28.62000000
   C     98.43100000    74.36100000    28.32000000
   C     99.36100000    73.27100000    27.79000000
   O    100.26100000    73.55100000    27.01000000
   C     97.25100000    74.64100000    27.39000000
   C     96.23100000    73.51100000    27.40000000
   O     96.47100000    72.38100000    26.93000000
   O     95.13100000    73.73100000    27.94000000
   H    100.00100000    75.68100000    28.21000000
   H     98.03100000    73.92100000    29.23000000
   H     97.50100000    74.84100000    26.35000000
   H     96.75100000    75.55100000    27.70000000
   N     99.10100000    72.01100000    28.14000000
   C     99.88100000    70.88100000    27.68000000
   C     99.57100000    70.40100000    26.26000000
   O    100.45100000    69.88100000    25.58000000
   C     99.57100000    69.74100000    28.65000000
   C     98.10100000    69.31100000    28.66000000
   C     97.80100000    68.33100000    29.79000000
   C     97.56100000    69.13100000    31.06000000
   N     97.51100000    68.22100000    32.22000000
   H     98.33100000    71.79100000    28.76000000
   H    100.95100000    71.07100000    27.70000000
   H     99.97100000    70.09100000    29.60000000
   H    100.13100000    68.84100000    28.39000000
   H     97.96100000    68.68100000    27.78000000
   H     97.41100000    70.15100000    28.63000000
   H     98.66100000    67.67100000    29.92000000
   H     96.98100000    67.63100000    29.59000000
   H     96.57100000    69.54100000    30.92000000
   H     98.31100000    69.91100000    31.21000000
   H     97.19100000    68.72100000    33.03000000
   H     96.90100000    67.43100000    32.11000000
   H     98.40100000    67.83100000    32.51000000
   N     98.35100000    70.59100000    25.75000000
   C     97.88100000    70.26100000    24.43000000
   C     97.52100000    71.44100000    23.53000000
   O     97.37100000    71.35100000    22.32000000
   C     96.75100000    69.27100000    24.66000000
   C     95.76100000    69.88100000    25.64000000
   O     94.93100000    70.70100000    25.19000000
   O     95.51100000    69.34100000    26.73000000
   H     97.75100000    71.08100000    26.41000000
   H     98.66100000    69.76100000    23.86000000
   H     97.27100000    68.40100000    25.06000000
   H     96.27100000    68.99100000    23.71000000
   N     97.36100000    72.64100000    24.10000000
   C     96.85100000    73.82100000    23.44000000
   C     95.39100000    73.88100000    23.03000000
   O     94.97100000    74.79100000    22.32000000
   H     97.43100000    72.60100000    25.11000000
   H     97.33100000    73.90100000    22.46000000
   H     97.06100000    74.71100000    24.04000000
   N     94.55100000    72.95100000    23.49000000
   C     93.10100000    73.01100000    23.41000000
   C     92.60100000    73.59100000    24.73000000
   O     92.82100000    72.96100000    25.77000000
   C     92.46100000    71.63100000    23.26000000
   C     90.97100000    71.67100000    22.95000000
   N     90.35100000    70.58100000    22.50000000
   O     90.21100000    72.62100000    23.10000000
   H     94.87100000    72.23100000    24.12000000
   H     92.86100000    73.65100000    22.57000000
   H     92.55100000    71.02100000    24.16000000
   H     92.99100000    71.10100000    22.48000000
   H     90.87100000    69.72100000    22.41000000
   H     89.35100000    70.63100000    22.39000000
   N     91.75100000    74.62100000    24.68000000
   C     91.09100000    75.22100000    25.82000000
   C     89.82100000    74.62100000    26.41000000
   O     89.30100000    75.21100000    27.36000000
   H     91.49100000    74.94100000    23.76000000
   H     90.87100000    76.23100000    25.51000000
   H     91.81100000    75.24100000    26.65000000
   N     89.35100000    73.50100000    25.86000000
   C     88.15100000    72.87100000    26.37000000
   C     88.16100000    72.47100000    27.83000000
   O     89.21100000    72.10100000    28.34000000
   C     87.81100000    71.71100000    25.44000000
   C     86.52100000    70.98100000    25.72000000
   C     86.46100000    70.12100000    26.82000000
   C     85.48100000    71.05100000    24.79000000
   C     85.32100000    69.34100000    27.03000000
   C     84.30100000    70.32100000    25.00000000
   C     84.24100000    69.49100000    26.14000000
   O     83.18100000    68.66100000    26.35000000
   H     89.86100000    73.05100000    25.11000000
   H     87.33100000    73.58100000    26.23000000
   H     88.62100000    70.98100000    25.44000000
   H     87.67100000    72.09100000    24.43000000
   H     87.29100000    70.00100000    27.51000000
   H     85.55100000    71.73100000    23.95000000
   H     85.21100000    68.68100000    27.88000000
   H     83.45100000    70.35100000    24.34000000
   H     82.46100000    68.86100000    25.75000000
   N     87.00100000    72.68100000    28.47000000
   C     86.63100000    72.39100000    29.84000000
   C     86.48100000    70.93100000    30.25000000
   O     87.33100000    70.12100000    29.88000000
   C     87.55100000    73.14100000    30.80000000
   C     87.35100000    72.96100000    32.30000000
   C     87.61100000    74.62100000    30.42000000
   C     85.97100000    73.42100000    32.76000000
   H     86.26100000    73.01100000    27.87000000
   H     85.63100000    72.81100000    29.92000000
   H     88.58100000    72.85100000    30.61000000
   H     88.06100000    73.63100000    32.79000000
   H     87.49100000    71.93100000    32.62000000
   H     88.22100000    74.76100000    29.53000000
   H     86.60100000    75.01100000    30.35000000
   H     88.09100000    75.25100000    31.17000000
   H     85.75100000    74.38100000    32.28000000
   H     85.16100000    72.72100000    32.59000000
   H     86.04100000    73.52100000    33.84000000
   N     85.46100000    70.58100000    31.04000000
   C     85.35100000    69.32100000    31.76000000
   C     83.94100000    68.76100000    31.74000000
   O     83.85100000    67.54100000    31.88000000
   C     85.89100000    69.55100000    33.17000000
   O     85.14100000    70.47100000    33.93000000
   H     84.79100000    71.31100000    31.22000000
   H     86.09100000    68.66100000    31.31000000
   H     86.95100000    69.74100000    32.98000000
   H     85.83100000    68.61100000    33.71000000
   H     85.45100000    70.40100000    34.84000000
   N     82.89100000    69.56100000    31.53000000
   C     81.56100000    69.01100000    31.30000000
   C     80.98100000    68.13100000    32.40000000
   O     80.29100000    67.17100000    32.09000000
   C     81.44100000    68.37100000    29.92000000
   H     83.03100000    70.52100000    31.29000000
   H     80.80100000    69.79100000    31.25000000
   H     81.90100000    67.38100000    29.81000000
   H     80.37100000    68.29100000    29.77000000
   H     81.97100000    69.07100000    29.27000000
   N     80.94100000    68.46100000    33.69000000
   C     81.71100000    69.46100000    34.40000000
   C     80.81100000    70.40100000    35.20000000
   O     79.71100000    70.04100000    35.60000000
   C     82.66100000    68.68100000    35.30000000
   H     80.46100000    67.78100000    34.27000000
   H     82.30100000    70.09100000    33.73000000
   H     83.46100000    68.25100000    34.68000000
   H     83.12100000    69.33100000    36.04000000
   H     82.10100000    67.92100000    35.84000000
   N     81.21100000    71.64100000    35.45000000
   C     82.45100000    72.36100000    35.20000000
   C     82.20100000    73.82100000    34.82000000
   O     82.97100000    74.43100000    34.08000000
   C     83.36100000    72.32100000    36.43000000
   C     82.78100000    72.95100000    37.69000000
   C     83.79100000    72.91100000    38.83000000
   O     83.87100000    71.89100000    39.55000000
   O     84.52100000    73.88100000    39.13000000
   H     80.60100000    72.18100000    36.05000000
   H     83.09100000    71.91100000    34.45000000
   H     84.22100000    72.91100000    36.12000000
   H     83.56100000    71.27100000    36.62000000
   H     81.87100000    72.41100000    37.94000000
   H     82.61100000    74.01100000    37.48000000
   N     81.07100000    74.38100000    35.25000000
   C     80.66100000    75.73100000    34.90000000
   H     79.72900000    75.97100000    35.41200000
   H     81.43400000    76.43600000    35.20400000
   H     80.51000000    75.79800000    33.82300000
   H     80.45100000    73.85100000    35.84000000
  Ca     94.06000000    71.45000000    27.50000000
   O     91.89000000    70.17000000    26.58000000
   H     91.08000000    69.77000000    26.91000000
   H     92.01000000    69.78000000    25.72000000

Ca 1.70



