%chk=Ng-293_loop3_64.0.chk
%nprocshared=48
%mem=10GB
%nosave
#b3lyp/svp scf=(tight,noincore) Test 
#IOP(5/87=12) Density=Current Pop=(MK,readradii) iop(6/33=2) iop(6/42=6)

Ng-293_loop3_64.0 

   0   1
   C     62.81000000    19.29000000    12.44000000
   C     63.63000000    20.01000000    11.39000000
   O     63.18000000    21.02000000    10.86000000
   H     61.83000000    19.04500000    12.03000000
   H     63.32000000    18.37200000    12.73400000
   H     62.68800000    19.93400000    13.31100000
   N     64.81000000    19.45000000    11.09000000
   C     65.99000000    20.04000000    10.47000000
   C     65.92000000    20.47000000     9.01000000
   O     66.95000000    20.85000000     8.47000000
   C     66.49000000    21.12000000    11.42000000
   C     68.01000000    21.03000000    11.52000000
   O     68.73000000    21.95000000    11.07000000
   O     68.48000000    20.02000000    12.08000000
   H     65.04000000    18.60000000    11.59000000
   H     66.68000000    19.19000000    10.46000000
   H     66.09000000    21.00000000    12.42000000
   H     66.12000000    22.07000000    11.03000000
   N     64.75000000    20.37000000     8.37000000
   C     64.44000000    20.74000000     7.00000000
   C     64.56000000    22.22000000     6.69000000
   O     64.65000000    22.66000000     5.54000000
   C     63.01000000    20.25000000     6.78000000
   C     62.63000000    20.16000000     5.31000000
   C     61.24000000    19.58000000     5.09000000
   C     60.55000000    20.06000000     3.82000000
   N     61.36000000    19.75000000     2.63000000
   H     63.93000000    20.13000000     8.91000000
   H     65.14000000    20.25000000     6.33000000
   H     62.33000000    20.84000000     7.39000000
   H     63.00000000    19.22000000     7.16000000
   H     63.37000000    19.51000000     4.84000000
   H     62.56000000    21.15000000     4.86000000
   H     60.62000000    19.71000000     5.97000000
   H     61.39000000    18.51000000     4.94000000
   H     60.50000000    21.15000000     3.83000000
   H     59.57000000    19.58000000     3.82000000
   H     60.91000000    19.83000000     1.73000000
   H     62.19000000    20.31000000     2.50000000
   H     61.51000000    18.75000000     2.55000000
   N     64.46000000    23.04000000     7.74000000
   C     64.83000000    24.44000000     7.67000000
   C     65.73000000    24.90000000     8.80000000
   O     65.50000000    24.53000000     9.95000000
   C     63.57000000    25.27000000     7.41000000
   C     63.73000000    26.78000000     7.40000000
   O     62.79000000    27.49000000     7.81000000
   O     64.78000000    27.23000000     6.89000000
   H     64.12000000    22.62000000     8.60000000
   H     65.45000000    24.42000000     6.78000000
   H     62.86000000    25.08000000     8.22000000
   H     63.08000000    24.85000000     6.54000000
   N     66.63000000    25.86000000     8.56000000
   C     67.37000000    26.63000000     9.54000000
   C     66.50000000    27.67000000    10.25000000
   O     65.45000000    27.99000000     9.70000000
   H     66.71000000    26.06000000     7.57000000
   H     68.13000000    27.10000000     8.92000000
   H     67.87000000    25.97000000    10.25000000
   N     66.88000000    28.06000000    11.47000000
   C     66.15000000    29.04000000    12.25000000
   C     66.98000000    30.30000000    12.45000000
   O     66.54000000    31.21000000    13.14000000
   C     65.69000000    28.38000000    13.55000000
   C     64.83000000    27.13000000    13.47000000
   N     64.25000000    26.79000000    12.31000000
   O     64.72000000    26.35000000    14.42000000
   H     67.65000000    27.59000000    11.91000000
   H     65.21000000    29.37000000    11.80000000
   H     64.99000000    29.09000000    14.00000000
   H     66.56000000    28.15000000    14.17000000
   H     64.47000000    27.45000000    11.58000000
   H     63.73000000    25.94000000    12.20000000
   N     68.21000000    30.41000000    11.94000000
   C     69.07000000    31.53000000    12.26000000
   C     69.25000000    31.69000000    13.76000000
   O     69.36000000    30.69000000    14.47000000
   H     68.57000000    29.70000000    11.32000000
   H     68.69000000    32.43000000    11.77000000
   H     70.04000000    31.36000000    11.78000000
   N     69.52000000    32.93000000    14.17000000
   C     69.45000000    33.51000000    15.50000000
   C     68.05000000    33.39000000    16.10000000
   O     67.91000000    34.04000000    17.13000000
   C     70.52000000    32.92000000    16.42000000
   C     71.96000000    33.19000000    16.06000000
   C     72.71000000    32.48000000    15.11000000
   C     72.68000000    34.13000000    16.81000000
   C     74.11000000    32.58000000    15.05000000
   C     74.07000000    34.26000000    16.78000000
   C     74.81000000    33.49000000    15.86000000
   O     76.17000000    33.52000000    15.77000000
   H     69.84000000    33.64000000    13.53000000
   H     69.67000000    34.56000000    15.36000000
   H     70.29000000    31.85000000    16.48000000
   H     70.30000000    33.28000000    17.42000000
   H     72.24000000    31.75000000    14.48000000
   H     72.14000000    34.73000000    17.53000000
   H     74.69000000    31.93000000    14.40000000
   H     74.46000000    34.92000000    17.54000000
   H     76.47000000    34.17000000    16.42000000
   N     67.10000000    32.64000000    15.54000000
   C     65.74000000    32.50000000    16.02000000
   C     64.79000000    33.68000000    15.85000000
   O     63.94000000    33.67000000    14.97000000
   C     65.79000000    31.85000000    17.40000000
   C     66.53000000    30.52000000    17.37000000
   C     64.33000000    31.69000000    17.81000000
   C     66.55000000    29.72000000    18.67000000
   H     67.22000000    32.00000000    14.76000000
   H     65.22000000    31.74000000    15.44000000
   H     66.26000000    32.52000000    18.12000000
   H     67.54000000    30.73000000    16.99000000
   H     66.06000000    29.98000000    16.55000000
   H     63.82000000    31.19000000    16.99000000
   H     64.23000000    31.17000000    18.76000000
   H     63.80000000    32.63000000    17.93000000
   H     67.15000000    28.82000000    18.50000000
   H     66.97000000    30.35000000    19.45000000
   H     65.54000000    29.40000000    18.93000000
   N     64.91000000    34.76000000    16.63000000
   C     64.32000000    36.06000000    16.42000000
   C     62.81000000    36.15000000    16.33000000
   O     62.38000000    36.88000000    15.45000000
   C     64.85000000    37.04000000    17.47000000
   O     66.22000000    36.90000000    17.77000000
   H     65.61000000    34.61000000    17.35000000
   H     64.72000000    36.32000000    15.44000000
   H     64.26000000    36.97000000    18.39000000
   H     64.71000000    38.06000000    17.14000000
   H     66.40000000    37.51000000    18.50000000
   N     61.99000000    35.37000000    17.06000000
   C     60.56000000    35.24000000    16.86000000
   C     60.15000000    34.97000000    15.42000000
   O     59.02000000    35.33000000    15.12000000
   C     59.89000000    36.47000000    17.47000000
   H     62.45000000    34.82000000    17.77000000
   H     60.28000000    34.39000000    17.48000000
   H     60.28000000    37.30000000    16.89000000
   H     58.81000000    36.52000000    17.32000000
   H     60.23000000    36.54000000    18.51000000
   N     60.99000000    34.45000000    14.52000000
   C     60.65000000    34.27000000    13.13000000
   C     60.08000000    32.91000000    12.75000000
   O     60.60000000    31.89000000    13.20000000
   C     61.74000000    34.77000000    12.19000000
   H     61.95000000    34.21000000    14.74000000
   H     59.86000000    35.01000000    12.96000000
   H     62.70000000    34.53000000    12.65000000
   H     61.76000000    34.43000000    11.15000000
   H     61.65000000    35.85000000    12.21000000
   N     58.99000000    32.82000000    11.99000000
   C     58.21000000    31.62000000    11.75000000
   C     57.43000000    30.99000000    12.90000000
   O     57.28000000    29.78000000    12.99000000
   C     59.05000000    30.58000000    11.01000000
   C     59.61000000    31.09000000     9.68000000
   C     60.18000000    30.03000000     8.75000000
   O     61.39000000    30.02000000     8.41000000
   O     59.39000000    29.15000000     8.36000000
   H     58.51000000    33.68000000    11.74000000
   H     57.48000000    31.90000000    11.00000000
   H     58.48000000    29.70000000    10.70000000
   H     59.87000000    30.21000000    11.61000000
   H     60.41000000    31.80000000     9.89000000
   H     58.88000000    31.68000000     9.13000000
   N     56.86000000    31.71000000    13.87000000
   C     56.16000000    31.13000000    14.99000000
   H     55.16400000    30.82000000    14.67400000
   H     56.71100000    30.26300000    15.35400000
   H     56.07500000    31.86800000    15.78800000
   H     56.95000000    32.72000000    13.91000000
  Ca     64.07000000    29.78000000     8.38000000
   O     63.37000000    31.84000000     9.93000000
   H     62.81000000    32.39000000     9.39000000
   H     63.45000000    32.32000000    10.76000000

Ca 1.70



