%chk=Ng-295_loop3_20.0.chk
%nprocshared=48
%mem=10GB
%nosave
#b3lyp/svp scf=(tight,noincore) Test 
#IOP(5/87=12) Density=Current Pop=(MK,readradii) iop(6/33=2) iop(6/42=6)

Ng-295_loop3_20.0 

   0   1
   C     99.13000000    77.20600000    72.01000000
   C     98.02000000    77.08600000    70.98000000
   O     97.63000000    78.09600000    70.39000000
   H     99.96500000    77.76000000    71.58100000
   H     98.75700000    77.73500000    72.88700000
   H     99.46600000    76.21100000    72.30100000
   N     97.58000000    75.86600000    70.66000000
   C     96.47000000    75.58600000    69.77000000
   C     95.11000000    75.73600000    70.45000000
   O     94.82000000    75.06600000    71.43000000
   C     96.69000000    74.22600000    69.11000000
   C     95.62000000    73.70600000    68.16000000
   O     95.90000000    72.80600000    67.34000000
   O     94.48000000    74.22600000    68.17000000
   H     97.70000000    75.10600000    71.32000000
   H     96.49000000    76.40600000    69.05000000
   H     96.82000000    73.42600000    69.84000000
   H     97.58000000    74.20600000    68.49000000
   N     94.30000000    76.69600000    69.99000000
   C     93.18000000    77.13600000    70.80000000
   C     92.01000000    76.16600000    70.74000000
   O     91.22000000    76.11600000    71.67000000
   C     92.77000000    78.52600000    70.32000000
   C     93.73000000    79.69600000    70.51000000
   C     93.27000000    81.01600000    69.90000000
   C     94.26000000    82.15600000    70.12000000
   N     94.67000000    82.31600000    71.52000000
   H     94.57000000    77.18600000    69.15000000
   H     93.38000000    77.33600000    71.85000000
   H     91.90000000    78.83600000    70.90000000
   H     92.45000000    78.45600000    69.28000000
   H     94.69000000    79.36600000    70.12000000
   H     93.84000000    79.77600000    71.59000000
   H     92.30000000    81.27600000    70.34000000
   H     93.18000000    80.82600000    68.83000000
   H     93.72000000    83.06600000    69.84000000
   H     95.11000000    82.07600000    69.45000000
   H     93.95000000    82.50600000    72.20000000
   H     94.97000000    81.45600000    71.95000000
   H     95.41000000    82.99600000    71.65000000
   N     91.94000000    75.30600000    69.72000000
   C     91.01000000    74.19600000    69.61000000
   C     91.66000000    72.88600000    70.03000000
   O     90.91000000    71.97600000    70.38000000
   C     90.43000000    74.03600000    68.21000000
   C     91.56000000    73.94600000    67.19000000
   O     92.05000000    74.98600000    66.70000000
   O     91.95000000    72.81600000    66.84000000
   H     92.51000000    75.54600000    68.93000000
   H     90.17000000    74.46600000    70.25000000
   H     89.78000000    74.87600000    67.96000000
   H     89.83000000    73.12600000    68.18000000
   N     92.98000000    72.68600000    70.01000000
   C     93.67000000    71.48600000    70.45000000
   C     93.74000000    70.31600000    69.47000000
   O     94.07000000    69.20600000    69.87000000
   H     93.52000000    73.48600000    69.72000000
   H     93.21000000    71.21600000    71.40000000
   H     94.72000000    71.76600000    70.59000000
   N     93.27000000    70.46600000    68.23000000
   C     93.18000000    69.34600000    67.31000000
   C     93.56000000    69.59600000    65.85000000
   O     93.75000000    70.71600000    65.39000000
   C     91.78000000    68.74600000    67.43000000
   C     90.86000000    69.16600000    66.29000000
   N     90.73000000    70.45600000    65.98000000
   O     90.27000000    68.33600000    65.60000000
   H     92.88000000    71.34600000    67.95000000
   H     93.85000000    68.58600000    67.70000000
   H     91.30000000    69.02600000    68.37000000
   H     91.92000000    67.66600000    67.38000000
   H     91.25000000    71.18600000    66.45000000
   H     90.17000000    70.81600000    65.22000000
   N     93.62000000    68.52600000    65.06000000
   C     93.76000000    68.51600000    63.62000000
   C     94.01000000    67.15600000    62.99000000
   O     94.89000000    66.41600000    63.43000000
   H     93.52000000    67.63600000    65.54000000
   H     94.58000000    69.18600000    63.37000000
   H     92.89000000    68.92600000    63.10000000
   N     93.27000000    66.88600000    61.91000000
   C     93.33000000    65.66600000    61.13000000
   C     92.84000000    65.86600000    59.71000000
   O     91.73000000    66.36600000    59.49000000
   C     92.58000000    64.51600000    61.80000000
   C     92.62000000    63.14600000    61.16000000
   C     91.59000000    62.74600000    60.30000000
   C     93.68000000    62.27600000    61.46000000
   C     91.64000000    61.47600000    59.73000000
   C     93.73000000    60.97600000    60.95000000
   C     92.69000000    60.60600000    60.07000000
   O     92.71000000    59.36600000    59.48000000
   H     92.47000000    67.48600000    61.80000000
   H     94.39000000    65.37600000    61.12000000
   H     91.57000000    64.89600000    61.67000000
   H     92.81000000    64.47600000    62.86000000
   H     90.73000000    63.38600000    60.21000000
   H     94.57000000    62.71600000    61.89000000
   H     90.83000000    61.02600000    59.17000000
   H     94.59000000    60.34600000    61.13000000
   H     93.33000000    58.69600000    59.78000000
   N     93.81000000    65.63600000    58.82000000
   C     94.03000000    66.14600000    57.48000000
   C     92.92000000    65.87600000    56.47000000
   O     91.95000000    65.21600000    56.82000000
   C     94.52000000    67.58600000    57.49000000
   C     95.83000000    67.67600000    58.27000000
   C     93.47000000    68.62600000    57.87000000
   C     96.47000000    69.05600000    58.22000000
   H     94.63000000    65.28600000    59.30000000
   H     94.80000000    65.42600000    57.20000000
   H     94.78000000    67.74600000    56.44000000
   H     96.48000000    66.88600000    57.89000000
   H     95.69000000    67.54600000    59.35000000
   H     93.05000000    68.44600000    58.86000000
   H     93.91000000    69.58600000    57.62000000
   H     92.68000000    68.62600000    57.12000000
   H     95.97000000    69.90600000    58.69000000
   H     97.46000000    68.98600000    58.68000000
   H     96.66000000    69.38600000    57.20000000
   N     93.27000000    66.15600000    55.22000000
   C     92.51000000    66.06600000    53.99000000
   C     93.20000000    65.34600000    52.84000000
   O     92.58000000    65.05600000    51.82000000
   C     92.17000000    67.49600000    53.55000000
   O     93.25000000    68.36600000    53.31000000
   H     94.16000000    66.63600000    55.12000000
   H     91.52000000    65.65600000    54.23000000
   H     91.51000000    67.85600000    54.35000000
   H     91.70000000    67.38600000    52.58000000
   H     93.21000000    69.04600000    53.99000000
   N     94.51000000    65.21600000    53.05000000
   C     95.48000000    64.64600000    52.14000000
   C     95.13000000    64.60600000    50.66000000
   O     94.89000000    63.54600000    50.09000000
   C     95.83000000    63.25600000    52.64000000
   H     94.91000000    65.50600000    53.94000000
   H     96.31000000    65.33600000    52.26000000
   H     96.77000000    62.84600000    52.29000000
   H     95.98000000    63.31600000    53.72000000
   H     95.01000000    62.52600000    52.58000000
   N     94.94000000    65.72600000    49.96000000
   C     94.99000000    67.06600000    50.50000000
   C     96.29000000    67.76600000    50.11000000
   O     96.65000000    67.76600000    48.93000000
   C     93.80000000    67.88600000    50.02000000
   H     94.86000000    65.58600000    48.96000000
   H     94.86000000    67.04600000    51.58000000
   H     93.69000000    67.90600000    48.94000000
   H     92.90000000    67.47600000    50.48000000
   H     93.92000000    68.90600000    50.38000000
   N     97.06000000    68.34600000    51.03000000
   C     96.91000000    68.49600000    52.46000000
   C     98.13000000    67.84600000    53.11000000
   O     98.04000000    67.06600000    54.06000000
   C     96.70000000    69.96600000    52.81000000
   C     96.54000000    70.12600000    54.31000000
   C     96.17000000    71.54600000    54.73000000
   O     95.02000000    72.01600000    54.56000000
   O     97.07000000    72.31600000    55.14000000
   H     97.81000000    68.82600000    50.55000000
   H     96.01000000    67.99600000    52.81000000
   H     95.80000000    70.24600000    52.25000000
   H     97.50000000    70.54600000    52.34000000
   H     97.44000000    69.77600000    54.83000000
   H     95.75000000    69.41600000    54.56000000
   N     99.27000000    68.26600000    52.57000000
   C    100.54000000    67.68600000    52.95000000
   H    101.27000000    68.48100000    53.10600000
   H    100.41900000    67.11900000    53.87300000
   H    100.88900000    67.02300000    52.15800000
   H     99.28000000    68.87600000    51.76000000
  Ca     94.13000000    73.49000000    65.53000000
   O     93.75000000    75.97000000    64.42000000
   H     93.14000000    76.13000000    63.70000000
   H     93.77000000    76.79000000    64.91000000

Ca 1.70



