%chk=Ng-293_loop3_50.0.chk
%nprocshared=48
%mem=10GB
%nosave
#b3lyp/svp scf=(tight,noincore) Test 
#IOP(5/87=12) Density=Current Pop=(MK,readradii) iop(6/33=2) iop(6/42=6)

Ng-293_loop3_50.0 

   0   1
   C     41.34000000    75.51000000    68.43000000
   C     41.93000000    75.46000000    67.03000000
   O     43.02000000    75.97000000    66.79000000
   H     40.32100000    75.12400000    68.40800000
   H     41.94400000    74.90000000    69.10200000
   H     41.33000000    76.54100000    68.78400000
   N     41.10000000    75.04000000    66.08000000
   C     41.45000000    75.12000000    64.67000000
   C     40.87000000    73.97000000    63.85000000
   O     40.08000000    73.18000000    64.37000000
   C     40.95000000    76.46000000    64.15000000
   C     41.19000000    76.84000000    62.69000000
   O     42.33000000    76.62000000    62.22000000
   O     40.26000000    77.36000000    62.04000000
   H     40.25000000    74.60000000    66.38000000
   H     42.52000000    75.05000000    64.47000000
   H     41.37000000    77.29000000    64.72000000
   H     39.89000000    76.32000000    64.35000000
   N     41.29000000    73.76000000    62.60000000
   C     40.91000000    72.66000000    61.73000000
   C     39.45000000    72.53000000    61.34000000
   O     38.69000000    73.45000000    61.63000000
   C     41.41000000    71.34000000    62.31000000
   C     42.88000000    71.40000000    62.73000000
   C     43.70000000    71.68000000    61.47000000
   C     45.15000000    71.67000000    61.94000000
   N     46.11000000    71.74000000    60.83000000
   H     42.02000000    74.35000000    62.23000000
   H     41.47000000    72.85000000    60.81000000
   H     41.33000000    70.60000000    61.51000000
   H     40.79000000    71.02000000    63.14000000
   H     43.23000000    70.49000000    63.22000000
   H     43.06000000    72.23000000    63.41000000
   H     43.45000000    72.67000000    61.09000000
   H     43.73000000    70.92000000    60.70000000
   H     45.28000000    70.81000000    62.60000000
   H     45.35000000    72.60000000    62.48000000
   H     47.00000000    72.09000000    61.17000000
   H     46.23000000    70.81000000    60.45000000
   H     45.78000000    72.45000000    60.19000000
   N     39.01000000    71.46000000    60.67000000
   C     37.86000000    71.45000000    59.79000000
   C     36.61000000    70.81000000    60.38000000
   O     36.77000000    69.83000000    61.11000000
   C     38.06000000    70.75000000    58.45000000
   C     39.07000000    69.61000000    58.42000000
   O     39.02000000    68.56000000    59.09000000
   O     40.06000000    69.78000000    57.68000000
   H     39.60000000    70.67000000    60.46000000
   H     37.59000000    72.48000000    59.56000000
   H     38.34000000    71.48000000    57.69000000
   H     37.13000000    70.32000000    58.09000000
   N     35.39000000    71.25000000    60.08000000
   C     34.17000000    70.52000000    60.40000000
   C     33.67000000    69.61000000    59.29000000
   O     33.61000000    69.99000000    58.13000000
   H     35.36000000    72.04000000    59.46000000
   H     33.35000000    71.23000000    60.52000000
   H     34.22000000    70.00000000    61.35000000
   N     33.16000000    68.45000000    59.72000000
   C     32.75000000    67.40000000    58.80000000
   C     31.54000000    66.64000000    59.33000000
   O     31.57000000    65.45000000    59.63000000
   C     33.97000000    66.51000000    58.64000000
   C     35.16000000    67.29000000    58.09000000
   N     36.16000000    67.53000000    58.94000000
   O     35.29000000    67.62000000    56.92000000
   H     33.24000000    68.30000000    60.71000000
   H     32.52000000    67.82000000    57.82000000
   H     33.93000000    65.59000000    58.06000000
   H     34.21000000    66.17000000    59.65000000
   H     35.95000000    67.23000000    59.88000000
   H     37.04000000    67.90000000    58.61000000
   N     30.44000000    67.39000000    59.39000000
   C     29.13000000    66.84000000    59.67000000
   C     29.08000000    66.27000000    61.08000000
   O     29.36000000    66.95000000    62.07000000
   H     30.51000000    68.34000000    59.04000000
   H     28.87000000    66.17000000    58.85000000
   H     28.41000000    67.66000000    59.70000000
   N     28.67000000    65.01000000    61.16000000
   C     28.67000000    64.24000000    62.39000000
   C     30.02000000    64.02000000    63.06000000
   O     30.13000000    63.12000000    63.89000000
   C     27.60000000    64.87000000    63.27000000
   C     26.72000000    63.93000000    64.05000000
   C     27.00000000    63.76000000    65.41000000
   C     25.56000000    63.31000000    63.56000000
   C     26.14000000    62.99000000    66.21000000
   C     24.70000000    62.54000000    64.36000000
   C     25.03000000    62.30000000    65.70000000
   O     24.17000000    61.67000000    66.55000000
   H     28.36000000    64.55000000    60.32000000
   H     28.40000000    63.21000000    62.18000000
   H     26.91000000    65.43000000    62.63000000
   H     28.08000000    65.56000000    63.96000000
   H     27.79000000    64.30000000    65.91000000
   H     25.30000000    63.53000000    62.54000000
   H     26.33000000    62.88000000    67.27000000
   H     23.78000000    62.18000000    63.92000000
   H     23.37000000    61.45000000    66.06000000
   N     31.15000000    64.54000000    62.57000000
   C     32.56000000    64.27000000    62.79000000
   C     33.06000000    62.89000000    62.42000000
   O     34.13000000    62.68000000    61.84000000
   C     33.06000000    64.78000000    64.14000000
   C     32.54000000    66.19000000    64.45000000
   C     34.58000000    64.81000000    64.25000000
   C     33.13000000    67.30000000    63.59000000
   H     30.98000000    65.38000000    62.05000000
   H     33.11000000    64.84000000    62.04000000
   H     32.71000000    64.07000000    64.89000000
   H     32.67000000    66.40000000    65.52000000
   H     31.46000000    66.24000000    64.37000000
   H     34.98000000    63.80000000    64.29000000
   H     34.96000000    65.25000000    63.33000000
   H     34.98000000    65.38000000    65.09000000
   H     32.93000000    67.20000000    62.53000000
   H     32.57000000    68.16000000    63.97000000
   H     34.20000000    67.40000000    63.79000000
   N     32.40000000    61.82000000    62.87000000
   C     32.73000000    60.42000000    62.71000000
   C     34.09000000    59.98000000    63.23000000
   O     34.85000000    59.41000000    62.46000000
   C     31.63000000    59.51000000    63.24000000
   O     31.41000000    59.83000000    64.60000000
   H     31.55000000    62.02000000    63.38000000
   H     32.73000000    60.32000000    61.63000000
   H     31.98000000    58.48000000    63.17000000
   H     30.67000000    59.75000000    62.77000000
   H     30.88000000    59.17000000    65.04000000
   N     34.37000000    60.40000000    64.47000000
   C     35.61000000    60.27000000    65.21000000
   C     36.90000000    60.55000000    64.44000000
   O     37.91000000    59.90000000    64.68000000
   C     35.59000000    59.03000000    66.09000000
   H     33.55000000    60.83000000    64.88000000
   H     35.57000000    61.02000000    66.00000000
   H     36.50000000    58.89000000    66.67000000
   H     34.72000000    59.16000000    66.74000000
   H     35.44000000    58.11000000    65.51000000
   N     36.82000000    61.46000000    63.47000000
   C     37.94000000    61.75000000    62.60000000
   C     38.93000000    62.65000000    63.32000000
   O     38.60000000    63.55000000    64.09000000
   C     37.39000000    62.40000000    61.33000000
   H     35.89000000    61.83000000    63.32000000
   H     38.41000000    60.80000000    62.33000000
   H     36.99000000    63.36000000    61.63000000
   H     38.15000000    62.48000000    60.55000000
   H     36.64000000    61.78000000    60.83000000
   N     40.23000000    62.51000000    63.03000000
   C     41.43000000    63.25000000    63.33000000
   C     41.52000000    63.59000000    64.81000000
   O     42.03000000    64.68000000    65.05000000
   C     41.57000000    64.44000000    62.38000000
   C     41.71000000    64.03000000    60.92000000
   C     42.16000000    65.17000000    60.02000000
   O     43.40000000    65.37000000    59.95000000
   O     41.30000000    66.00000000    59.67000000
   H     40.33000000    61.83000000    62.29000000
   H     42.28000000    62.60000000    63.12000000
   H     42.50000000    64.97000000    62.58000000
   H     40.72000000    65.11000000    62.52000000
   H     40.71000000    63.76000000    60.57000000
   H     42.45000000    63.24000000    60.79000000
   N     41.03000000    62.77000000    65.74000000
   C     40.96000000    63.22000000    67.12000000
   H     39.95100000    63.57300000    67.33600000
   H     41.20500000    62.39200000    67.78600000
   H     41.66900000    64.03300000    67.27400000
   H     40.50000000    62.00000000    65.37000000
  Ca     41.00000000    67.35000000    57.35000000
   O     41.72000000    65.59000000    55.43000000
   H     42.57000000    65.15000000    55.31000000
   H     41.15000000    65.18000000    54.79000000

Ca 1.70



