%chk=Ng-295_loop3_10.0.chk
%nprocshared=48
%mem=10GB
%nosave
#b3lyp/svp scf=(tight,noincore) Test 
#IOP(5/87=12) Density=Current Pop=(MK,readradii) iop(6/33=2) iop(6/42=6)

Ng-295_loop3_10.0 

   0   1
   C      6.42600000    73.17400000    66.96000000
   C      5.78600000    72.31400000    65.88000000
   O      5.37600000    72.77400000    64.82000000
   H      7.33300000    73.63400000    66.56700000
   H      5.72800000    73.95300000    67.26700000
   H      6.67700000    72.55200000    67.81900000
   N      5.75600000    71.00400000    66.13000000
   C      5.29600000    69.98400000    65.21000000
   C      4.77600000    68.80400000    66.02000000
   O      5.53600000    68.14400000    66.73000000
   C      6.35600000    69.44400000    64.25000000
   C      5.91600000    68.79400000    62.95000000
   O      5.19600000    69.39400000    62.12000000
   O      6.35600000    67.65400000    62.67000000
   H      6.19600000    70.81400000    67.02000000
   H      4.46600000    70.45400000    64.69000000
   H      6.91600000    68.71400000    64.83000000
   H      7.10600000    70.18400000    63.97000000
   N      3.50600000    68.44400000    65.80000000
   C      2.63600000    67.74400000    66.72000000
   C      1.88600000    66.54400000    66.16000000
   O      1.33600000    65.77400000    66.94000000
   C      1.72600000    68.78400000    67.38000000
   C      2.33600000    69.95400000    68.13000000
   C      1.29600000    71.04400000    68.40000000
   C      1.83600000    72.27400000    69.14000000
   N      2.07600000    71.88400000    70.54000000
   H      3.04600000    68.89400000    65.03000000
   H      3.20600000    67.28400000    67.52000000
   H      1.18600000    68.18400000    68.12000000
   H      1.10600000    69.20400000    66.59000000
   H      3.18600000    70.31400000    67.54000000
   H      2.74600000    69.56400000    69.06000000
   H      0.48600000    70.62400000    68.99000000
   H      0.81600000    71.39400000    67.49000000
   H      1.06600000    73.03400000    69.18000000
   H      2.70600000    72.73400000    68.69000000
   H      1.94600000    72.68400000    71.15000000
   H      1.45600000    71.15400000    70.86000000
   H      3.03600000    71.59400000    70.62000000
   N      1.88600000    66.23400000    64.86000000
   C      1.25600000    65.08400000    64.24000000
   C      1.98600000    63.75400000    64.43000000
   O      1.45600000    62.74400000    63.98000000
   C      1.11600000    65.25400000    62.73000000
   C      2.32600000    65.66400000    61.90000000
   O      3.44600000    65.86400000    62.40000000
   O      2.23600000    66.00400000    60.70000000
   H      2.47600000    66.73400000    64.21000000
   H      0.24600000    65.03400000    64.65000000
   H      0.34600000    66.02400000    62.63000000
   H      0.68600000    64.35400000    62.30000000
   N      3.21600000    63.77400000    64.95000000
   C      4.16600000    62.68400000    65.01000000
   C      4.71600000    62.20400000    63.67000000
   O      4.73600000    60.99400000    63.41000000
   H      3.54600000    64.69400000    65.21000000
   H      3.57600000    61.87400000    65.45000000
   H      4.90600000    62.93400000    65.77000000
   N      4.92600000    63.09400000    62.71000000
   C      5.50600000    62.72400000    61.43000000
   C      6.32600000    63.88400000    60.90000000
   O      5.97600000    65.04400000    61.15000000
   C      4.40600000    62.35400000    60.44000000
   C      5.03600000    61.77400000    59.18000000
   N      4.97600000    62.54400000    58.09000000
   O      5.37600000    60.59400000    59.10000000
   H      4.84600000    64.09400000    62.83000000
   H      6.17600000    61.87400000    61.47000000
   H      3.85600000    63.22400000    60.09000000
   H      3.71600000    61.65400000    60.92000000
   H      4.46600000    63.41400000    58.12000000
   H      5.21600000    62.19400000    57.18000000
   N      7.34600000    63.63400000    60.08000000
   C      8.09600000    64.65400000    59.37000000
   C      8.32600000    64.23400000    57.93000000
   O      8.44600000    65.11400000    57.08000000
   H      7.49600000    62.64400000    59.92000000
   H      9.08600000    64.79400000    59.81000000
   H      7.58600000    65.61400000    59.29000000
   N      8.14600000    62.95400000    57.58000000
   C      8.38600000    62.40400000    56.26000000
   C      7.20600000    62.47400000    55.31000000
   O      6.22600000    61.76400000    55.55000000
   C      8.91600000    60.97400000    56.39000000
   C      9.57600000    60.40400000    55.16000000
   C      8.85600000    59.52400000    54.34000000
   C     10.86600000    60.83400000    54.83000000
   C      9.41600000    59.03400000    53.15000000
   C     11.39600000    60.39400000    53.61000000
   C     10.69600000    59.48400000    52.79000000
   O     11.22600000    59.04400000    51.61000000
   H      8.10600000    62.29400000    58.34000000
   H      9.14600000    63.02400000    55.79000000
   H      8.08600000    60.34400000    56.71000000
   H      9.75600000    60.98400000    57.09000000
   H      7.84600000    59.20400000    54.55000000
   H     11.44600000    61.42400000    55.52000000
   H      8.78600000    58.44400000    52.49000000
   H     12.34600000    60.76400000    53.26000000
   H     12.08600000    59.44400000    51.53000000
   N      7.30600000    63.34400000    54.31000000
   C      6.32600000    63.92400000    53.41000000
   C      5.31600000    62.97400000    52.77000000
   O      4.76600000    62.06400000    53.37000000
   C      5.72600000    65.17400000    54.04000000
   C      6.78600000    66.25400000    53.85000000
   C      5.33600000    64.97400000    55.50000000
   C      6.50600000    67.60400000    54.50000000
   H      8.18600000    63.83400000    54.19000000
   H      6.96600000    64.30400000    52.61000000
   H      4.85600000    65.52400000    53.49000000
   H      6.92600000    66.49400000    52.80000000
   H      7.69600000    65.94400000    54.37000000
   H      6.11600000    64.58400000    56.16000000
   H      4.97600000    65.94400000    55.85000000
   H      4.50600000    64.27400000    55.48000000
   H      5.52600000    68.01400000    54.27000000
   H      6.45600000    67.54400000    55.59000000
   H      7.22600000    68.38400000    54.25000000
   N      4.90600000    63.37400000    51.56000000
   C      3.94600000    62.65400000    50.75000000
   C      4.33600000    62.52400000    49.29000000
   O      3.77600000    61.67400000    48.59000000
   C      2.60600000    63.37400000    50.84000000
   O      2.57600000    64.60400000    50.15000000
   H      5.20600000    64.26400000    51.18000000
   H      3.77600000    61.64400000    51.13000000
   H      2.27600000    63.62400000    51.85000000
   H      1.81600000    62.80400000    50.35000000
   H      1.64600000    64.84400000    50.15000000
   N      5.32600000    63.30400000    48.85000000
   C      5.88600000    63.26400000    47.52000000
   C      4.95600000    62.81400000    46.41000000
   O      5.16600000    61.68400000    45.97000000
   C      7.27600000    62.63400000    47.59000000
   H      5.83600000    63.84400000    49.53000000
   H      6.05600000    64.31400000    47.27000000
   H      7.68600000    62.63400000    46.58000000
   H      7.74600000    63.32400000    48.30000000
   H      7.16600000    61.65400000    48.06000000
   N      3.88600000    63.49400000    45.99000000
   C      3.49600000    64.82400000    46.43000000
   C      3.98600000    65.83400000    45.40000000
   O      3.78600000    65.70400000    44.19000000
   C      1.98600000    64.79400000    46.63000000
   H      3.32600000    63.11400000    45.25000000
   H      3.90600000    64.98400000    47.42000000
   H      1.46600000    64.27400000    45.82000000
   H      1.76600000    64.27400000    47.57000000
   H      1.57600000    65.79400000    46.78000000
   N      4.35600000    67.04400000    45.83000000
   C      4.29600000    67.72400000    47.10000000
   C      5.65600000    68.27400000    47.48000000
   O      6.01600000    68.44400000    48.64000000
   C      3.14600000    68.73400000    47.08000000
   C      2.75600000    69.07400000    48.51000000
   C      1.32600000    69.56400000    48.70000000
   O      0.91600000    70.27400000    47.75000000
   O      0.62600000    69.28400000    49.70000000
   H      4.57600000    67.68400000    45.08000000
   H      3.98600000    66.99400000    47.86000000
   H      2.25600000    68.27400000    46.65000000
   H      3.43600000    69.62400000    46.52000000
   H      3.35600000    69.94400000    48.78000000
   H      2.94600000    68.27400000    49.23000000
   N      6.51600000    68.60400000    46.51000000
   C      7.82600000    69.19400000    46.73000000
   H      8.52700000    68.80700000    45.99100000
   H      7.75800000    70.27800000    46.63300000
   H      8.17600000    68.94000000    47.73000000
   H      6.20600000    68.63400000    45.55000000
  Ca      4.53000000    67.48000000    60.52000000
   O      2.41000000    68.96000000    60.59000000
   H      1.93000000    69.72000000    60.27000000
   H      2.05000000    68.80000000    61.46000000

Ca 1.70



