%chk=Ng-293_loop3_41.0.chk
%nprocshared=48
%mem=10GB
%nosave
#b3lyp/svp scf=(tight,noincore) Test 
#IOP(5/87=12) Density=Current Pop=(MK,readradii) iop(6/33=2) iop(6/42=6)

Ng-293_loop3_41.0 

   0   1
   C     65.59000000    28.47000000    19.71000000
   C     66.63000000    29.39000000    19.10000000
   O     66.38000000    30.59000000    19.05000000
   H     64.67400000    28.51600000    19.12000000
   H     65.96700000    27.44700000    19.71500000
   H     65.38000000    28.78600000    20.73200000
   N     67.69000000    28.80000000    18.54000000
   C     68.76000000    29.44000000    17.81000000
   C     68.37000000    30.33000000    16.63000000
   O     68.88000000    31.41000000    16.35000000
   C     69.68000000    30.17000000    18.79000000
   C     71.05000000    30.63000000    18.32000000
   O     71.75000000    31.31000000    19.10000000
   O     71.53000000    30.22000000    17.24000000
   H     67.68000000    27.79000000    18.55000000
   H     69.34000000    28.65000000    17.34000000
   H     69.93000000    29.51000000    19.62000000
   H     69.17000000    30.99000000    19.29000000
   N     67.40000000    29.85000000    15.85000000
   C     66.98000000    30.41000000    14.58000000
   C     66.43000000    31.82000000    14.70000000
   O     66.62000000    32.59000000    13.75000000
   C     65.96000000    29.43000000    14.00000000
   C     66.51000000    28.10000000    13.52000000
   C     65.52000000    27.09000000    12.94000000
   C     66.05000000    25.69000000    12.62000000
   N     65.12000000    24.80000000    11.90000000
   H     67.00000000    28.95000000    16.08000000
   H     67.88000000    30.47000000    13.97000000
   H     65.58000000    29.98000000    13.13000000
   H     65.15000000    29.17000000    14.68000000
   H     67.00000000    27.61000000    14.36000000
   H     67.34000000    28.21000000    12.82000000
   H     65.01000000    27.50000000    12.07000000
   H     64.69000000    27.05000000    13.64000000
   H     66.36000000    25.31000000    13.59000000
   H     66.92000000    25.66000000    11.97000000
   H     65.11000000    24.98000000    10.91000000
   H     65.38000000    23.82000000    11.93000000
   H     64.20000000    24.86000000    12.32000000
   N     65.84000000    32.26000000    15.81000000
   C     65.30000000    33.58000000    16.05000000
   C     66.27000000    34.50000000    16.78000000
   O     66.83000000    34.27000000    17.85000000
   C     63.92000000    33.43000000    16.69000000
   C     63.22000000    34.77000000    16.86000000
   O     62.38000000    35.00000000    17.75000000
   O     63.48000000    35.67000000    16.04000000
   H     65.77000000    31.67000000    16.64000000
   H     65.07000000    34.13000000    15.13000000
   H     64.02000000    32.95000000    17.66000000
   H     63.35000000    32.78000000    16.01000000
   N     66.55000000    35.68000000    16.23000000
   C     67.25000000    36.83000000    16.77000000
   C     66.31000000    37.93000000    17.24000000
   O     65.30000000    38.22000000    16.62000000
   H     65.98000000    35.90000000    15.42000000
   H     67.87000000    37.38000000    16.06000000
   H     67.83000000    36.51000000    17.64000000
   N     66.70000000    38.45000000    18.41000000
   C     65.91000000    39.33000000    19.26000000
   C     66.75000000    40.54000000    19.64000000
   O     66.19000000    41.59000000    19.95000000
   C     65.35000000    38.52000000    20.42000000
   C     64.61000000    37.25000000    20.02000000
   N     63.83000000    37.15000000    18.95000000
   O     64.68000000    36.34000000    20.85000000
   H     67.62000000    38.15000000    18.70000000
   H     65.01000000    39.67000000    18.75000000
   H     64.56000000    39.02000000    21.00000000
   H     66.20000000    38.18000000    21.01000000
   H     63.65000000    38.05000000    18.51000000
   H     63.33000000    36.31000000    18.70000000
   N     68.06000000    40.39000000    19.82000000
   C     68.95000000    41.41000000    20.35000000
   C     68.84000000    41.65000000    21.85000000
   O     68.86000000    40.76000000    22.70000000
   H     68.46000000    39.47000000    19.77000000
   H     68.81000000    42.35000000    19.82000000
   H     69.97000000    41.06000000    20.20000000
   N     68.73000000    42.95000000    22.15000000
   C     68.21000000    43.41000000    23.43000000
   C     66.86000000    42.87000000    23.87000000
   O     66.56000000    42.78000000    25.06000000
   C     69.29000000    43.50000000    24.50000000
   C     70.59000000    44.18000000    24.15000000
   C     71.73000000    43.38000000    24.21000000
   C     70.65000000    45.54000000    23.82000000
   C     72.97000000    43.97000000    23.92000000
   C     71.88000000    46.12000000    23.47000000
   C     73.05000000    45.33000000    23.55000000
   O     74.27000000    45.88000000    23.31000000
   H     68.95000000    43.68000000    21.48000000
   H     67.91000000    44.44000000    23.25000000
   H     69.46000000    42.50000000    24.92000000
   H     68.79000000    44.03000000    25.32000000
   H     71.69000000    42.37000000    24.60000000
   H     69.81000000    46.21000000    23.89000000
   H     73.88000000    43.42000000    24.09000000
   H     71.93000000    47.15000000    23.16000000
   H     74.43000000    46.75000000    22.92000000
   N     66.05000000    42.42000000    22.91000000
   C     64.66000000    42.02000000    23.07000000
   C     63.69000000    43.17000000    23.29000000
   O     62.75000000    43.38000000    22.52000000
   C     64.54000000    40.72000000    23.85000000
   C     65.72000000    39.76000000    23.73000000
   C     63.18000000    40.13000000    23.51000000
   C     65.29000000    38.31000000    23.93000000
   H     66.35000000    42.76000000    22.00000000
   H     64.47000000    41.81000000    22.02000000
   H     64.54000000    41.00000000    24.91000000
   H     66.52000000    40.04000000    24.41000000
   H     66.04000000    39.91000000    22.70000000
   H     62.97000000    40.03000000    22.44000000
   H     63.00000000    39.25000000    24.12000000
   H     62.45000000    40.82000000    23.95000000
   H     66.21000000    37.82000000    23.61000000
   H     64.98000000    38.19000000    24.97000000
   H     64.60000000    37.98000000    23.15000000
   N     63.89000000    43.93000000    24.37000000
   C     63.25000000    45.21000000    24.58000000
   C     61.72000000    45.22000000    24.55000000
   O     61.15000000    46.23000000    24.13000000
   C     63.68000000    45.79000000    25.93000000
   O     65.08000000    45.92000000    25.90000000
   H     64.77000000    43.73000000    24.82000000
   H     63.55000000    45.94000000    23.83000000
   H     63.41000000    45.13000000    26.76000000
   H     63.18000000    46.75000000    26.09000000
   H     65.36000000    46.19000000    26.78000000
   N     61.12000000    44.09000000    24.93000000
   C     59.70000000    43.85000000    24.81000000
   C     59.09000000    44.08000000    23.43000000
   O     57.91000000    44.42000000    23.29000000
   C     58.96000000    44.54000000    25.96000000
   H     61.59000000    43.32000000    25.38000000
   H     59.61000000    42.77000000    24.97000000
   H     58.94000000    45.60000000    25.71000000
   H     57.95000000    44.14000000    26.04000000
   H     59.44000000    44.44000000    26.93000000
   N     59.91000000    43.79000000    22.42000000
   C     59.46000000    43.73000000    21.04000000
   C     59.47000000    42.33000000    20.45000000
   O     60.12000000    41.38000000    20.88000000
   C     60.51000000    44.56000000    20.31000000
   H     60.84000000    43.54000000    22.71000000
   H     58.45000000    44.15000000    21.00000000
   H     60.56000000    45.59000000    20.65000000
   H     61.45000000    44.03000000    20.43000000
   H     60.25000000    44.55000000    19.25000000
   N     58.61000000    42.25000000    19.43000000
   C     58.39000000    41.14000000    18.53000000
   C     57.91000000    39.84000000    19.17000000
   O     57.79000000    38.83000000    18.48000000
   C     59.67000000    41.01000000    17.70000000
   C     59.35000000    40.34000000    16.37000000
   C     60.46000000    40.76000000    15.42000000
   O     61.19000000    39.89000000    14.90000000
   O     60.59000000    41.98000000    15.15000000
   H     58.15000000    43.14000000    19.30000000
   H     57.48000000    41.39000000    17.98000000
   H     60.37000000    40.39000000    18.26000000
   H     60.09000000    41.99000000    17.52000000
   H     58.41000000    40.70000000    15.96000000
   H     59.38000000    39.25000000    16.42000000
   N     57.63000000    39.84000000    20.47000000
   C     57.24000000    38.73000000    21.32000000
   H     56.23500000    38.40400000    21.05300000
   H     57.93800000    37.90400000    21.18300000
   H     57.25300000    39.04800000    22.36300000
   H     57.70000000    40.74000000    20.92000000
  Ca     62.88000000    38.08000000    15.31000000
   O     62.90000000    39.80000000    17.19000000
   H     62.51000000    39.89000000    18.06000000
   H     62.99000000    40.70000000    16.88000000

Ca 1.70



