%chk=Ng-295_loop3_32.0.chk
%nprocshared=48
%mem=10GB
%nosave
#b3lyp/svp scf=(tight,noincore) Test 
#IOP(5/87=12) Density=Current Pop=(MK,readradii) iop(6/33=2) iop(6/42=6)

Ng-295_loop3_32.0 

   0   1
   C      5.99500000    75.99500000    64.96000000
   C      4.66500000    76.10500000    64.23000000
   O      3.94500000    77.07500000    64.02000000
   H      6.71300000    76.68100000    64.51100000
   H      5.85600000    76.25200000    66.01000000
   H      6.37000000    74.97500000    64.88100000
   N      4.27500000    74.99500000    63.59000000
   C      3.10500000    74.78500000    62.77000000
   C      2.16500000    73.67500000    63.24000000
   O      2.52500000    72.67500000    63.84000000
   C      3.57500000    74.58500000    61.33000000
   C      2.56500000    74.66500000    60.20000000
   O      2.91500000    75.24500000    59.16000000
   O      1.37500000    74.32500000    60.39000000
   H      4.93500000    74.23500000    63.69000000
   H      2.48500000    75.67500000    62.69000000
   H      4.05500000    73.61500000    61.22000000
   H      4.34500000    75.33500000    61.14000000
   N      0.86500000    73.86500000    63.00000000
   C     -0.12500000    72.87500000    63.39000000
   C     -0.44500000    71.84500000    62.31000000
   O     -1.20500000    70.90500000    62.55000000
   C     -1.39500000    73.61500000    63.81000000
   C     -1.34500000    74.10500000    65.25000000
   C     -0.12500000    74.83500000    65.80000000
   C     -0.09500000    75.40500000    67.21000000
   N      0.31500000    74.43500000    68.23000000
   H      0.57500000    74.64500000    62.43000000
   H      0.23500000    72.25500000    64.21000000
   H     -2.17500000    72.84500000    63.76000000
   H     -1.54500000    74.49500000    63.19000000
   H     -1.47500000    73.16500000    65.79000000
   H     -2.22500000    74.72500000    65.45000000
   H      0.04500000    75.70500000    65.17000000
   H      0.71500000    74.15500000    65.65000000
   H     -1.02500000    75.87500000    67.55000000
   H      0.69500000    76.14500000    67.13000000
   H      0.15500000    74.94500000    69.08000000
   H     -0.25500000    73.61500000    68.12000000
   H      1.30500000    74.25500000    68.14000000
   N      0.00500000    71.98500000    61.07000000
   C      0.21500000    70.83500000    60.22000000
   C      1.66500000    70.44500000    59.98000000
   O      1.83500000    69.39500000    59.36000000
   C     -0.56500000    71.08500000    58.93000000
   C     -0.04500000    72.24500000    58.09000000
   O     -0.74500000    73.00500000    57.38000000
   O      1.18500000    72.43500000    58.01000000
   H      0.32500000    72.89500000    60.76000000
   H     -0.25500000    69.96500000    60.69000000
   H     -1.60500000    71.21500000    59.24000000
   H     -0.53500000    70.15500000    58.36000000
   N      2.66500000    71.15500000    60.50000000
   C      4.03500000    70.72500000    60.30000000
   C      4.56500000    70.76500000    58.88000000
   O      5.64500000    70.21500000    58.63000000
   H      2.49500000    72.09500000    60.84000000
   H      4.20500000    69.70500000    60.65000000
   H      4.60500000    71.37500000    60.97000000
   N      3.84500000    71.40500000    57.96000000
   C      4.15500000    71.36500000    56.54000000
   C      4.21500000    72.71500000    55.85000000
   O      3.64500000    73.68500000    56.34000000
   C      3.19500000    70.41500000    55.82000000
   C      3.70500000    69.89500000    54.49000000
   N      2.82500000    69.12500000    53.84000000
   O      4.83500000    70.13500000    54.07000000
   H      2.94500000    71.81500000    58.14000000
   H      5.16500000    70.97500000    56.39000000
   H      2.25500000    70.96500000    55.79000000
   H      3.14500000    69.54500000    56.48000000
   H      2.00500000    68.78500000    54.31000000
   H      3.13500000    68.69500000    52.98000000
   N      5.01500000    72.76500000    54.78000000
   C      5.30500000    73.94500000    54.00000000
   C      5.63500000    73.68500000    52.54000000
   O      6.57500000    74.27500000    52.02000000
   H      5.52500000    71.94500000    54.48000000
   H      6.17500000    74.35500000    54.51000000
   H      4.55500000    74.72500000    54.15000000
   N      4.97500000    72.72500000    51.88000000
   C      5.31500000    72.26500000    50.55000000
   C      4.94500000    73.22500000    49.43000000
   O      3.83500000    73.71500000    49.28000000
   C      4.74500000    70.86500000    50.38000000
   C      4.96500000    70.22500000    49.03000000
   C      3.98500000    70.35500000    48.04000000
   C      6.07500000    69.38500000    48.88000000
   C      4.06500000    69.59500000    46.87000000
   C      6.20500000    68.63500000    47.70000000
   C      5.21500000    68.80500000    46.71000000
   O      5.48500000    68.22500000    45.50000000
   H      4.28500000    72.16500000    52.36000000
   H      6.40500000    72.16500000    50.51000000
   H      3.67500000    70.82500000    50.61000000
   H      5.18500000    70.25500000    51.17000000
   H      3.15500000    71.04500000    48.05000000
   H      6.87500000    69.39500000    49.60000000
   H      3.35500000    69.62500000    46.06000000
   H      7.12500000    68.15500000    47.40000000
   H      6.32500000    67.75500000    45.52000000
   N      5.95500000    73.60500000    48.64000000
   C      6.06500000    74.51500000    47.51000000
   C      5.02500000    74.48500000    46.40000000
   O      3.81500000    74.38500000    46.59000000
   C      6.51500000    75.92500000    47.88000000
   C      7.80500000    76.05500000    48.70000000
   C      5.42500000    76.64500000    48.66000000
   C      9.06500000    75.36500000    48.19000000
   H      6.81500000    73.08500000    48.76000000
   H      7.00500000    74.09500000    47.16000000
   H      6.74500000    76.48500000    46.97000000
   H      7.56500000    75.66500000    49.69000000
   H      7.89500000    77.13500000    48.78000000
   H      5.28500000    76.18500000    49.64000000
   H      5.63500000    77.71500000    48.66000000
   H      4.51500000    76.56500000    48.07000000
   H      9.85500000    75.58500000    48.91000000
   H      8.84500000    74.29500000    48.16000000
   H      9.29500000    75.61500000    47.15000000
   N      5.44500000    74.78500000    45.17000000
   C      4.62500000    75.25500000    44.07000000
   C      5.02500000    74.92500000    42.65000000
   O      4.18500000    74.71500000    41.78000000
   C      4.46500000    76.77500000    44.06000000
   O      5.71500000    77.42500000    43.98000000
   H      6.44500000    74.68500000    45.09000000
   H      3.58500000    74.93500000    44.21000000
   H      3.93500000    76.93500000    45.00000000
   H      3.90500000    77.14500000    43.20000000
   H      5.50500000    78.35500000    43.88000000
   N      6.34500000    74.83500000    42.44000000
   C      7.03500000    74.49500000    41.21000000
   C      6.54500000    75.12500000    39.92000000
   O      6.28500000    74.50500000    38.89000000
   C      7.06500000    72.97500000    41.06000000
   H      6.90500000    75.12500000    43.23000000
   H      8.07500000    74.81500000    41.29000000
   H      6.05500000    72.61500000    41.28000000
   H      7.39500000    72.74500000    40.04000000
   H      7.77500000    72.65500000    41.82000000
   N      6.56500000    76.45500000    39.83000000
   C      7.13500000    77.45500000    40.71000000
   C      8.34500000    78.19500000    40.15000000
   O      8.54500000    78.24500000    38.93000000
   C      6.01500000    78.47500000    40.90000000
   H      6.02500000    76.72500000    39.02000000
   H      7.26500000    77.02500000    41.70000000
   H      5.09500000    78.15500000    41.38000000
   H      6.26500000    79.37500000    41.47000000
   H      5.79500000    78.98500000    39.96000000
   N      9.16500000    78.85500000    40.96000000
   C      9.32500000    78.82500000    42.40000000
   C     10.44500000    77.92500000    42.91000000
   O     10.06500000    77.04500000    43.68000000
   C      9.56500000    80.21500000    42.98000000
   C      9.19500000    80.32500000    44.46000000
   C      9.34500000    81.74500000    45.00000000
   O      8.30500000    82.41500000    45.11000000
   O     10.47500000    82.16500000    45.32000000
   H      9.87500000    79.38500000    40.47000000
   H      8.39500000    78.39500000    42.77000000
   H      8.92500000    80.92500000    42.45000000
   H     10.60500000    80.47500000    42.77000000
   H      9.84500000    79.66500000    45.04000000
   H      8.17500000    79.98500000    44.63000000
   N     11.67500000    77.97500000    42.40000000
   C     12.76500000    77.19500000    42.95000000
   H     13.60500000    77.85300000    43.17300000
   H     12.43500000    76.70400000    43.86600000
   H     13.07600000    76.44200000    42.22500000
   H     11.96500000    78.78500000    41.87000000
  Ca      1.28000000    74.93000000    57.07000000
   O      0.14000000    76.07000000    59.00000000
   H      0.38000000    75.51000000    59.74000000
   H     -0.39000000    76.76000000    59.39000000

Ca 1.70



