%chk=Ng-293_loop3_31.0.chk
%nprocshared=48
%mem=10GB
%nosave
#b3lyp/svp scf=(tight,noincore) Test 
#IOP(5/87=12) Density=Current Pop=(MK,readradii) iop(6/33=2) iop(6/42=6)

Ng-293_loop3_31.0 

   0   1
   C     59.31000000    17.72000000     7.60000000
   C     59.16000000    18.73000000     6.47000000
   O     58.97000000    18.34000000     5.32000000
   H     60.00100000    18.11100000     8.34700000
   H     58.33900000    17.54400000     8.06200000
   H     59.69900000    16.78300000     7.20100000
   N     59.31000000    20.00000000     6.85000000
   C     59.29000000    21.15000000     5.97000000
   C     57.86000000    21.50000000     5.58000000
   O     56.99000000    21.60000000     6.44000000
   C     60.01000000    22.36000000     6.56000000
   C     59.70000000    22.70000000     8.01000000
   O     59.93000000    23.86000000     8.41000000
   O     59.19000000    21.90000000     8.83000000
   H     59.25000000    20.21000000     7.83000000
   H     59.89000000    20.83000000     5.12000000
   H     59.88000000    23.21000000     5.90000000
   H     61.06000000    22.10000000     6.50000000
   N     57.67000000    21.77000000     4.29000000
   C     56.44000000    21.98000000     3.56000000
   C     55.82000000    23.35000000     3.80000000
   O     55.46000000    23.98000000     2.81000000
   C     55.54000000    20.76000000     3.71000000
   C     56.07000000    19.33000000     3.65000000
   C     56.82000000    19.00000000     2.36000000
   C     56.57000000    17.52000000     2.09000000
   N     57.27000000    17.16000000     0.85000000
   H     58.50000000    21.70000000     3.71000000
   H     56.86000000    21.93000000     2.56000000
   H     54.60000000    20.80000000     3.15000000
   H     55.09000000    20.85000000     4.70000000
   H     55.15000000    18.74000000     3.61000000
   H     56.71000000    19.15000000     4.51000000
   H     57.86000000    19.17000000     2.63000000
   H     56.39000000    19.57000000     1.54000000
   H     55.48000000    17.46000000     2.02000000
   H     57.02000000    17.01000000     2.94000000
   H     58.26000000    16.98000000     0.94000000
   H     56.93000000    16.30000000     0.45000000
   H     57.12000000    17.77000000     0.06000000
   N     55.62000000    23.76000000     5.06000000
   C     55.01000000    25.01000000     5.46000000
   C     55.63000000    25.46000000     6.77000000
   O     55.91000000    24.68000000     7.67000000
   C     53.54000000    24.70000000     5.69000000
   C     52.70000000    25.93000000     6.00000000
   O     52.98000000    26.99000000     5.40000000
   O     51.83000000    25.85000000     6.89000000
   H     56.15000000    23.22000000     5.74000000
   H     55.18000000    25.76000000     4.69000000
   H     53.50000000    24.07000000     6.58000000
   H     53.12000000    24.21000000     4.81000000
   N     55.83000000    26.78000000     6.83000000
   C     56.49000000    27.42000000     7.95000000
   C     55.75000000    27.77000000     9.24000000
   O     54.55000000    27.99000000     9.26000000
   H     55.45000000    27.39000000     6.12000000
   H     57.03000000    28.30000000     7.59000000
   H     57.24000000    26.68000000     8.21000000
   N     56.46000000    27.89000000    10.37000000
   C     56.03000000    28.10000000    11.74000000
   C     56.49000000    29.35000000    12.48000000
   O     55.71000000    29.86000000    13.29000000
   C     56.04000000    26.82000000    12.57000000
   C     55.67000000    25.57000000    11.79000000
   N     56.61000000    24.94000000    11.09000000
   O     54.53000000    25.10000000    11.86000000
   H     57.44000000    27.71000000    10.22000000
   H     54.97000000    28.34000000    11.70000000
   H     55.33000000    27.02000000    13.37000000
   H     57.03000000    26.62000000    12.97000000
   H     57.57000000    25.25000000    11.10000000
   H     56.41000000    24.02000000    10.72000000
   N     57.67000000    29.92000000    12.24000000
   C     58.16000000    31.05000000    12.99000000
   C     58.30000000    30.71000000    14.47000000
   O     58.78000000    29.64000000    14.81000000
   H     58.32000000    29.60000000    11.53000000
   H     57.45000000    31.86000000    12.84000000
   H     59.14000000    31.41000000    12.68000000
   N     57.78000000    31.59000000    15.33000000
   C     57.75000000    31.39000000    16.77000000
   C     57.14000000    30.06000000    17.19000000
   O     57.31000000    29.63000000    18.33000000
   C     59.14000000    31.51000000    17.39000000
   C     60.04000000    32.63000000    16.92000000
   C     61.06000000    32.36000000    15.99000000
   C     59.83000000    33.92000000    17.42000000
   C     61.88000000    33.40000000    15.55000000
   C     60.76000000    34.93000000    17.12000000
   C     61.81000000    34.64000000    16.23000000
   O     62.67000000    35.64000000    15.91000000
   H     57.30000000    32.42000000    15.02000000
   H     57.28000000    32.22000000    17.29000000
   H     59.67000000    30.57000000    17.24000000
   H     59.04000000    31.70000000    18.46000000
   H     61.17000000    31.37000000    15.58000000
   H     59.06000000    34.04000000    18.17000000
   H     62.67000000    33.26000000    14.83000000
   H     60.58000000    35.87000000    17.62000000
   H     62.44000000    36.39000000    16.46000000
   N     56.23000000    29.52000000    16.36000000
   C     55.27000000    28.48000000    16.64000000
   C     54.13000000    28.76000000    17.60000000
   O     52.98000000    28.39000000    17.40000000
   C     55.85000000    27.14000000    17.09000000
   C     57.21000000    26.82000000    16.47000000
   C     54.88000000    25.96000000    17.11000000
   C     57.79000000    25.43000000    16.70000000
   H     56.16000000    29.93000000    15.44000000
   H     54.75000000    28.21000000    15.72000000
   H     56.06000000    27.25000000    18.16000000
   H     57.98000000    27.47000000    16.88000000
   H     57.20000000    26.89000000    15.39000000
   H     55.32000000    25.03000000    17.48000000
   H     54.14000000    26.04000000    17.90000000
   H     54.44000000    25.73000000    16.14000000
   H     57.19000000    24.65000000    16.23000000
   H     58.73000000    25.28000000    16.17000000
   H     57.99000000    25.31000000    17.77000000
   N     54.44000000    29.49000000    18.68000000
   C     53.40000000    30.03000000    19.53000000
   C     52.45000000    29.01000000    20.16000000
   O     51.29000000    29.31000000    20.47000000
   C     53.78000000    31.14000000    20.50000000
   O     54.78000000    32.00000000    20.00000000
   H     55.39000000    29.75000000    18.91000000
   H     52.76000000    30.55000000    18.83000000
   H     54.25000000    30.72000000    21.39000000
   H     52.88000000    31.68000000    20.80000000
   H     54.49000000    32.11000000    19.09000000
   N     52.97000000    27.82000000    20.46000000
   C     52.29000000    26.61000000    20.88000000
   C     50.97000000    26.37000000    20.17000000
   O     49.94000000    26.42000000    20.85000000
   C     52.27000000    26.47000000    22.40000000
   H     53.96000000    27.74000000    20.32000000
   H     52.94000000    25.78000000    20.58000000
   H     51.67000000    25.65000000    22.80000000
   H     53.29000000    26.28000000    22.72000000
   H     51.85000000    27.35000000    22.88000000
   N     50.92000000    26.28000000    18.83000000
   C     49.73000000    26.07000000    18.03000000
   C     49.99000000    25.20000000    16.81000000
   O     51.12000000    25.03000000    16.38000000
   C     49.12000000    27.35000000    17.48000000
   H     51.69000000    26.51000000    18.22000000
   H     49.02000000    25.58000000    18.70000000
   H     49.83000000    27.91000000    16.88000000
   H     48.23000000    27.18000000    16.88000000
   H     48.79000000    27.95000000    18.33000000
   N     48.93000000    24.65000000    16.21000000
   C     48.97000000    23.55000000    15.27000000
   C     49.49000000    22.23000000    15.80000000
   O     50.39000000    21.62000000    15.24000000
   C     49.62000000    23.91000000    13.93000000
   C     48.81000000    25.06000000    13.33000000
   C     49.35000000    25.25000000    11.92000000
   O     50.27000000    26.08000000    11.74000000
   O     49.07000000    24.47000000    10.99000000
   H     48.04000000    24.90000000    16.61000000
   H     47.90000000    23.41000000    15.10000000
   H     49.65000000    23.05000000    13.27000000
   H     50.67000000    24.18000000    14.08000000
   H     48.83000000    25.97000000    13.93000000
   H     47.77000000    24.76000000    13.22000000
   N     48.92000000    21.80000000    16.93000000
   C     49.54000000    20.84000000    17.82000000
   H     50.45800000    21.26300000    18.22700000
   H     48.85600000    20.60500000    18.63500000
   H     49.77400000    19.93000000    17.26800000
   H     48.10000000    22.28000000    17.28000000
  Ca     50.83000000    25.33000000     9.28000000
   O     51.72000000    27.81000000     9.36000000
   H     52.53000000    28.04000000     8.91000000
   H     51.27000000    28.64000000     9.49000000

Ca 1.70



