%chk=Ng-293_loop3_16.0.chk
%nprocshared=48
%mem=10GB
%nosave
#b3lyp/svp scf=(tight,noincore) Test 
#IOP(5/87=12) Density=Current Pop=(MK,readradii) iop(6/33=2) iop(6/42=6)

Ng-293_loop3_16.0 

   0   1
   C     49.64000000    24.01000000     5.56000000
   C     49.07000000    25.38000000     5.20000000
   O     48.50000000    25.57000000     4.13000000
   H     50.58400000    24.13800000     6.08900000
   H     48.93500000    23.47900000     6.20000000
   H     49.80900000    23.43500000     4.64900000
   N     49.19000000    26.31000000     6.15000000
   C     48.47000000    27.56000000     6.04000000
   C     47.00000000    27.37000000     6.38000000
   O     46.73000000    26.82000000     7.45000000
   C     49.16000000    28.62000000     6.90000000
   C     49.41000000    28.24000000     8.35000000
   O     49.88000000    29.07000000     9.14000000
   O     49.14000000    27.08000000     8.73000000
   H     49.64000000    26.08000000     7.03000000
   H     48.51000000    27.96000000     5.03000000
   H     48.61000000    29.55000000     6.76000000
   H     50.16000000    28.81000000     6.51000000
   N     46.03000000    27.87000000     5.61000000
   C     44.61000000    27.60000000     5.68000000
   C     43.81000000    27.95000000     6.93000000
   O     42.58000000    27.89000000     6.87000000
   C     44.22000000    26.26000000     5.05000000
   C     44.83000000    25.98000000     3.67000000
   C     44.28000000    24.68000000     3.11000000
   C     45.37000000    24.10000000     2.21000000
   N     44.97000000    23.11000000     1.19000000
   H     46.30000000    28.22000000     4.71000000
   H     44.16000000    28.23000000     4.92000000
   H     43.13000000    26.23000000     5.00000000
   H     44.63000000    25.44000000     5.63000000
   H     45.87000000    25.73000000     3.88000000
   H     44.62000000    26.82000000     3.01000000
   H     43.34000000    24.92000000     2.61000000
   H     44.03000000    23.96000000     3.89000000
   H     46.17000000    23.76000000     2.86000000
   H     45.80000000    24.96000000     1.70000000
   H     45.78000000    22.87000000     0.65000000
   H     44.55000000    22.27000000     1.56000000
   H     44.23000000    23.51000000     0.64000000
   N     44.39000000    28.32000000     8.07000000
   C     43.79000000    28.84000000     9.29000000
   C     44.75000000    29.81000000     9.95000000
   O     45.88000000    29.92000000     9.48000000
   C     43.59000000    27.63000000    10.20000000
   C     42.55000000    27.89000000    11.28000000
   O     41.96000000    28.99000000    11.40000000
   O     42.16000000    27.00000000    12.07000000
   H     45.39000000    28.39000000     7.98000000
   H     42.86000000    29.36000000     9.03000000
   H     44.53000000    27.29000000    10.63000000
   H     43.17000000    26.82000000     9.61000000
   N     44.34000000    30.59000000    10.95000000
   C     45.03000000    31.59000000    11.75000000
   C     45.75000000    31.08000000    12.99000000
   O     45.25000000    30.19000000    13.68000000
   H     43.40000000    30.46000000    11.28000000
   H     44.37000000    32.40000000    12.06000000
   H     45.71000000    32.14000000    11.10000000
   N     46.96000000    31.54000000    13.31000000
   C     47.91000000    31.10000000    14.31000000
   C     48.69000000    32.20000000    15.01000000
   O     48.82000000    32.22000000    16.24000000
   C     48.86000000    30.09000000    13.66000000
   C     48.13000000    28.84000000    13.19000000
   N     48.06000000    28.57000000    11.89000000
   O     47.55000000    28.11000000    13.99000000
   H     47.08000000    32.40000000    12.79000000
   H     47.36000000    30.73000000    15.17000000
   H     49.52000000    29.75000000    14.45000000
   H     49.40000000    30.50000000    12.81000000
   H     48.38000000    29.25000000    11.22000000
   H     47.66000000    27.74000000    11.47000000
   N     49.18000000    33.16000000    14.23000000
   C     50.12000000    34.17000000    14.69000000
   C     51.32000000    33.47000000    15.29000000
   O     51.76000000    32.45000000    14.77000000
   H     48.96000000    33.20000000    13.25000000
   H     49.51000000    34.77000000    15.37000000
   H     50.42000000    34.86000000    13.90000000
   N     51.72000000    33.85000000    16.51000000
   C     52.70000000    33.27000000    17.41000000
   C     52.28000000    31.94000000    18.02000000
   O     52.84000000    31.52000000    19.04000000
   C     54.11000000    33.16000000    16.81000000
   C     54.74000000    34.44000000    16.32000000
   C     54.49000000    34.91000000    15.03000000
   C     55.48000000    35.20000000    17.24000000
   C     54.98000000    36.19000000    14.74000000
   C     56.06000000    36.42000000    16.89000000
   C     55.83000000    36.92000000    15.59000000
   O     56.37000000    38.09000000    15.15000000
   H     51.32000000    34.74000000    16.74000000
   H     52.79000000    34.00000000    18.21000000
   H     54.15000000    32.39000000    16.04000000
   H     54.69000000    32.76000000    17.64000000
   H     53.96000000    34.33000000    14.29000000
   H     55.57000000    34.80000000    18.24000000
   H     54.80000000    36.65000000    13.77000000
   H     56.70000000    36.91000000    17.60000000
   H     56.81000000    38.61000000    15.83000000
   N     51.23000000    31.30000000    17.51000000
   C     50.64000000    30.08000000    18.02000000
   C     49.84000000    30.41000000    19.27000000
   O     48.64000000    30.16000000    19.38000000
   C     51.53000000    28.84000000    18.09000000
   C     52.19000000    28.47000000    16.77000000
   C     50.70000000    27.63000000    18.50000000
   C     53.61000000    27.91000000    16.77000000
   H     50.68000000    31.81000000    16.84000000
   H     49.87000000    29.80000000    17.30000000
   H     52.36000000    28.99000000    18.79000000
   H     52.19000000    29.36000000    16.14000000
   H     51.46000000    27.85000000    16.24000000
   H     51.39000000    26.84000000    18.80000000
   H     50.08000000    27.88000000    19.35000000
   H     50.08000000    27.24000000    17.69000000
   H     54.02000000    27.82000000    15.76000000
   H     54.16000000    28.64000000    17.36000000
   H     53.57000000    26.97000000    17.31000000
   N     50.53000000    30.79000000    20.34000000
   C     49.92000000    31.20000000    21.59000000
   C     49.48000000    30.10000000    22.55000000
   O     48.70000000    30.38000000    23.46000000
   C     50.80000000    32.23000000    22.28000000
   O     51.36000000    33.20000000    21.42000000
   H     51.52000000    30.83000000    20.20000000
   H     49.00000000    31.74000000    21.35000000
   H     51.69000000    31.71000000    22.63000000
   H     50.33000000    32.70000000    23.15000000
   H     50.72000000    33.39000000    20.73000000
   N     49.73000000    28.80000000    22.34000000
   C     49.01000000    27.68000000    22.90000000
   C     47.51000000    27.70000000    22.62000000
   O     46.65000000    27.14000000    23.29000000
   C     49.37000000    27.49000000    24.37000000
   H     50.40000000    28.58000000    21.62000000
   H     49.33000000    26.82000000    22.32000000
   H     48.82000000    26.64000000    24.77000000
   H     50.44000000    27.30000000    24.46000000
   H     49.06000000    28.38000000    24.92000000
   N     47.17000000    28.31000000    21.48000000
   C     45.78000000    28.49000000    21.09000000
   C     45.33000000    27.35000000    20.19000000
   O     46.20000000    26.76000000    19.55000000
   C     45.56000000    29.85000000    20.44000000
   H     47.89000000    28.87000000    21.05000000
   H     45.22000000    28.47000000    22.03000000
   H     44.52000000    30.00000000    20.16000000
   H     45.85000000    30.64000000    21.14000000
   H     46.05000000    29.92000000    19.47000000
   N     44.03000000    27.07000000    20.13000000
   C     43.34000000    26.08000000    19.32000000
   C     43.58000000    24.59000000    19.52000000
   O     43.89000000    23.83000000    18.61000000
   C     43.22000000    26.42000000    17.83000000
   C     42.97000000    27.92000000    17.72000000
   C     42.34000000    28.21000000    16.37000000
   O     42.93000000    28.15000000    15.27000000
   O     41.15000000    28.60000000    16.27000000
   H     43.47000000    27.60000000    20.78000000
   H     42.34000000    26.26000000    19.71000000
   H     42.35000000    25.85000000    17.49000000
   H     44.09000000    26.12000000    17.25000000
   H     43.92000000    28.46000000    17.70000000
   H     42.32000000    28.33000000    18.49000000
   N     43.63000000    24.21000000    20.79000000
   C     44.12000000    22.92000000    21.22000000
   H     45.05700000    23.05000000    21.76100000
   H     43.38500000    22.45100000    21.87400000
   H     44.28900000    22.28600000    20.34900000
   H     43.34000000    24.97000000    21.40000000
  Ca     40.75000000    28.35000000    13.72000000
   O     41.96000000    30.64000000    13.77000000
   H     41.79000000    31.56000000    13.94000000
   H     42.90000000    30.54000000    13.92000000

Ca 1.70



