%chk=Ng-293_loop3_55.0.chk
%nprocshared=48
%mem=10GB
%nosave
#b3lyp/svp scf=(tight,noincore) Test 
#IOP(5/87=12) Density=Current Pop=(MK,readradii) iop(6/33=2) iop(6/42=6)

Ng-293_loop3_55.0 

   0   1
   C     51.36000000    25.83000000    10.20000000
   C     51.03000000    26.96000000     9.23000000
   O     51.75000000    27.94000000     9.15000000
   H     52.22500000    26.10900000    10.80200000
   H     50.50600000    25.65000000    10.85300000
   H     51.58600000    24.92300000     9.63900000
   N     49.91000000    26.88000000     8.49000000
   C     49.13000000    27.92000000     7.85000000
   C     48.52000000    28.98000000     8.75000000
   O     49.17000000    29.42000000     9.69000000
   C     49.90000000    28.63000000     6.74000000
   C     50.91000000    27.73000000     6.05000000
   O     50.55000000    26.60000000     5.64000000
   O     52.01000000    28.21000000     5.70000000
   H     49.43000000    26.00000000     8.57000000
   H     48.34000000    27.33000000     7.38000000
   H     50.32000000    29.54000000     7.19000000
   H     49.20000000    28.95000000     5.96000000
   N     47.31000000    29.47000000     8.47000000
   C     46.74000000    30.73000000     8.91000000
   C     47.48000000    32.04000000     8.71000000
   O     48.51000000    32.06000000     8.04000000
   C     46.23000000    30.62000000    10.34000000
   C     45.25000000    29.47000000    10.50000000
   C     44.56000000    29.22000000    11.84000000
   C     43.60000000    28.04000000    11.72000000
   N     43.31000000    27.46000000    13.04000000
   H     46.72000000    28.83000000     7.95000000
   H     45.85000000    30.73000000     8.28000000
   H     45.79000000    31.57000000    10.67000000
   H     47.02000000    30.40000000    11.06000000
   H     45.72000000    28.52000000    10.23000000
   H     44.55000000    29.70000000     9.70000000
   H     44.01000000    30.09000000    12.19000000
   H     45.44000000    29.09000000    12.46000000
   H     43.92000000    27.34000000    10.95000000
   H     42.65000000    28.37000000    11.29000000
   H     43.30000000    28.16000000    13.77000000
   H     42.44000000    26.95000000    13.14000000
   H     44.11000000    26.85000000    13.15000000
   N     46.95000000    33.18000000     9.16000000
   C     47.45000000    34.53000000     8.98000000
   C     48.85000000    34.69000000     9.57000000
   O     49.14000000    34.27000000    10.69000000
   C     46.48000000    35.48000000     9.66000000
   C     46.93000000    36.93000000     9.55000000
   O     47.21000000    37.58000000    10.59000000
   O     47.22000000    37.50000000     8.48000000
   H     46.03000000    33.08000000     9.55000000
   H     47.44000000    34.65000000     7.89000000
   H     46.62000000    35.27000000    10.72000000
   H     45.46000000    35.42000000     9.27000000
   N     49.73000000    35.41000000     8.88000000
   C     51.07000000    35.70000000     9.36000000
   C     50.98000000    36.46000000    10.68000000
   O     50.46000000    37.57000000    10.80000000
   H     49.41000000    35.80000000     8.01000000
   H     51.66000000    36.29000000     8.65000000
   H     51.65000000    34.80000000     9.55000000
   N     51.66000000    35.97000000    11.71000000
   C     51.96000000    36.64000000    12.96000000
   C     53.16000000    37.56000000    12.80000000
   O     53.11000000    38.61000000    13.44000000
   C     52.24000000    35.72000000    14.15000000
   C     51.14000000    34.84000000    14.73000000
   N     50.31000000    35.39000000    15.62000000
   O     51.08000000    33.62000000    14.61000000
   H     52.19000000    35.12000000    11.55000000
   H     51.16000000    37.27000000    13.34000000
   H     52.47000000    36.38000000    14.99000000
   H     53.06000000    35.04000000    13.94000000
   H     50.35000000    36.40000000    15.72000000
   H     49.60000000    34.85000000    16.09000000
   N     54.10000000    37.41000000    11.87000000
   C     55.21000000    38.34000000    11.74000000
   C     56.17000000    38.22000000    12.91000000
   O     56.38000000    37.14000000    13.46000000
   H     54.06000000    36.56000000    11.32000000
   H     54.85000000    39.36000000    11.60000000
   H     55.77000000    38.13000000    10.83000000
   N     56.76000000    39.35000000    13.30000000
   C     57.54000000    39.53000000    14.51000000
   C     56.84000000    39.38000000    15.86000000
   O     57.34000000    39.76000000    16.91000000
   C     58.87000000    38.77000000    14.44000000
   C     59.98000000    39.21000000    15.36000000
   C     60.51000000    38.25000000    16.24000000
   C     60.36000000    40.56000000    15.38000000
   C     61.38000000    38.72000000    17.23000000
   C     61.28000000    41.03000000    16.32000000
   C     61.75000000    40.08000000    17.25000000
   O     62.63000000    40.38000000    18.25000000
   H     56.52000000    40.17000000    12.76000000
   H     57.81000000    40.58000000    14.56000000
   H     59.25000000    38.89000000    13.43000000
   H     58.72000000    37.71000000    14.63000000
   H     60.18000000    37.23000000    16.34000000
   H     60.01000000    41.17000000    14.56000000
   H     61.81000000    38.09000000    17.99000000
   H     61.66000000    42.04000000    16.31000000
   H     62.93000000    41.29000000    18.16000000
   N     55.65000000    38.79000000    15.78000000
   C     54.63000000    38.48000000    16.76000000
   C     54.02000000    39.68000000    17.47000000
   O     52.81000000    39.87000000    17.39000000
   C     55.05000000    37.38000000    17.74000000
   C     55.76000000    36.22000000    17.05000000
   C     53.85000000    36.97000000    18.58000000
   C     56.21000000    35.15000000    18.05000000
   H     55.40000000    38.46000000    14.86000000
   H     53.81000000    38.06000000    16.19000000
   H     55.77000000    37.85000000    18.41000000
   H     56.66000000    36.63000000    16.61000000
   H     55.10000000    35.76000000    16.31000000
   H     53.84000000    36.05000000    19.17000000
   H     53.74000000    37.65000000    19.42000000
   H     52.99000000    36.93000000    17.92000000
   H     56.81000000    35.67000000    18.80000000
   H     55.30000000    34.69000000    18.43000000
   H     56.74000000    34.39000000    17.48000000
   N     54.83000000    40.58000000    18.04000000
   C     54.37000000    41.83000000    18.61000000
   C     53.33000000    41.75000000    19.72000000
   O     52.61000000    42.72000000    19.95000000
   C     55.59000000    42.66000000    19.02000000
   O     56.58000000    42.69000000    18.02000000
   H     55.80000000    40.65000000    17.77000000
   H     53.98000000    42.42000000    17.78000000
   H     56.10000000    42.20000000    19.86000000
   H     55.29000000    43.68000000    19.27000000
   H     57.36000000    43.01000000    18.47000000
   N     53.23000000    40.62000000    20.42000000
   C     52.16000000    40.31000000    21.34000000
   C     50.76000000    40.42000000    20.76000000
   O     49.82000000    40.63000000    21.52000000
   C     52.43000000    41.07000000    22.64000000
   H     53.97000000    39.95000000    20.25000000
   H     52.35000000    39.27000000    21.60000000
   H     52.46000000    42.16000000    22.52000000
   H     51.73000000    40.77000000    23.42000000
   H     53.32000000    40.80000000    23.19000000
   N     50.60000000    40.45000000    19.43000000
   C     49.27000000    40.33000000    18.86000000
   C     49.00000000    38.88000000    18.48000000
   O     49.90000000    38.08000000    18.21000000
   C     49.20000000    41.26000000    17.65000000
   H     51.29000000    40.20000000    18.74000000
   H     48.52000000    40.72000000    19.54000000
   H     50.09000000    41.08000000    17.06000000
   H     48.48000000    40.84000000    16.95000000
   H     48.98000000    42.28000000    17.97000000
   N     47.71000000    38.63000000    18.26000000
   C     47.10000000    37.46000000    17.66000000
   C     47.33000000    36.14000000    18.39000000
   O     47.41000000    35.05000000    17.83000000
   C     47.51000000    37.39000000    16.19000000
   C     46.89000000    38.52000000    15.37000000
   C     47.56000000    38.75000000    14.02000000
   O     46.92000000    39.35000000    13.14000000
   O     48.60000000    38.19000000    13.61000000
   H     47.06000000    39.25000000    18.72000000
   H     46.03000000    37.60000000    17.73000000
   H     47.26000000    36.42000000    15.76000000
   H     48.60000000    37.47000000    16.17000000
   H     46.89000000    39.51000000    15.83000000
   H     45.84000000    38.27000000    15.20000000
   N     47.53000000    36.10000000    19.71000000
   C     48.03000000    34.96000000    20.44000000
   H     48.95000000    35.23500000    20.95600000
   H     47.28600000    34.64100000    21.17000000
   H     48.23200000    34.14400000    19.74600000
   H     47.46000000    36.91000000    20.32000000
  Ca     48.72000000    39.58000000    11.27000000
   O     48.19000000    41.97000000    12.15000000
   H     47.76000000    42.02000000    13.00000000
   H     48.61000000    42.82000000    12.04000000

Ca 1.70



