%chk=Ng-293_loop3_83.0.chk
%nprocshared=48
%mem=10GB
%nosave
#b3lyp/svp scf=(tight,noincore) Test 
#IOP(5/87=12) Density=Current Pop=(MK,readradii) iop(6/33=2) iop(6/42=6)

Ng-293_loop3_83.0 

   0   1
   C     50.96000000    54.77000000    44.50000000
   C     51.13000000    54.11000000    45.86000000
   O     50.36000000    54.28000000    46.81000000
   H     50.29700000    55.63000000    44.59400000
   H     51.93100000    55.10000000    44.13100000
   H     50.52900000    54.05500000    43.80000000
   N     52.17000000    53.28000000    45.94000000
   C     52.70000000    52.48000000    47.02000000
   C     53.16000000    53.17000000    48.29000000
   O     54.31000000    52.98000000    48.69000000
   C     51.81000000    51.24000000    47.15000000
   C     52.58000000    50.04000000    47.67000000
   O     53.50000000    49.55000000    46.99000000
   O     52.32000000    49.63000000    48.83000000
   H     52.77000000    53.42000000    45.14000000
   H     53.59000000    52.06000000    46.56000000
   H     51.37000000    50.91000000    46.21000000
   H     50.91000000    51.49000000    47.72000000
   N     52.31000000    54.05000000    48.83000000
   C     52.60000000    55.12000000    49.77000000
   C     52.64000000    54.72000000    51.23000000
   O     52.81000000    55.60000000    52.08000000
   C     52.02000000    56.46000000    49.32000000
   C     50.52000000    56.53000000    49.56000000
   C     49.90000000    57.72000000    48.82000000
   C     48.41000000    57.40000000    48.70000000
   N     47.66000000    57.54000000    49.96000000
   H     51.36000000    53.94000000    48.51000000
   H     53.67000000    55.27000000    49.66000000
   H     52.18000000    56.44000000    48.25000000
   H     52.53000000    57.30000000    49.80000000
   H     50.27000000    56.62000000    50.62000000
   H     50.17000000    55.61000000    49.09000000
   H     50.30000000    57.68000000    47.81000000
   H     50.05000000    58.72000000    49.22000000
   H     48.19000000    56.46000000    48.21000000
   H     48.07000000    58.25000000    48.12000000
   H     47.86000000    56.81000000    50.62000000
   H     47.86000000    58.43000000    50.40000000
   H     46.68000000    57.42000000    49.75000000
   N     52.76000000    53.43000000    51.54000000
   C     53.68000000    52.97000000    52.56000000
   C     54.52000000    51.87000000    51.92000000
   O     54.18000000    51.33000000    50.87000000
   C     52.87000000    52.52000000    53.77000000
   C     51.55000000    51.77000000    53.64000000
   O     51.38000000    50.84000000    52.82000000
   O     50.66000000    52.02000000    54.49000000
   H     52.62000000    52.81000000    50.76000000
   H     54.41000000    53.67000000    52.96000000
   H     52.70000000    53.42000000    54.36000000
   H     53.42000000    51.83000000    54.40000000
   N     55.57000000    51.44000000    52.63000000
   C     56.42000000    50.33000000    52.27000000
   C     55.63000000    49.04000000    52.49000000
   O     55.79000000    48.45000000    53.55000000
   H     55.86000000    52.00000000    53.42000000
   H     57.33000000    50.17000000    52.85000000
   H     56.71000000    50.40000000    51.23000000
   N     54.85000000    48.55000000    51.53000000
   C     53.88000000    47.48000000    51.65000000
   C     53.79000000    46.50000000    50.48000000
   O     53.94000000    45.29000000    50.52000000
   C     52.61000000    48.17000000    52.14000000
   C     51.49000000    47.23000000    52.56000000
   N     51.76000000    45.97000000    52.90000000
   O     50.32000000    47.60000000    52.65000000
   H     54.89000000    49.09000000    50.68000000
   H     54.18000000    46.81000000    52.45000000
   H     52.21000000    48.95000000    51.49000000
   H     52.85000000    48.69000000    53.07000000
   H     52.66000000    45.51000000    52.97000000
   H     50.97000000    45.47000000    53.28000000
   N     53.41000000    47.06000000    49.33000000
   C     53.13000000    46.38000000    48.09000000
   C     51.73000000    45.79000000    48.11000000
   O     50.94000000    46.05000000    47.21000000
   H     53.39000000    48.07000000    49.38000000
   H     53.89000000    45.63000000    47.87000000
   H     53.24000000    47.24000000    47.42000000
   N     51.34000000    45.16000000    49.22000000
   C     50.03000000    44.65000000    49.55000000
   C     48.91000000    45.68000000    49.70000000
   O     47.74000000    45.34000000    49.81000000
   C     49.68000000    43.55000000    48.55000000
   C     50.79000000    42.56000000    48.30000000
   C     51.16000000    41.70000000    49.34000000
   C     51.60000000    42.68000000    47.16000000
   C     52.35000000    40.97000000    49.26000000
   C     52.80000000    41.96000000    47.08000000
   C     53.17000000    41.09000000    48.12000000
   O     54.31000000    40.35000000    48.00000000
   H     52.10000000    44.84000000    49.81000000
   H     50.13000000    44.18000000    50.53000000
   H     49.43000000    44.04000000    47.61000000
   H     48.85000000    42.91000000    48.85000000
   H     50.58000000    41.61000000    50.24000000
   H     51.27000000    43.33000000    46.37000000
   H     52.65000000    40.26000000    50.03000000
   H     53.33000000    42.07000000    46.14000000
   H     54.79000000    40.64000000    47.22000000
   N     49.28000000    46.96000000    49.72000000
   C     48.50000000    48.17000000    49.92000000
   C     47.48000000    48.30000000    51.04000000
   O     47.70000000    49.12000000    51.93000000
   C     48.00000000    48.75000000    48.60000000
   C     47.49000000    50.18000000    48.76000000
   C     46.90000000    47.89000000    47.98000000
   C     47.49000000    50.98000000    47.46000000
   H     50.21000000    47.11000000    49.36000000
   H     49.29000000    48.83000000    50.27000000
   H     48.87000000    48.83000000    47.95000000
   H     48.14000000    50.69000000    49.46000000
   H     46.45000000    50.18000000    49.09000000
   H     47.18000000    46.87000000    47.72000000
   H     45.99000000    47.87000000    48.58000000
   H     46.64000000    48.38000000    47.05000000
   H     46.97000000    50.46000000    46.66000000
   H     47.02000000    51.95000000    47.64000000
   H     48.50000000    51.21000000    47.12000000
   N     46.33000000    47.64000000    50.94000000
   C     45.37000000    47.50000000    52.02000000
   C     43.91000000    47.21000000    51.69000000
   O     43.13000000    46.88000000    52.57000000
   C     45.97000000    46.57000000    53.06000000
   O     46.04000000    45.26000000    52.56000000
   H     46.39000000    46.79000000    50.39000000
   H     45.34000000    48.46000000    52.54000000
   H     45.25000000    46.56000000    53.88000000
   H     46.88000000    47.00000000    53.47000000
   H     45.28000000    45.07000000    52.00000000
   N     43.59000000    47.20000000    50.39000000
   C     42.25000000    47.37000000    49.85000000
   C     41.44000000    48.50000000    50.48000000
   O     40.85000000    49.14000000    49.62000000
   C     41.51000000    46.04000000    49.81000000
   H     44.32000000    47.60000000    49.81000000
   H     42.45000000    47.62000000    48.81000000
   H     42.07000000    45.22000000    49.36000000
   H     41.44000000    45.66000000    50.83000000
   H     40.48000000    46.25000000    49.49000000
   N     41.51000000    48.87000000    51.75000000
   C     41.62000000    50.23000000    52.26000000
   C     42.76000000    50.92000000    51.53000000
   O     43.72000000    50.30000000    51.08000000
   C     41.85000000    50.09000000    53.77000000
   H     41.84000000    48.14000000    52.37000000
   H     40.66000000    50.68000000    52.04000000
   H     42.78000000    49.53000000    53.89000000
   H     41.82000000    51.05000000    54.28000000
   H     41.05000000    49.50000000    54.20000000
   N     42.64000000    52.25000000    51.50000000
   C     43.57000000    53.18000000    50.89000000
   C     43.84000000    52.91000000    49.41000000
   O     44.59000000    53.66000000    48.80000000
   C     44.81000000    53.44000000    51.74000000
   C     45.86000000    52.36000000    51.97000000
   C     46.98000000    52.71000000    52.94000000
   O     46.84000000    53.56000000    53.84000000
   O     48.00000000    52.02000000    52.70000000
   H     41.86000000    52.62000000    52.03000000
   H     43.05000000    54.13000000    50.97000000
   H     44.39000000    53.82000000    52.66000000
   H     45.37000000    54.28000000    51.33000000
   H     46.26000000    52.10000000    50.99000000
   H     45.34000000    51.45000000    52.27000000
   N     43.21000000    51.95000000    48.72000000
   C     43.34000000    51.58000000    47.33000000
   H     44.39600000    51.47700000    47.07900000
   H     42.83200000    50.63100000    47.15700000
   H     42.89200000    52.35200000    46.70400000
   H     42.68000000    51.33000000    49.32000000
  Ca     49.16000000    49.97000000    53.92000000
   O     48.85000000    47.67000000    55.05000000
   H     49.72000000    47.34000000    54.85000000
   H     48.30000000    46.89000000    55.09000000

Ca 1.70



