%chk=Ng-293_loop3_80.0.chk
%nprocshared=48
%mem=10GB
%nosave
#b3lyp/svp scf=(tight,noincore) Test 
#IOP(5/87=12) Density=Current Pop=(MK,readradii) iop(6/33=2) iop(6/42=6)

Ng-293_loop3_80.0 

   0   1
   C     65.00000000    24.46000000    10.87000000
   C     65.34000000    25.27000000     9.63000000
   O     64.50000000    25.28000000     8.72000000
   H     63.97400000    24.10000000    10.79800000
   H     65.67800000    23.61000000    10.94700000
   H     65.10200000    25.08900000    11.75500000
   N     66.49000000    25.92000000     9.50000000
   C     66.65000000    26.83000000     8.38000000
   C     65.93000000    28.13000000     8.72000000
   O     65.83000000    28.54000000     9.87000000
   C     68.09000000    27.05000000     7.93000000
   C     69.06000000    27.46000000     9.03000000
   O     69.34000000    26.68000000     9.96000000
   O     69.59000000    28.59000000     8.96000000
   H     67.15000000    25.97000000    10.26000000
   H     66.08000000    26.39000000     7.57000000
   H     68.09000000    27.69000000     7.05000000
   H     68.42000000    26.05000000     7.64000000
   N     65.68000000    28.89000000     7.65000000
   C     65.09000000    30.21000000     7.61000000
   C     65.83000000    31.42000000     8.16000000
   O     65.94000000    32.46000000     7.51000000
   C     63.69000000    30.11000000     8.20000000
   C     62.82000000    31.22000000     7.63000000
   C     61.34000000    31.04000000     7.95000000
   C     60.47000000    32.05000000     7.19000000
   N     59.06000000    31.76000000     7.50000000
   H     65.54000000    28.40000000     6.77000000
   H     64.95000000    30.42000000     6.55000000
   H     63.67000000    30.20000000     9.29000000
   H     63.17000000    29.19000000     7.91000000
   H     62.89000000    31.28000000     6.54000000
   H     63.08000000    32.19000000     8.05000000
   H     61.18000000    31.12000000     9.02000000
   H     61.08000000    30.03000000     7.62000000
   H     60.54000000    32.10000000     6.11000000
   H     60.70000000    33.01000000     7.66000000
   H     58.95000000    31.89000000     8.50000000
   H     58.46000000    32.41000000     7.02000000
   H     58.76000000    30.82000000     7.27000000
   N     66.13000000    31.34000000     9.46000000
   C     66.48000000    32.45000000    10.32000000
   C     67.65000000    32.18000000    11.26000000
   O     67.62000000    31.26000000    12.07000000
   C     65.21000000    32.77000000    11.09000000
   C     64.99000000    34.20000000    11.54000000
   O     65.86000000    35.07000000    11.29000000
   O     63.88000000    34.59000000    11.98000000
   H     65.96000000    30.44000000     9.89000000
   H     66.82000000    33.26000000     9.68000000
   H     65.06000000    32.12000000    11.95000000
   H     64.38000000    32.63000000    10.39000000
   N     68.64000000    33.07000000    11.24000000
   C     69.80000000    33.13000000    12.10000000
   C     69.49000000    33.15000000    13.59000000
   O     68.39000000    33.48000000    14.02000000
   H     68.58000000    33.79000000    10.53000000
   H     70.45000000    33.99000000    11.93000000
   H     70.40000000    32.26000000    11.86000000
   N     70.46000000    32.91000000    14.48000000
   C     70.28000000    32.81000000    15.91000000
   C     71.51000000    33.34000000    16.65000000
   O     71.34000000    34.03000000    17.65000000
   C     69.92000000    31.43000000    16.44000000
   C     68.58000000    30.98000000    15.88000000
   N     68.58000000    30.00000000    14.97000000
   O     67.50000000    31.43000000    16.24000000
   H     71.39000000    32.93000000    14.10000000
   H     69.47000000    33.45000000    16.25000000
   H     69.95000000    31.53000000    17.53000000
   H     70.74000000    30.75000000    16.22000000
   H     69.46000000    29.79000000    14.52000000
   H     67.72000000    29.81000000    14.47000000
   N     72.71000000    32.96000000    16.20000000
   C     73.95000000    32.93000000    16.95000000
   C     73.77000000    32.36000000    18.35000000
   O     73.09000000    31.38000000    18.64000000
   H     72.64000000    32.49000000    15.31000000
   H     74.24000000    33.97000000    17.08000000
   H     74.73000000    32.40000000    16.40000000
   N     74.36000000    33.06000000    19.32000000
   C     74.09000000    32.93000000    20.74000000
   C     72.67000000    33.17000000    21.24000000
   O     72.58000000    33.47000000    22.42000000
   C     74.63000000    31.56000000    21.17000000
   C     76.04000000    31.25000000    20.72000000
   C     76.34000000    30.30000000    19.74000000
   C     77.14000000    31.81000000    21.38000000
   C     77.65000000    29.98000000    19.37000000
   C     78.46000000    31.48000000    21.08000000
   C     78.74000000    30.54000000    20.07000000
   O     80.01000000    30.23000000    19.70000000
   H     74.83000000    33.91000000    19.06000000
   H     74.78000000    33.62000000    21.22000000
   H     73.89000000    30.78000000    20.98000000
   H     74.73000000    31.50000000    22.25000000
   H     75.49000000    29.83000000    19.25000000
   H     76.98000000    32.54000000    22.15000000
   H     77.93000000    29.35000000    18.54000000
   H     79.26000000    32.03000000    21.56000000
   H     80.66000000    30.68000000    20.24000000
   N     71.65000000    33.01000000    20.39000000
   C     70.22000000    33.07000000    20.64000000
   C     69.72000000    34.41000000    21.15000000
   O     68.77000000    34.93000000    20.58000000
   C     69.74000000    31.88000000    21.46000000
   C     70.13000000    30.56000000    20.81000000
   C     68.23000000    31.96000000    21.65000000
   C     70.13000000    29.41000000    21.82000000
   H     71.83000000    32.54000000    19.52000000
   H     69.69000000    32.88000000    19.70000000
   H     70.30000000    31.98000000    22.40000000
   H     71.15000000    30.62000000    20.44000000
   H     69.41000000    30.24000000    20.05000000
   H     67.99000000    31.04000000    22.19000000
   H     67.91000000    32.75000000    22.33000000
   H     67.71000000    32.03000000    20.70000000
   H     70.75000000    29.75000000    22.65000000
   H     69.15000000    29.21000000    22.24000000
   H     70.46000000    28.52000000    21.28000000
   N     70.32000000    35.09000000    22.14000000
   C     69.91000000    36.44000000    22.47000000
   C     68.52000000    36.59000000    23.09000000
   O     67.91000000    37.65000000    22.97000000
   C     71.00000000    37.11000000    23.29000000
   O     72.32000000    36.76000000    22.94000000
   H     71.12000000    34.61000000    22.52000000
   H     69.85000000    37.06000000    21.58000000
   H     70.90000000    36.97000000    24.37000000
   H     70.90000000    38.18000000    23.11000000
   H     72.98000000    37.24000000    23.45000000
   N     68.07000000    35.50000000    23.71000000
   C     66.80000000    35.45000000    24.41000000
   C     65.58000000    36.03000000    23.72000000
   O     64.76000000    36.74000000    24.29000000
   C     67.08000000    36.11000000    25.75000000
   H     68.67000000    34.69000000    23.64000000
   H     66.56000000    34.40000000    24.57000000
   H     66.19000000    36.00000000    26.37000000
   H     67.90000000    35.66000000    26.31000000
   H     67.21000000    37.19000000    25.61000000
   N     65.56000000    35.85000000    22.39000000
   C     64.58000000    36.46000000    21.51000000
   C     64.02000000    35.52000000    20.45000000
   O     64.67000000    34.56000000    20.05000000
   C     65.27000000    37.63000000    20.80000000
   H     66.35000000    35.40000000    21.95000000
   H     63.76000000    36.87000000    22.09000000
   H     64.55000000    38.14000000    20.17000000
   H     65.61000000    38.25000000    21.64000000
   H     66.11000000    37.23000000    20.23000000
   N     62.77000000    35.77000000    20.06000000
   C     62.13000000    35.04000000    18.99000000
   C     61.85000000    33.58000000    19.33000000
   O     61.51000000    32.73000000    18.51000000
   C     62.84000000    35.12000000    17.64000000
   C     63.04000000    36.59000000    17.27000000
   C     63.66000000    36.73000000    15.89000000
   O     63.20000000    36.09000000    14.93000000
   O     64.49000000    37.64000000    15.69000000
   H     62.26000000    36.53000000    20.49000000
   H     61.16000000    35.54000000    18.93000000
   H     62.24000000    34.60000000    16.90000000
   H     63.78000000    34.59000000    17.76000000
   H     63.61000000    37.11000000    18.04000000
   H     62.10000000    37.14000000    17.22000000
   N     62.04000000    33.19000000    20.59000000
   C     61.84000000    31.90000000    21.22000000
   H     60.84100000    31.53300000    20.98500000
   H     62.58300000    31.19400000    20.84800000
   H     61.94400000    32.00200000    22.30000000
   H     62.22000000    33.92000000    21.27000000
  Ca     64.51000000    36.96000000    12.83000000
   O     63.65000000    39.31000000    13.23000000
   H     64.12000000    40.13000000    13.08000000
   H     62.84000000    39.57000000    13.66000000

Ca 1.70



