%chk=Ng-295_loop3_1.0.chk
%nprocshared=48
%mem=10GB
%nosave
#b3lyp/svp scf=(tight,noincore) Test 
#IOP(5/87=12) Density=Current Pop=(MK,readradii) iop(6/33=2) iop(6/42=6)

Ng-295_loop3_1.0 

   0   1
   C     83.29000000    38.64000000    68.92000000
   C     83.68000000    39.31000000    70.24000000
   O     82.83000000    39.70000000    71.04000000
   H     82.43600000    39.16100000    68.48700000
   H     84.13100000    38.68400000    68.22800000
   H     83.02400000    37.59900000    69.10500000
   N     84.98000000    39.37000000    70.53000000
   C     85.61000000    40.19000000    71.54000000
   C     86.63000000    41.24000000    71.14000000
   O     87.63000000    40.94000000    70.48000000
   C     86.06000000    39.30000000    72.69000000
   C     86.39000000    40.12000000    73.93000000
   O     85.61000000    40.15000000    74.90000000
   O     87.46000000    40.76000000    73.98000000
   H     85.62000000    38.94000000    69.88000000
   H     84.82000000    40.87000000    71.86000000
   H     86.83000000    38.57000000    72.44000000
   H     85.19000000    38.69000000    72.96000000
   N     86.62000000    42.44000000    71.72000000
   C     87.51000000    43.53000000    71.37000000
   C     89.00000000    43.42000000    71.70000000
   O     89.84000000    43.97000000    71.00000000
   C     86.87000000    44.82000000    71.86000000
   C     87.48000000    46.09000000    71.28000000
   C     86.81000000    47.34000000    71.87000000
   C     87.15000000    48.64000000    71.14000000
   N     86.56000000    49.78000000    71.85000000
   H     85.93000000    42.60000000    72.44000000
   H     87.39000000    43.50000000    70.29000000
   H     86.74000000    44.82000000    72.94000000
   H     85.85000000    44.76000000    71.47000000
   H     87.20000000    46.03000000    70.23000000
   H     88.54000000    46.21000000    71.50000000
   H     87.01000000    47.43000000    72.93000000
   H     85.73000000    47.27000000    71.70000000
   H     86.78000000    48.65000000    70.12000000
   H     88.24000000    48.69000000    71.18000000
   H     85.58000000    49.95000000    71.72000000
   H     86.69000000    49.76000000    72.86000000
   H     87.00000000    50.64000000    71.54000000
   N     89.39000000    42.53000000    72.62000000
   C     90.77000000    42.21000000    72.90000000
   C     91.02000000    40.72000000    72.68000000
   O     92.10000000    40.26000000    73.05000000
   C     91.06000000    42.63000000    74.34000000
   C     90.01000000    42.22000000    75.36000000
   O     89.80000000    41.04000000    75.72000000
   O     89.31000000    43.08000000    75.92000000
   H     88.66000000    41.95000000    73.02000000
   H     91.45000000    42.69000000    72.20000000
   H     91.20000000    43.71000000    74.44000000
   H     91.98000000    42.18000000    74.72000000
   N     89.99000000    39.99000000    72.26000000
   C     90.00000000    38.57000000    71.98000000
   C     89.83000000    37.54000000    73.08000000
   O     89.79000000    36.34000000    72.79000000
   H     89.18000000    40.55000000    72.02000000
   H     90.89000000    38.33000000    71.40000000
   H     89.13000000    38.44000000    71.33000000
   N     89.59000000    38.04000000    74.29000000
   C     89.17000000    37.33000000    75.49000000
   C     87.75000000    37.70000000    75.90000000
   O     87.46000000    38.80000000    76.35000000
   C     90.26000000    37.38000000    76.56000000
   C     90.33000000    36.31000000    77.64000000
   N     91.23000000    36.42000000    78.63000000
   O     89.55000000    35.37000000    77.70000000
   H     89.72000000    39.04000000    74.37000000
   H     89.15000000    36.31000000    75.11000000
   H     90.16000000    38.33000000    77.08000000
   H     91.24000000    37.55000000    76.11000000
   H     92.01000000    37.06000000    78.53000000
   H     91.26000000    35.78000000    79.40000000
   N     86.79000000    36.79000000    75.74000000
   C     85.35000000    36.90000000    75.69000000
   C     84.70000000    37.33000000    77.00000000
   O     83.51000000    37.63000000    76.96000000
   H     87.22000000    35.90000000    75.51000000
   H     84.95000000    35.88000000    75.58000000
   H     85.02000000    37.57000000    74.89000000
   N     85.45000000    37.30000000    78.10000000
   C     85.10000000    37.96000000    79.35000000
   C     84.84000000    39.46000000    79.25000000
   O     85.62000000    40.14000000    78.59000000
   C     86.04000000    37.69000000    80.51000000
   C     86.42000000    36.26000000    80.81000000
   C     87.55000000    35.64000000    80.27000000
   C     85.64000000    35.47000000    81.66000000
   C     87.80000000    34.28000000    80.52000000
   C     85.93000000    34.16000000    82.05000000
   C     86.99000000    33.51000000    81.37000000
   O     87.29000000    32.21000000    81.63000000
   H     86.42000000    37.08000000    77.98000000
   H     84.11000000    37.57000000    79.61000000
   H     85.57000000    38.14000000    81.39000000
   H     86.98000000    38.22000000    80.35000000
   H     88.27000000    36.17000000    79.67000000
   H     84.77000000    35.95000000    82.09000000
   H     88.70000000    33.84000000    80.13000000
   H     85.34000000    33.65000000    82.80000000
   H     86.64000000    31.90000000    82.26000000
   N     83.84000000    39.95000000    79.99000000
   C     83.28000000    41.27000000    80.16000000
   C     84.23000000    42.31000000    80.73000000
   O     85.41000000    42.02000000    80.91000000
   C     82.50000000    41.75000000    78.94000000
   C     81.45000000    40.74000000    78.48000000
   C     83.41000000    42.13000000    77.77000000
   C     80.64000000    41.06000000    77.23000000
   H     83.43000000    39.26000000    80.60000000
   H     82.42000000    41.26000000    80.84000000
   H     81.94000000    42.65000000    79.20000000
   H     80.88000000    40.36000000    79.32000000
   H     82.00000000    39.82000000    78.26000000
   H     84.26000000    42.77000000    77.99000000
   H     83.87000000    41.27000000    77.28000000
   H     82.91000000    42.68000000    76.98000000
   H     80.09000000    41.98000000    77.37000000
   H     81.20000000    40.99000000    76.30000000
   H     79.87000000    40.29000000    77.20000000
   N     83.70000000    43.49000000    81.07000000
   C     84.42000000    44.56000000    81.73000000
   C     84.08000000    44.84000000    83.18000000
   O     84.90000000    45.19000000    84.03000000
   C     84.27000000    45.82000000    80.89000000
   O     83.13000000    46.61000000    81.19000000
   H     82.70000000    43.65000000    81.06000000
   H     85.48000000    44.30000000    81.72000000
   H     84.14000000    45.56000000    79.84000000
   H     85.19000000    46.34000000    81.16000000
   H     83.09000000    47.50000000    80.83000000
   N     82.82000000    44.57000000    83.55000000
   C     82.15000000    44.53000000    84.83000000
   C     82.61000000    45.58000000    85.84000000
   O     83.05000000    45.24000000    86.93000000
   C     82.25000000    43.08000000    85.30000000
   H     82.25000000    44.25000000    82.78000000
   H     81.09000000    44.76000000    84.72000000
   H     81.63000000    42.89000000    86.17000000
   H     81.91000000    42.40000000    84.52000000
   H     83.28000000    42.91000000    85.61000000
   N     82.54000000    46.89000000    85.55000000
   C     81.88000000    47.55000000    84.45000000
   C     80.41000000    47.85000000    84.74000000
   O     80.11000000    48.44000000    85.77000000
   C     82.55000000    48.88000000    84.12000000
   H     82.85000000    47.57000000    86.23000000
   H     82.00000000    46.98000000    83.53000000
   H     82.67000000    49.54000000    84.97000000
   H     83.51000000    48.76000000    83.63000000
   H     81.89000000    49.33000000    83.39000000
   N     79.42000000    47.37000000    83.99000000
   C     79.54000000    46.47000000    82.86000000
   C     78.39000000    45.49000000    82.67000000
   O     78.47000000    44.54000000    81.89000000
   C     79.91000000    47.23000000    81.59000000
   C     78.98000000    48.38000000    81.21000000
   C     79.31000000    48.97000000    79.85000000
   O     78.48000000    48.69000000    78.95000000
   O     80.39000000    49.57000000    79.66000000
   H     78.50000000    47.73000000    84.21000000
   H     80.42000000    45.85000000    82.98000000
   H     79.91000000    46.54000000    80.75000000
   H     80.94000000    47.57000000    81.63000000
   H     79.01000000    49.15000000    81.98000000
   H     78.01000000    47.88000000    81.14000000
   N     77.25000000    45.65000000    83.34000000
   C     76.07000000    44.85000000    83.06000000
   H     75.26600000    45.49900000    82.71300000
   H     76.30300000    44.11600000    82.28800000
   H     75.75500000    44.33600000    83.96800000
   H     77.21000000    46.43000000    83.97000000
  Ca     87.35000000    41.33000000    76.71000000
   O     87.23000000    42.89000000    78.79000000
   H     86.58000000    42.63000000    79.44000000
   H     87.56000000    43.73000000    79.10000000

Ca 1.70



