%chk=Ng-293_loop3_10.0.chk
%nprocshared=48
%mem=10GB
%nosave
#b3lyp/svp scf=(tight,noincore) Test 
#IOP(5/87=12) Density=Current Pop=(MK,readradii) iop(6/33=2) iop(6/42=6)

Ng-293_loop3_10.0 

   0   1
   C     54.42000000    54.22000000    44.71000000
   C     54.12000000    54.29000000    46.21000000
   O     53.00000000    53.94000000    46.55000000
   H     55.46300000    53.93900000    44.56100000
   H     53.77400000    53.47600000    44.24400000
   H     54.23800000    55.19400000    44.25700000
   N     55.07000000    54.73000000    47.05000000
   C     54.88000000    54.94000000    48.47000000
   C     53.87000000    55.96000000    48.98000000
   O     54.26000000    57.01000000    49.48000000
   C     54.72000000    53.62000000    49.22000000
   C     55.84000000    52.64000000    48.91000000
   O     55.68000000    51.79000000    48.01000000
   O     56.94000000    52.82000000    49.47000000
   H     56.01000000    54.87000000    46.71000000
   H     55.83000000    55.30000000    48.85000000
   H     53.80000000    53.13000000    48.88000000
   H     54.73000000    53.77000000    50.30000000
   N     52.59000000    55.59000000    48.94000000
   C     51.54000000    56.53000000    49.28000000
   C     51.60000000    57.14000000    50.67000000
   O     51.49000000    58.36000000    50.79000000
   C     50.20000000    55.88000000    48.95000000
   C     49.61000000    54.88000000    49.94000000
   C     50.49000000    53.64000000    50.09000000
   C     49.90000000    52.78000000    51.21000000
   N     50.20000000    53.34000000    52.54000000
   H     52.32000000    54.79000000    48.40000000
   H     51.70000000    57.31000000    48.54000000
   H     50.23000000    55.37000000    47.99000000
   H     49.44000000    56.67000000    48.91000000
   H     48.70000000    54.60000000    49.42000000
   H     49.32000000    55.24000000    50.93000000
   H     51.52000000    53.79000000    50.39000000
   H     50.50000000    53.15000000    49.12000000
   H     50.28000000    51.76000000    51.25000000
   H     48.83000000    52.72000000    51.01000000
   H     49.77000000    52.82000000    53.28000000
   H     51.19000000    53.36000000    52.72000000
   H     49.94000000    54.31000000    52.67000000
   N     51.97000000    56.35000000    51.68000000
   C     52.39000000    56.63000000    53.04000000
   C     53.13000000    55.39000000    53.52000000
   O     52.91000000    54.31000000    52.98000000
   C     51.24000000    57.07000000    53.95000000
   C     50.13000000    56.04000000    54.10000000
   O     50.21000000    55.26000000    55.07000000
   O     49.25000000    56.01000000    53.21000000
   H     52.22000000    55.41000000    51.43000000
   H     53.11000000    57.45000000    53.05000000
   H     50.89000000    58.03000000    53.58000000
   H     51.68000000    57.25000000    54.93000000
   N     54.08000000    55.45000000    54.46000000
   C     55.00000000    54.39000000    54.84000000
   C     54.31000000    53.27000000    55.61000000
   O     53.25000000    53.47000000    56.19000000
   H     54.26000000    56.36000000    54.87000000
   H     55.76000000    54.84000000    55.48000000
   H     55.55000000    54.09000000    53.95000000
   N     54.82000000    52.05000000    55.47000000
   C     54.29000000    50.81000000    56.01000000
   C     55.35000000    49.95000000    56.68000000
   O     54.95000000    48.96000000    57.30000000
   C     53.58000000    50.05000000    54.89000000
   C     52.35000000    50.83000000    54.44000000
   N     51.44000000    51.17000000    55.36000000
   O     52.19000000    51.09000000    53.24000000
   H     55.58000000    51.88000000    54.84000000
   H     53.58000000    51.10000000    56.78000000
   H     53.24000000    49.14000000    55.38000000
   H     54.23000000    49.85000000    54.04000000
   H     51.66000000    50.93000000    56.31000000
   H     50.63000000    51.74000000    55.19000000
   N     56.65000000    50.23000000    56.65000000
   C     57.61000000    49.58000000    57.51000000
   C     58.16000000    48.23000000    57.06000000
   O     58.66000000    48.13000000    55.95000000
   H     56.97000000    50.87000000    55.93000000
   H     57.06000000    49.54000000    58.46000000
   H     58.38000000    50.33000000    57.71000000
   N     57.82000000    47.17000000    57.80000000
   C     57.96000000    45.79000000    57.39000000
   C     57.04000000    45.35000000    56.26000000
   O     57.05000000    44.19000000    55.87000000
   C     59.42000000    45.36000000    57.26000000
   C     60.25000000    45.67000000    58.49000000
   C     59.82000000    45.33000000    59.77000000
   C     61.48000000    46.31000000    58.27000000
   C     60.55000000    45.79000000    60.87000000
   C     62.23000000    46.69000000    59.39000000
   C     61.79000000    46.44000000    60.70000000
   O     62.53000000    46.81000000    61.78000000
   H     57.13000000    47.31000000    58.53000000
   H     57.51000000    45.31000000    58.26000000
   H     59.90000000    45.80000000    56.39000000
   H     59.45000000    44.27000000    57.23000000
   H     58.88000000    44.84000000    59.97000000
   H     61.82000000    46.53000000    57.26000000
   H     60.14000000    45.61000000    61.86000000
   H     63.21000000    47.12000000    59.22000000
   H     63.32000000    47.29000000    61.52000000
   N     56.11000000    46.23000000    55.88000000
   C     54.91000000    46.06000000    55.07000000
   C     53.80000000    45.26000000    55.75000000
   O     52.73000000    45.79000000    56.04000000
   C     55.21000000    45.54000000    53.67000000
   C     56.29000000    46.29000000    52.91000000
   C     54.00000000    45.48000000    52.75000000
   C     56.18000000    47.81000000    52.80000000
   H     56.30000000    47.12000000    56.33000000
   H     54.36000000    46.99000000    54.94000000
   H     55.47000000    44.48000000    53.75000000
   H     56.43000000    45.85000000    51.92000000
   H     57.16000000    46.04000000    53.52000000
   H     54.37000000    45.12000000    51.79000000
   H     53.32000000    44.76000000    53.21000000
   H     53.40000000    46.38000000    52.61000000
   H     55.16000000    48.04000000    52.49000000
   H     56.38000000    48.26000000    53.78000000
   H     56.94000000    48.20000000    52.12000000
   N     54.03000000    43.98000000    56.03000000
   C     53.05000000    43.12000000    56.66000000
   C     51.76000000    43.03000000    55.86000000
   O     50.67000000    43.06000000    56.43000000
   C     53.79000000    41.83000000    57.00000000
   O     54.46000000    41.33000000    55.86000000
   H     54.93000000    43.63000000    55.73000000
   H     52.66000000    43.60000000    57.56000000
   H     53.06000000    41.11000000    57.37000000
   H     54.57000000    41.93000000    57.76000000
   H     54.18000000    40.42000000    55.94000000
   N     51.85000000    42.96000000    54.53000000
   C     50.72000000    43.07000000    53.62000000
   C     49.76000000    44.25000000    53.65000000
   O     48.86000000    44.26000000    52.82000000
   C     50.03000000    41.72000000    53.44000000
   H     52.71000000    42.72000000    54.06000000
   H     51.32000000    43.10000000    52.70000000
   H     49.28000000    41.52000000    54.20000000
   H     49.53000000    41.76000000    52.48000000
   H     50.73000000    40.89000000    53.56000000
   N     49.89000000    45.20000000    54.58000000
   C     48.96000000    46.29000000    54.76000000
   C     48.87000000    47.20000000    53.54000000
   O     49.86000000    47.54000000    52.88000000
   C     49.37000000    47.00000000    56.05000000
   H     50.51000000    45.04000000    55.37000000
   H     48.00000000    45.78000000    54.81000000
   H     50.44000000    47.20000000    56.00000000
   H     48.82000000    47.92000000    56.26000000
   H     49.22000000    46.37000000    56.93000000
   N     47.73000000    47.86000000    53.33000000
   C     47.57000000    48.97000000    52.41000000
   C     47.90000000    48.68000000    50.96000000
   O     47.84000000    49.58000000    50.13000000
   C     48.05000000    50.30000000    52.98000000
   C     47.56000000    50.47000000    54.41000000
   C     47.64000000    51.93000000    54.84000000
   O     46.73000000    52.40000000    55.56000000
   O     48.74000000    52.50000000    54.76000000
   H     47.00000000    47.58000000    53.97000000
   H     46.48000000    49.06000000    52.32000000
   H     47.62000000    51.09000000    52.36000000
   H     49.12000000    50.47000000    52.99000000
   H     48.19000000    49.84000000    55.03000000
   H     46.51000000    50.18000000    54.50000000
   N     48.06000000    47.43000000    50.50000000
   C     48.50000000    47.10000000    49.16000000
   H     49.52700000    46.73700000    49.19500000
   H     47.85500000    46.32500000    48.74600000
   H     48.45100000    47.98900000    48.53100000
   H     48.08000000    46.68000000    51.17000000
  Ca     48.60000000    54.13000000    56.72000000
   O     47.13000000    55.53000000    55.16000000
   H     47.41000000    56.02000000    54.39000000
   H     46.40000000    56.05000000    55.52000000

Ca 1.70



