%chk=Ng-293_loop3_71.0.chk
%nprocshared=48
%mem=10GB
%nosave
#b3lyp/svp scf=(tight,noincore) Test 
#IOP(5/87=12) Density=Current Pop=(MK,readradii) iop(6/33=2) iop(6/42=6)

Ng-293_loop3_71.0 

   0   1
   C     65.41000000    23.72000000    10.76000000
   C     65.73000000    24.52000000     9.50000000
   O     65.07000000    24.29000000     8.49000000
   H     64.38200000    23.36200000    10.71100000
   H     66.08700000    22.86900000    10.83200000
   H     65.53100000    24.35700000    11.63600000
   N     66.66000000    25.47000000     9.54000000
   C     67.02000000    26.43000000     8.52000000
   C     66.35000000    27.78000000     8.74000000
   O     66.10000000    28.23000000     9.86000000
   C     68.53000000    26.57000000     8.39000000
   C     69.33000000    26.66000000     9.68000000
   O     69.64000000    25.68000000    10.39000000
   O     69.76000000    27.80000000     9.97000000
   H     67.07000000    25.80000000    10.41000000
   H     66.60000000    26.08000000     7.58000000
   H     68.77000000    27.37000000     7.69000000
   H     68.89000000    25.72000000     7.81000000
   N     65.95000000    28.33000000     7.59000000
   C     65.20000000    29.55000000     7.36000000
   C     65.77000000    30.86000000     7.88000000
   O     65.95000000    31.80000000     7.12000000
   C     63.76000000    29.26000000     7.78000000
   C     62.78000000    30.38000000     7.44000000
   C     61.48000000    30.05000000     8.17000000
   C     60.44000000    31.15000000     7.98000000
   N     59.06000000    30.82000000     8.36000000
   H     66.21000000    27.82000000     6.76000000
   H     65.13000000    29.57000000     6.27000000
   H     63.86000000    29.25000000     8.87000000
   H     63.39000000    28.36000000     7.29000000
   H     62.62000000    30.37000000     6.36000000
   H     63.16000000    31.35000000     7.77000000
   H     61.72000000    30.12000000     9.23000000
   H     61.27000000    29.00000000     7.94000000
   H     60.48000000    31.47000000     6.94000000
   H     60.71000000    32.01000000     8.59000000
   H     59.06000000    30.49000000     9.31000000
   H     58.49000000    31.66000000     8.37000000
   H     58.67000000    30.12000000     7.75000000
   N     66.18000000    30.90000000     9.15000000
   C     66.59000000    32.03000000     9.97000000
   C     67.59000000    31.64000000    11.04000000
   O     67.40000000    30.63000000    11.72000000
   C     65.30000000    32.57000000    10.57000000
   C     65.29000000    33.88000000    11.35000000
   O     66.17000000    34.77000000    11.28000000
   O     64.25000000    34.23000000    11.96000000
   H     66.16000000    29.99000000     9.59000000
   H     67.08000000    32.77000000     9.33000000
   H     64.96000000    31.84000000    11.30000000
   H     64.51000000    32.58000000     9.82000000
   N     68.67000000    32.40000000    11.24000000
   C     69.79000000    32.20000000    12.15000000
   C     69.50000000    32.76000000    13.53000000
   O     69.18000000    33.93000000    13.73000000
   H     68.79000000    33.07000000    10.49000000
   H     70.63000000    32.76000000    11.72000000
   H     69.85000000    31.12000000    12.14000000
   N     69.56000000    31.94000000    14.58000000
   C     69.34000000    32.32000000    15.97000000
   C     70.54000000    33.03000000    16.58000000
   O     70.36000000    33.77000000    17.55000000
   C     69.03000000    31.04000000    16.73000000
   C     67.86000000    30.22000000    16.18000000
   N     68.06000000    29.23000000    15.30000000
   O     66.72000000    30.57000000    16.44000000
   H     69.60000000    30.97000000    14.28000000
   H     68.50000000    32.99000000    16.10000000
   H     68.82000000    31.34000000    17.75000000
   H     69.88000000    30.36000000    16.67000000
   H     68.99000000    28.99000000    15.02000000
   H     67.26000000    28.66000000    15.09000000
   N     71.73000000    32.75000000    16.05000000
   C     72.97000000    33.05000000    16.74000000
   C     73.15000000    32.42000000    18.12000000
   O     72.54000000    31.41000000    18.46000000
   H     71.80000000    32.20000000    15.21000000
   H     72.87000000    34.14000000    16.74000000
   H     73.84000000    32.76000000    16.16000000
   N     73.86000000    33.15000000    18.98000000
   C     73.98000000    33.03000000    20.42000000
   C     72.68000000    33.00000000    21.21000000
   O     72.67000000    32.95000000    22.43000000
   C     74.94000000    31.98000000    20.97000000
   C     76.37000000    32.25000000    20.55000000
   C     77.00000000    31.36000000    19.67000000
   C     77.04000000    33.40000000    20.97000000
   C     78.35000000    31.53000000    19.35000000
   C     78.39000000    33.58000000    20.64000000
   C     79.08000000    32.62000000    19.88000000
   O     80.43000000    32.61000000    19.74000000
   H     74.38000000    33.93000000    18.61000000
   H     74.40000000    34.00000000    20.70000000
   H     74.60000000    30.98000000    20.71000000
   H     74.85000000    31.97000000    22.06000000
   H     76.35000000    30.63000000    19.21000000
   H     76.57000000    34.13000000    21.61000000
   H     78.84000000    30.74000000    18.80000000
   H     78.94000000    34.37000000    21.14000000
   H     80.91000000    33.40000000    20.00000000
   N     71.52000000    33.02000000    20.55000000
   C     70.13000000    33.16000000    20.95000000
   C     69.66000000    34.46000000    21.59000000
   O     68.53000000    34.84000000    21.30000000
   C     69.67000000    31.91000000    21.70000000
   C     69.92000000    30.62000000    20.92000000
   C     68.18000000    32.05000000    22.01000000
   C     70.14000000    29.43000000    21.85000000
   H     71.66000000    33.15000000    19.56000000
   H     69.65000000    32.98000000    19.99000000
   H     70.21000000    31.89000000    22.64000000
   H     70.87000000    30.66000000    20.39000000
   H     69.12000000    30.36000000    20.23000000
   H     67.83000000    31.09000000    22.40000000
   H     68.08000000    32.78000000    22.81000000
   H     67.59000000    32.25000000    21.12000000
   H     70.97000000    29.69000000    22.51000000
   H     69.32000000    29.30000000    22.56000000
   H     70.31000000    28.48000000    21.35000000
   N     70.50000000    35.15000000    22.37000000
   C     70.20000000    36.45000000    22.94000000
   C     69.02000000    36.46000000    23.91000000
   O     68.59000000    37.53000000    24.32000000
   C     71.43000000    37.09000000    23.59000000
   O     72.53000000    37.12000000    22.71000000
   H     71.39000000    34.73000000    22.58000000
   H     69.90000000    37.16000000    22.18000000
   H     71.72000000    36.56000000    24.50000000
   H     71.23000000    38.14000000    23.84000000
   H     73.28000000    37.33000000    23.28000000
   N     68.47000000    35.29000000    24.22000000
   C     67.09000000    35.22000000    24.65000000
   C     66.02000000    35.81000000    23.75000000
   O     65.04000000    36.38000000    24.22000000
   C     67.12000000    35.47000000    26.16000000
   H     68.96000000    34.40000000    24.16000000
   H     66.86000000    34.16000000    24.64000000
   H     66.26000000    35.01000000    26.63000000
   H     68.04000000    34.97000000    26.48000000
   H     67.13000000    36.54000000    26.39000000
   N     66.15000000    35.84000000    22.42000000
   C     65.25000000    36.51000000    21.50000000
   C     64.68000000    35.42000000    20.59000000
   O     65.33000000    34.46000000    20.19000000
   C     66.10000000    37.53000000    20.74000000
   H     67.00000000    35.45000000    22.04000000
   H     64.39000000    36.90000000    22.04000000
   H     65.51000000    37.97000000    19.94000000
   H     66.35000000    38.36000000    21.40000000
   H     66.98000000    37.00000000    20.37000000
   N     63.48000000    35.68000000    20.08000000
   C     62.69000000    34.90000000    19.14000000
   C     62.64000000    33.43000000    19.51000000
   O     63.12000000    32.56000000    18.79000000
   C     63.32000000    35.16000000    17.77000000
   C     62.99000000    36.56000000    17.26000000
   C     63.52000000    36.61000000    15.84000000
   O     63.03000000    35.98000000    14.88000000
   O     64.66000000    37.09000000    15.63000000
   H     63.08000000    36.56000000    20.38000000
   H     61.69000000    35.32000000    19.12000000
   H     62.93000000    34.42000000    17.08000000
   H     64.38000000    34.94000000    17.80000000
   H     63.58000000    37.23000000    17.88000000
   H     61.91000000    36.65000000    17.35000000
   N     62.12000000    33.05000000    20.69000000
   C     62.28000000    31.73000000    21.27000000
   H     63.10400000    31.74500000    21.98400000
   H     61.36100000    31.44400000    21.78200000
   H     62.49700000    31.01000000    20.48100000
   H     61.68000000    33.69000000    21.32000000
  Ca     64.63000000    36.54000000    13.01000000
   O     65.00000000    37.29000000    10.61000000
   H     65.45000000    37.96000000    10.09000000
   H     65.00000000    36.51000000    10.04000000

Ca 1.70



