%chk=Ng-293_loop3_76.0.chk
%nprocshared=48
%mem=10GB
%nosave
#b3lyp/svp scf=(tight,noincore) Test 
#IOP(5/87=12) Density=Current Pop=(MK,readradii) iop(6/33=2) iop(6/42=6)

Ng-293_loop3_76.0 

   0   1
   C     64.40000000    27.04000000     8.37000000
   C     64.85000000    28.13000000     7.40000000
   O     64.02000000    28.58000000     6.62000000
   H     63.39200000    26.71600000     8.11000000
   H     65.08100000    26.19200000     8.30600000
   H     64.40400000    27.43300000     9.38700000
   N     66.14000000    28.45000000     7.37000000
   C     66.58000000    29.67000000     6.72000000
   C     66.13000000    30.91000000     7.49000000
   O     65.94000000    30.93000000     8.70000000
   C     68.08000000    29.82000000     6.48000000
   C     68.92000000    29.48000000     7.70000000
   O     69.37000000    28.34000000     7.94000000
   O     69.13000000    30.46000000     8.45000000
   H     66.73000000    27.97000000     8.04000000
   H     66.10000000    29.76000000     5.74000000
   H     68.28000000    30.87000000     6.26000000
   H     68.45000000    29.17000000     5.69000000
   N     65.96000000    31.95000000     6.68000000
   C     65.64000000    33.34000000     6.93000000
   C     66.59000000    34.16000000     7.79000000
   O     66.96000000    35.26000000     7.38000000
   C     64.21000000    33.35000000     7.47000000
   C     63.46000000    34.68000000     7.53000000
   C     63.07000000    35.15000000     6.13000000
   C     62.33000000    36.48000000     5.98000000
   N     61.01000000    36.54000000     6.64000000
   H     66.21000000    31.76000000     5.72000000
   H     65.76000000    33.82000000     5.96000000
   H     64.20000000    32.97000000     8.48000000
   H     63.61000000    32.65000000     6.89000000
   H     64.28000000    35.31000000     7.88000000
   H     62.69000000    34.63000000     8.31000000
   H     62.45000000    34.45000000     5.59000000
   H     63.93000000    35.26000000     5.47000000
   H     62.18000000    36.73000000     4.93000000
   H     63.02000000    37.17000000     6.44000000
   H     61.00000000    36.31000000     7.62000000
   H     60.76000000    37.50000000     6.45000000
   H     60.37000000    35.86000000     6.26000000
   N     66.79000000    33.73000000     9.04000000
   C     67.60000000    34.40000000    10.04000000
   C     68.30000000    33.50000000    11.05000000
   O     67.64000000    32.81000000    11.82000000
   C     66.69000000    35.37000000    10.79000000
   C     67.58000000    36.20000000    11.71000000
   O     68.74000000    36.49000000    11.33000000
   O     67.05000000    36.54000000    12.79000000
   H     66.46000000    32.81000000     9.28000000
   H     68.32000000    35.03000000     9.51000000
   H     65.94000000    34.92000000    11.44000000
   H     66.21000000    36.02000000    10.07000000
   N     69.61000000    33.65000000    11.22000000
   C     70.43000000    32.97000000    12.20000000
   C     69.86000000    32.95000000    13.61000000
   O     69.85000000    33.99000000    14.27000000
   H     70.05000000    34.43000000    10.75000000
   H     71.40000000    33.46000000    12.26000000
   H     70.48000000    31.94000000    11.83000000
   N     69.44000000    31.80000000    14.14000000
   C     68.74000000    31.71000000    15.41000000
   C     69.75000000    31.81000000    16.54000000
   O     69.51000000    32.33000000    17.63000000
   C     67.87000000    30.46000000    15.56000000
   C     66.86000000    30.36000000    14.42000000
   N     67.00000000    29.38000000    13.53000000
   O     66.01000000    31.24000000    14.35000000
   H     69.29000000    31.04000000    13.50000000
   H     68.12000000    32.59000000    15.55000000
   H     67.28000000    30.52000000    16.47000000
   H     68.40000000    29.51000000    15.51000000
   H     67.85000000    28.83000000    13.49000000
   H     66.36000000    29.30000000    12.75000000
   N     70.92000000    31.22000000    16.30000000
   C     72.08000000    31.26000000    17.18000000
   C     71.80000000    31.07000000    18.66000000
   O     71.33000000    30.04000000    19.13000000
   H     71.02000000    30.86000000    15.36000000
   H     72.59000000    32.22000000    17.11000000
   H     72.85000000    30.53000000    16.96000000
   N     72.17000000    32.13000000    19.39000000
   C     72.15000000    32.30000000    20.83000000
   C     70.80000000    32.22000000    21.54000000
   O     70.80000000    32.02000000    22.75000000
   C     73.27000000    31.52000000    21.51000000
   C     74.66000000    31.69000000    20.94000000
   C     75.43000000    30.56000000    20.64000000
   C     75.11000000    32.98000000    20.63000000
   C     76.64000000    30.80000000    19.97000000
   C     76.34000000    33.24000000    20.01000000
   C     77.09000000    32.10000000    19.68000000
   O     78.35000000    32.33000000    19.23000000
   H     72.73000000    32.84000000    18.94000000
   H     72.44000000    33.30000000    21.13000000
   H     72.98000000    30.47000000    21.57000000
   H     73.31000000    31.87000000    22.54000000
   H     75.15000000    29.56000000    20.93000000
   H     74.41000000    33.80000000    20.73000000
   H     77.36000000    30.01000000    19.79000000
   H     76.59000000    34.29000000    19.88000000
   H     78.43000000    33.25000000    18.98000000
   N     69.72000000    32.41000000    20.78000000
   C     68.34000000    32.47000000    21.21000000
   C     68.07000000    33.75000000    21.98000000
   O     67.30000000    34.63000000    21.57000000
   C     67.82000000    31.18000000    21.85000000
   C     67.93000000    30.00000000    20.88000000
   C     66.37000000    31.33000000    22.31000000
   C     68.05000000    28.69000000    21.65000000
   H     69.89000000    32.78000000    19.86000000
   H     67.79000000    32.68000000    20.29000000
   H     68.46000000    30.97000000    22.70000000
   H     68.77000000    30.14000000    20.21000000
   H     67.05000000    29.95000000    20.24000000
   H     66.20000000    32.16000000    22.99000000
   H     65.68000000    31.44000000    21.47000000
   H     66.02000000    30.48000000    22.90000000
   H     67.18000000    28.64000000    22.31000000
   H     68.05000000    27.93000000    20.87000000
   H     68.94000000    28.68000000    22.27000000
   N     68.86000000    34.00000000    23.03000000
   C     68.84000000    35.27000000    23.72000000
   C     67.74000000    35.48000000    24.74000000
   O     67.32000000    36.61000000    24.97000000
   C     70.23000000    35.52000000    24.31000000
   O     71.30000000    34.96000000    23.58000000
   H     69.53000000    33.29000000    23.27000000
   H     68.69000000    36.07000000    22.99000000
   H     70.34000000    35.16000000    25.33000000
   H     70.32000000    36.61000000    24.32000000
   H     71.50000000    35.63000000    22.92000000
   N     67.16000000    34.36000000    25.19000000
   C     65.90000000    34.31000000    25.90000000
   C     64.71000000    34.93000000    25.18000000
   O     63.77000000    35.35000000    25.85000000
   C     66.17000000    34.76000000    27.34000000
   H     67.65000000    33.51000000    24.94000000
   H     65.83000000    33.23000000    25.95000000
   H     66.12000000    35.84000000    27.35000000
   H     65.43000000    34.35000000    28.03000000
   H     67.14000000    34.44000000    27.71000000
   N     64.76000000    35.05000000    23.85000000
   C     63.88000000    35.84000000    23.02000000
   C     63.40000000    35.01000000    21.84000000
   O     64.07000000    34.02000000    21.53000000
   C     64.48000000    37.21000000    22.70000000
   H     65.61000000    34.74000000    23.39000000
   H     62.99000000    35.97000000    23.63000000
   H     63.71000000    37.83000000    22.25000000
   H     64.70000000    37.66000000    23.67000000
   H     65.40000000    37.05000000    22.13000000
   N     62.38000000    35.48000000    21.12000000
   C     61.77000000    34.65000000    20.10000000
   C     61.40000000    33.23000000    20.49000000
   O     61.34000000    32.29000000    19.71000000
   C     62.40000000    34.86000000    18.72000000
   C     63.16000000    36.15000000    18.47000000
   C     63.76000000    36.14000000    17.07000000
   O     64.14000000    35.14000000    16.42000000
   O     63.86000000    37.23000000    16.46000000
   H     61.90000000    36.32000000    21.41000000
   H     60.79000000    35.09000000    19.90000000
   H     61.67000000    34.74000000    17.93000000
   H     63.06000000    34.01000000    18.53000000
   H     63.98000000    36.19000000    19.19000000
   H     62.49000000    37.00000000    18.57000000
   N     61.19000000    33.03000000    21.80000000
   C     60.72000000    31.82000000    22.43000000
   H     59.72700000    31.57600000    22.05200000
   H     61.40500000    31.00300000    22.20500000
   H     60.67100000    31.96700000    23.50900000
   H     61.31000000    33.87000000    22.35000000
  Ca     64.94000000    36.54000000    14.24000000
   O     66.51000000    38.60000000    14.63000000
   H     66.69000000    38.83000000    15.54000000
   H     67.08000000    39.17000000    14.12000000

Ca 1.70



