%chk=Ng-31_loop3_45.0.chk
%nprocshared=48
%mem=10GB
%nosave
#b3lyp/svp scf=(tight,noincore) Test 
#IOP(5/87=12) Density=Current Pop=(MK,readradii) iop(6/33=2) iop(6/42=6)

Ng-31_loop3_45.0 

   0   1
   C     54.34000000    57.01000000    45.63000000
   C     55.33000000    55.99000000    46.18000000
   O     55.26000000    54.82000000    45.82000000
   H     53.44800000    57.02400000    46.25600000
   H     54.79900000    57.99900000    45.63000000
   H     54.06400000    56.73700000    44.61200000
   N     56.33000000    56.57000000    46.84000000
   C     57.39000000    55.79000000    47.44000000
   C     57.05000000    55.35000000    48.86000000
   O     57.55000000    54.34000000    49.36000000
   C     58.73000000    56.51000000    47.46000000
   C     58.60000000    58.01000000    47.72000000
   O     59.59000000    58.73000000    47.43000000
   O     57.58000000    58.52000000    48.21000000
   H     56.32000000    57.58000000    46.94000000
   H     57.50000000    54.83000000    46.93000000
   H     59.26000000    56.32000000    46.52000000
   H     59.26000000    56.08000000    48.30000000
   N     56.21000000    56.13000000    49.55000000
   C     55.73000000    55.97000000    50.90000000
   C     56.84000000    55.74000000    51.92000000
   O     57.74000000    56.55000000    52.09000000
   C     54.83000000    57.16000000    51.24000000
   C     54.16000000    57.10000000    52.61000000
   C     53.03000000    58.13000000    52.61000000
   C     53.43000000    59.59000000    52.38000000
   N     54.53000000    60.00000000    53.26000000
   H     55.87000000    56.96000000    49.08000000
   H     55.07000000    55.11000000    50.81000000
   H     54.05000000    57.29000000    50.49000000
   H     55.45000000    58.02000000    51.00000000
   H     54.83000000    57.27000000    53.46000000
   H     53.88000000    56.05000000    52.58000000
   H     52.65000000    58.03000000    53.62000000
   H     52.26000000    57.94000000    51.86000000
   H     52.59000000    60.27000000    52.50000000
   H     53.75000000    59.66000000    51.34000000
   H     54.82000000    60.95000000    53.08000000
   H     54.31000000    59.81000000    54.23000000
   H     55.34000000    59.44000000    53.05000000
   N     56.79000000    54.55000000    52.53000000
   C     57.63000000    54.05000000    53.60000000
   C     58.41000000    52.85000000    53.07000000
   O     58.81000000    51.97000000    53.83000000
   C     56.81000000    53.64000000    54.82000000
   C     55.59000000    52.77000000    54.59000000
   O     54.62000000    53.12000000    53.88000000
   O     55.49000000    51.65000000    55.13000000
   H     56.08000000    53.89000000    52.25000000
   H     58.33000000    54.82000000    53.89000000
   H     56.35000000    54.56000000    55.20000000
   H     57.47000000    53.21000000    55.57000000
   N     58.71000000    52.73000000    51.78000000
   C     59.39000000    51.59000000    51.19000000
   C     60.90000000    51.55000000    51.40000000
   O     61.44000000    52.56000000    51.85000000
   H     58.32000000    53.46000000    51.20000000
   H     59.34000000    51.50000000    50.10000000
   H     58.99000000    50.68000000    51.63000000
   N     61.66000000    50.56000000    50.93000000
   C     61.32000000    49.29000000    50.32000000
   C     62.52000000    48.80000000    49.53000000
   O     63.54000000    48.33000000    50.04000000
   C     60.98000000    48.29000000    51.43000000
   C     60.41000000    47.02000000    50.82000000
   N     59.21000000    46.67000000    51.30000000
   O     60.93000000    46.36000000    49.93000000
   H     62.56000000    50.57000000    51.39000000
   H     60.50000000    49.36000000    49.61000000
   H     60.17000000    48.76000000    52.00000000
   H     61.88000000    48.05000000    51.98000000
   H     58.67000000    47.26000000    51.91000000
   H     58.78000000    45.95000000    50.74000000
   N     62.57000000    49.05000000    48.22000000
   C     61.67000000    49.82000000    47.39000000
   C     60.45000000    49.09000000    46.83000000
   O     59.63000000    49.80000000    46.25000000
   H     63.41000000    48.70000000    47.80000000
   H     62.18000000    50.12000000    46.48000000
   H     61.31000000    50.67000000    47.97000000
   N     60.23000000    47.79000000    46.98000000
   C     59.06000000    47.05000000    46.54000000
   C     57.81000000    47.31000000    47.37000000
   O     57.89000000    47.37000000    48.59000000
   C     59.40000000    45.56000000    46.43000000
   C     60.30000000    45.17000000    45.28000000
   C     59.95000000    45.40000000    43.94000000
   C     61.53000000    44.57000000    45.59000000
   C     60.85000000    45.14000000    42.91000000
   C     62.46000000    44.28000000    44.59000000
   C     62.11000000    44.61000000    43.26000000
   O     62.93000000    44.33000000    42.21000000
   H     60.89000000    47.30000000    47.57000000
   H     58.88000000    47.39000000    45.52000000
   H     58.43000000    45.10000000    46.23000000
   H     59.75000000    45.27000000    47.41000000
   H     58.94000000    45.71000000    43.74000000
   H     61.83000000    44.48000000    46.62000000
   H     60.55000000    45.08000000    41.87000000
   H     63.42000000    43.86000000    44.85000000
   H     63.76000000    43.90000000    42.43000000
   N     56.63000000    47.43000000    46.76000000
   C     55.39000000    47.93000000    47.34000000
   C     54.91000000    47.03000000    48.47000000
   O     54.79000000    45.81000000    48.32000000
   C     54.39000000    48.31000000    46.26000000
   C     54.50000000    49.74000000    45.74000000
   C     54.24000000    47.19000000    45.24000000
   C     55.80000000    50.01000000    44.98000000
   H     56.58000000    47.26000000    45.77000000
   H     55.60000000    48.90000000    47.78000000
   H     53.40000000    48.38000000    46.70000000
   H     54.38000000    50.49000000    46.52000000
   H     53.65000000    49.98000000    45.10000000
   H     53.53000000    47.59000000    44.53000000
   H     55.21000000    47.01000000    44.78000000
   H     53.88000000    46.23000000    45.63000000
   H     55.78000000    51.01000000    44.57000000
   H     56.62000000    49.89000000    45.68000000
   H     56.08000000    49.23000000    44.27000000
   N     54.55000000    47.63000000    49.60000000
   C     54.00000000    46.96000000    50.77000000
   C     52.70000000    46.21000000    50.54000000
   O     52.14000000    46.05000000    49.46000000
   C     55.14000000    46.21000000    51.45000000
   O     54.85000000    46.15000000    52.83000000
   H     54.67000000    48.63000000    49.68000000
   H     53.70000000    47.75000000    51.46000000
   H     56.05000000    46.80000000    51.36000000
   H     55.19000000    45.22000000    51.00000000
   H     55.05000000    45.27000000    53.18000000
   N     52.13000000    45.83000000    51.69000000
   C     50.78000000    45.33000000    51.83000000
   C     49.68000000    46.31000000    51.45000000
   O     49.57000000    47.39000000    52.04000000
   C     50.63000000    44.74000000    53.23000000
   H     52.53000000    45.97000000    52.61000000
   H     50.74000000    44.50000000    51.13000000
   H     51.42000000    44.11000000    53.64000000
   H     50.28000000    45.49000000    53.94000000
   H     49.76000000    44.09000000    53.16000000
   N     48.83000000    45.91000000    50.51000000
   C     47.65000000    46.54000000    49.94000000
   C     47.90000000    47.87000000    49.24000000
   O     47.11000000    48.78000000    49.49000000
   C     46.56000000    46.51000000    51.01000000
   H     49.02000000    45.02000000    50.06000000
   H     47.35000000    46.00000000    49.04000000
   H     46.87000000    47.22000000    51.77000000
   H     45.66000000    46.90000000    50.53000000
   H     46.26000000    45.52000000    51.34000000
   N     49.01000000    47.94000000    48.51000000
   C     49.45000000    49.13000000    47.80000000
   C     48.95000000    49.14000000    46.36000000
   O     48.65000000    50.20000000    45.84000000
   C     50.95000000    49.34000000    47.94000000
   C     51.40000000    49.83000000    49.32000000
   C     52.82000000    50.27000000    49.62000000
   O     53.29000000    50.06000000    50.76000000
   O     53.44000000    50.96000000    48.78000000
   H     49.57000000    47.11000000    48.43000000
   H     48.97000000    50.01000000    48.23000000
   H     51.20000000    50.09000000    47.19000000
   H     51.52000000    48.44000000    47.70000000
   H     51.25000000    48.99000000    50.00000000
   H     50.73000000    50.66000000    49.56000000
   N     48.89000000    47.98000000    45.69000000
   C     48.32000000    47.89000000    44.37000000
   H     47.43000000    48.51700000    44.31600000
   H     49.04900000    48.23000000    43.63500000
   H     48.04800000    46.85500000    44.16100000
   H     49.18000000    47.11000000    46.11000000
  Ca     53.63000000    50.95000000    53.17000000
   O     55.87000000    49.74000000    52.49000000
   H     56.61000000    49.44000000    53.02000000
   H     56.19000000    49.69000000    51.59000000

Ca 1.70



