%chk=Ng-31_loop3_29.0.chk
%nprocshared=48
%mem=10GB
%nosave
#b3lyp/svp scf=(tight,noincore) Test 
#IOP(5/87=12) Density=Current Pop=(MK,readradii) iop(6/33=2) iop(6/42=6)

Ng-31_loop3_29.0 

   0   1
   C     84.28000000    71.25000000    30.03000000
   C     83.74000000    70.47000000    31.22000000
   O     82.57000000    70.59000000    31.58000000
   H     85.29600000    70.92100000    29.81200000
   H     83.64700000    71.07200000    29.16100000
   H     84.28500000    72.31400000    30.26500000
   N     84.56000000    69.58000000    31.79000000
   C     84.07000000    68.56000000    32.69000000
   C     84.36000000    68.94000000    34.14000000
   O     83.70000000    68.35000000    35.00000000
   C     84.65000000    67.17000000    32.40000000
   C     86.13000000    66.98000000    32.10000000
   O     86.72000000    67.71000000    31.27000000
   O     86.65000000    66.00000000    32.66000000
   H     85.50000000    69.53000000    31.44000000
   H     83.00000000    68.41000000    32.55000000
   H     84.11000000    66.82000000    31.52000000
   H     84.36000000    66.37000000    33.09000000
   N     85.35000000    69.79000000    34.40000000
   C     85.76000000    70.17000000    35.74000000
   C     86.52000000    69.12000000    36.53000000
   O     87.44000000    68.50000000    36.02000000
   C     86.56000000    71.46000000    35.61000000
   C     85.77000000    72.63000000    35.02000000
   C     86.38000000    74.01000000    35.22000000
   C     85.50000000    75.19000000    34.83000000
   N     84.17000000    75.16000000    35.45000000
   H     85.77000000    70.28000000    33.62000000
   H     84.87000000    70.46000000    36.31000000
   H     87.52000000    71.25000000    35.12000000
   H     86.76000000    71.89000000    36.59000000
   H     84.85000000    72.61000000    35.60000000
   H     85.69000000    72.64000000    33.93000000
   H     87.33000000    74.04000000    34.68000000
   H     86.60000000    74.24000000    36.26000000
   H     85.27000000    75.26000000    33.76000000
   H     86.00000000    76.13000000    35.05000000
   H     83.68000000    74.30000000    35.25000000
   H     84.24000000    75.17000000    36.46000000
   H     83.69000000    76.03000000    35.28000000
   N     86.16000000    68.86000000    37.80000000
   C     86.62000000    67.76000000    38.62000000
   C     85.62000000    66.61000000    38.64000000
   O     85.69000000    65.68000000    39.44000000
   C     87.08000000    68.21000000    40.00000000
   C     85.99000000    68.97000000    40.75000000
   O     84.90000000    69.31000000    40.23000000
   O     86.10000000    69.22000000    41.97000000
   H     85.45000000    69.46000000    38.20000000
   H     87.49000000    67.26000000    38.19000000
   H     87.87000000    68.95000000    39.88000000
   H     87.41000000    67.37000000    40.61000000
   N     84.67000000    66.65000000    37.70000000
   C     83.73000000    65.57000000    37.48000000
   C     84.34000000    64.26000000    36.99000000
   O     85.31000000    64.26000000    36.23000000
   H     84.45000000    67.47000000    37.16000000
   H     82.96000000    65.84000000    36.76000000
   H     83.14000000    65.48000000    38.39000000
   N     83.85000000    63.06000000    37.30000000
   C     82.54000000    62.85000000    37.90000000
   C     81.73000000    61.83000000    37.12000000
   O     81.55000000    60.74000000    37.66000000
   C     82.61000000    62.54000000    39.39000000
   C     83.14000000    63.65000000    40.29000000
   N     84.38000000    63.54000000    40.77000000
   O     82.40000000    64.49000000    40.80000000
   H     84.34000000    62.32000000    36.83000000
   H     81.94000000    63.76000000    37.82000000
   H     83.12000000    61.58000000    39.43000000
   H     81.62000000    62.32000000    39.78000000
   H     84.82000000    62.67000000    40.52000000
   H     84.80000000    64.11000000    41.49000000
   N     81.25000000    61.96000000    35.88000000
   C     81.51000000    63.07000000    34.99000000
   C     80.60000000    64.27000000    35.21000000
   O     81.14000000    65.37000000    35.20000000
   H     80.61000000    61.26000000    35.53000000
   H     81.41000000    62.66000000    33.99000000
   H     82.49000000    63.54000000    35.08000000
   N     79.31000000    64.08000000    35.50000000
   C     78.47000000    65.07000000    36.16000000
   C     78.60000000    65.00000000    37.67000000
   O     79.08000000    63.99000000    38.17000000
   C     77.00000000    64.99000000    35.77000000
   C     76.74000000    65.21000000    34.30000000
   C     76.95000000    66.49000000    33.76000000
   C     76.37000000    64.13000000    33.49000000
   C     76.67000000    66.71000000    32.41000000
   C     76.09000000    64.33000000    32.13000000
   C     76.33000000    65.61000000    31.59000000
   O     76.05000000    65.88000000    30.28000000
   H     78.91000000    63.15000000    35.52000000
   H     78.83000000    66.07000000    35.94000000
   H     76.52000000    65.84000000    36.25000000
   H     76.63000000    64.01000000    36.06000000
   H     77.35000000    67.31000000    34.34000000
   H     76.30000000    63.14000000    33.92000000
   H     76.91000000    67.69000000    32.01000000
   H     75.60000000    63.55000000    31.57000000
   H     75.76000000    65.19000000    29.68000000
   N     78.34000000    66.14000000    38.32000000
   C     78.72000000    66.42000000    39.69000000
   C     77.60000000    66.18000000    40.70000000
   O     77.94000000    65.76000000    41.80000000
   C     79.24000000    67.85000000    39.76000000
   C     80.74000000    68.02000000    39.48000000
   C     78.36000000    68.84000000    39.01000000
   C     81.07000000    67.65000000    38.04000000
   H     77.91000000    66.90000000    37.81000000
   H     79.57000000    65.83000000    40.04000000
   H     79.12000000    68.14000000    40.80000000
   H     81.33000000    67.38000000    40.14000000
   H     80.96000000    69.05000000    39.73000000
   H     78.29000000    68.57000000    37.96000000
   H     77.33000000    68.91000000    39.38000000
   H     78.90000000    69.78000000    39.09000000
   H     80.40000000    68.08000000    37.29000000
   H     82.08000000    68.03000000    37.89000000
   H     81.06000000    66.57000000    37.96000000
   N     76.31000000    66.38000000    40.43000000
   C     75.19000000    66.18000000    41.33000000
   C     75.02000000    67.49000000    42.10000000
   O     74.91000000    68.56000000    41.51000000
   C     73.82000000    65.90000000    40.71000000
   O     73.86000000    64.69000000    39.98000000
   H     76.08000000    66.86000000    39.57000000
   H     75.45000000    65.41000000    42.06000000
   H     73.61000000    66.76000000    40.07000000
   H     73.11000000    65.91000000    41.52000000
   H     73.85000000    65.03000000    39.08000000
   N     75.01000000    67.37000000    43.43000000
   C     74.43000000    68.23000000    44.43000000
   C     75.48000000    69.09000000    45.10000000
   O     76.65000000    68.72000000    45.26000000
   C     73.73000000    67.32000000    45.44000000
   H     75.33000000    66.47000000    43.75000000
   H     73.75000000    68.87000000    43.87000000
   H     73.67000000    67.93000000    46.35000000
   H     72.68000000    67.26000000    45.15000000
   H     74.17000000    66.33000000    45.56000000
   N     75.13000000    70.27000000    45.63000000
   C     75.98000000    71.23000000    46.30000000
   C     77.26000000    71.53000000    45.55000000
   O     78.37000000    71.48000000    46.09000000
   C     76.19000000    70.82000000    47.76000000
   H     74.19000000    70.59000000    45.45000000
   H     75.41000000    72.16000000    46.29000000
   H     76.89000000    69.99000000    47.78000000
   H     76.53000000    71.56000000    48.48000000
   H     75.28000000    70.36000000    48.15000000
   N     77.10000000    71.72000000    44.24000000
   C     78.15000000    71.78000000    43.24000000
   C     77.85000000    72.90000000    42.25000000
   O     78.67000000    73.80000000    42.10000000
   C     78.18000000    70.45000000    42.50000000
   C     79.09000000    69.45000000    43.21000000
   C     80.55000000    69.46000000    42.80000000
   O     81.01000000    70.34000000    42.03000000
   O     81.29000000    68.54000000    43.21000000
   H     76.13000000    71.72000000    43.94000000
   H     79.10000000    71.96000000    43.75000000
   H     78.61000000    70.50000000    41.50000000
   H     77.19000000    70.00000000    42.48000000
   H     78.68000000    68.46000000    43.03000000
   H     79.00000000    69.55000000    44.29000000
   N     76.64000000    72.97000000    41.70000000
   C     76.33000000    74.02000000    40.76000000
   H     75.47600000    74.59100000    41.12300000
   H     77.19100000    74.68100000    40.65600000
   H     76.08800000    73.58200000    39.79200000
   H     75.94000000    72.32000000    42.04000000
  Ca     83.61000000    69.48000000    42.69000000
   O     82.68000000    70.68000000    44.79000000
   H     82.35000000    70.40000000    45.64000000
   H     82.80000000    71.62000000    44.87000000

Ca 1.70



