%chk=Ng-31_loop3_46.0.chk
%nprocshared=48
%mem=10GB
%nosave
#b3lyp/svp scf=(tight,noincore) Test 
#IOP(5/87=12) Density=Current Pop=(MK,readradii) iop(6/33=2) iop(6/42=6)

Ng-31_loop3_46.0 

   0   1
   C     85.21000000    72.19000000    29.02000000
   C     84.68000000    71.43000000    30.23000000
   O     83.75000000    71.92000000    30.86000000
   H     86.22700000    71.86400000    28.80400000
   H     84.57400000    71.99000000    28.15800000
   H     85.20900000    73.25900000    29.23300000
   N     85.21000000    70.25000000    30.58000000
   C     84.65000000    69.40000000    31.61000000
   C     85.13000000    69.78000000    33.01000000
   O     84.50000000    69.33000000    33.97000000
   C     84.97000000    67.92000000    31.39000000
   C     86.44000000    67.63000000    31.11000000
   O     87.32000000    68.52000000    31.10000000
   O     86.82000000    66.53000000    30.66000000
   H     86.10000000    69.95000000    30.21000000
   H     83.58000000    69.51000000    31.50000000
   H     84.42000000    67.63000000    30.50000000
   H     84.56000000    67.31000000    32.20000000
   N     86.07000000    70.72000000    33.09000000
   C     86.40000000    71.35000000    34.35000000
   C     87.16000000    70.46000000    35.32000000
   O     88.12000000    69.84000000    34.87000000
   C     87.18000000    72.63000000    34.04000000
   C     86.36000000    73.66000000    33.27000000
   C     87.03000000    75.03000000    33.30000000
   C     86.23000000    76.03000000    32.48000000
   N     86.79000000    77.39000000    32.35000000
   H     86.49000000    71.06000000    32.23000000
   H     85.48000000    71.70000000    34.83000000
   H     88.13000000    72.38000000    33.56000000
   H     87.47000000    72.99000000    35.03000000
   H     85.45000000    73.82000000    33.85000000
   H     86.05000000    73.34000000    32.28000000
   H     88.06000000    74.88000000    32.96000000
   H     87.04000000    75.37000000    34.33000000
   H     85.30000000    76.15000000    33.03000000
   H     86.18000000    75.60000000    31.48000000
   H     86.00000000    77.98000000    32.17000000
   H     87.04000000    77.71000000    33.28000000
   H     87.55000000    77.48000000    31.69000000
   N     86.54000000    70.23000000    36.48000000
   C     86.79000000    69.16000000    37.42000000
   C     85.65000000    68.15000000    37.40000000
   O     85.65000000    67.26000000    38.25000000
   C     87.10000000    69.64000000    38.84000000
   C     86.08000000    70.63000000    39.40000000
   O     85.01000000    70.79000000    38.79000000
   O     86.43000000    71.37000000    40.35000000
   H     85.74000000    70.82000000    36.64000000
   H     87.61000000    68.71000000    36.87000000
   H     88.02000000    70.21000000    38.76000000
   H     87.20000000    68.77000000    39.48000000
   N     84.79000000    68.12000000    36.39000000
   C     83.88000000    67.01000000    36.15000000
   C     84.59000000    65.87000000    35.43000000
   O     85.75000000    65.88000000    35.03000000
   H     84.91000000    68.90000000    35.76000000
   H     83.16000000    67.35000000    35.42000000
   H     83.30000000    66.75000000    37.04000000
   N     83.90000000    64.77000000    35.11000000
   C     82.49000000    64.56000000    35.36000000
   C     81.92000000    63.93000000    34.10000000
   O     81.71000000    62.72000000    34.07000000
   C     82.22000000    63.73000000    36.61000000
   C     82.64000000    64.49000000    37.87000000
   N     83.89000000    64.50000000    38.32000000
   O     81.83000000    65.26000000    38.38000000
   H     84.41000000    64.10000000    34.55000000
   H     82.03000000    65.54000000    35.49000000
   H     82.78000000    62.79000000    36.58000000
   H     81.16000000    63.53000000    36.69000000
   H     84.54000000    63.79000000    38.03000000
   H     84.03000000    64.86000000    39.26000000
   N     81.52000000    64.70000000    33.08000000
   C     81.69000000    66.14000000    33.03000000
   C     80.52000000    66.97000000    33.53000000
   O     80.69000000    68.15000000    33.85000000
   H     81.16000000    64.20000000    32.28000000
   H     81.77000000    66.31000000    31.95000000
   H     82.57000000    66.42000000    33.60000000
   N     79.36000000    66.35000000    33.77000000
   C     78.29000000    66.85000000    34.61000000
   C     78.51000000    66.32000000    36.02000000
   O     79.23000000    65.34000000    36.22000000
   C     76.92000000    66.45000000    34.07000000
   C     76.61000000    66.75000000    32.62000000
   C     76.49000000    68.07000000    32.16000000
   C     76.47000000    65.69000000    31.72000000
   C     76.36000000    68.31000000    30.78000000
   C     76.23000000    65.91000000    30.36000000
   C     76.19000000    67.24000000    29.89000000
   O     76.10000000    67.54000000    28.56000000
   H     79.29000000    65.44000000    33.35000000
   H     78.27000000    67.94000000    34.63000000
   H     76.14000000    66.82000000    34.73000000
   H     76.83000000    65.37000000    34.22000000
   H     76.44000000    68.88000000    32.86000000
   H     76.67000000    64.66000000    31.97000000
   H     76.23000000    69.33000000    30.45000000
   H     76.24000000    65.12000000    29.63000000
   H     75.77000000    66.83000000    28.00000000
   N     78.02000000    67.14000000    36.95000000
   C     78.63000000    67.26000000    38.26000000
   C     77.66000000    67.04000000    39.41000000
   O     78.21000000    66.73000000    40.46000000
   C     79.49000000    68.52000000    38.36000000
   C     80.75000000    68.35000000    37.51000000
   C     78.75000000    69.81000000    38.05000000
   C     81.83000000    69.42000000    37.67000000
   H     77.31000000    67.81000000    36.71000000
   H     79.32000000    66.43000000    38.40000000
   H     79.76000000    68.65000000    39.41000000
   H     80.55000000    68.48000000    36.44000000
   H     81.24000000    67.41000000    37.73000000
   H     78.68000000    69.98000000    36.97000000
   H     77.76000000    69.81000000    38.50000000
   H     79.24000000    70.71000000    38.42000000
   H     82.06000000    69.62000000    38.72000000
   H     82.71000000    69.12000000    37.11000000
   H     81.43000000    70.39000000    37.39000000
   N     76.33000000    67.12000000    39.32000000
   C     75.32000000    66.66000000    40.25000000
   C     74.90000000    67.83000000    41.12000000
   O     74.40000000    68.83000000    40.61000000
   C     74.18000000    66.07000000    39.42000000
   O     74.70000000    64.98000000    38.69000000
   H     76.01000000    67.45000000    38.42000000
   H     75.81000000    65.92000000    40.88000000
   H     73.83000000    66.82000000    38.71000000
   H     73.52000000    65.73000000    40.22000000
   H     74.12000000    64.89000000    37.92000000
   N     74.91000000    67.70000000    42.45000000
   C     74.57000000    68.71000000    43.43000000
   C     75.79000000    69.43000000    44.00000000
   O     76.91000000    68.92000000    43.91000000
   C     73.58000000    68.09000000    44.42000000
   H     75.27000000    66.81000000    42.78000000
   H     74.07000000    69.53000000    42.91000000
   H     72.58000000    68.04000000    43.98000000
   H     73.88000000    67.06000000    44.64000000
   H     73.56000000    68.70000000    45.32000000
   N     75.68000000    70.55000000    44.71000000
   C     76.75000000    71.35000000    45.28000000
   C     77.94000000    71.73000000    44.41000000
   O     79.03000000    71.86000000    44.97000000
   C     77.03000000    70.72000000    46.64000000
   H     74.76000000    70.91000000    44.91000000
   H     76.36000000    72.32000000    45.58000000
   H     77.48000000    69.73000000    46.56000000
   H     77.88000000    71.20000000    47.12000000
   H     76.09000000    70.64000000    47.19000000
   N     77.73000000    71.78000000    43.09000000
   C     78.80000000    72.23000000    42.23000000
   C     78.35000000    73.33000000    41.27000000
   O     79.21000000    73.95000000    40.65000000
   C     79.35000000    71.01000000    41.50000000
   C     80.31000000    70.16000000    42.33000000
   C     81.66000000    70.77000000    42.69000000
   O     82.23000000    71.50000000    41.86000000
   O     82.43000000    70.20000000    43.50000000
   H     76.78000000    71.65000000    42.76000000
   H     79.62000000    72.61000000    42.84000000
   H     79.83000000    71.35000000    40.58000000
   H     78.48000000    70.37000000    41.33000000
   H     80.56000000    69.29000000    41.72000000
   H     79.88000000    69.87000000    43.29000000
   N     77.07000000    73.54000000    40.99000000
   C     76.56000000    74.44000000    39.97000000
   H     75.66100000    74.93400000    40.33900000
   H     77.31600000    75.19000000    39.73500000
   H     76.31900000    73.87200000    39.07100000
   H     76.36000000    72.94000000    41.40000000
  Ca     84.82000000    71.43000000    42.23000000
   O     87.03000000    72.63000000    42.92000000
   H     87.19000000    73.43000000    43.43000000
   H     87.67000000    72.00000000    43.25000000

Ca 1.70



