%chk=Ng-31_loop3_6.0.chk
%nprocshared=48
%mem=10GB
%nosave
#b3lyp/svp scf=(tight,noincore) Test 
#IOP(5/87=12) Density=Current Pop=(MK,readradii) iop(6/33=2) iop(6/42=6)

Ng-31_loop3_6.0 

   0   1
   C      0.41400000    48.02000000    25.19000000
   C      1.39400000    49.09000000    24.73000000
   O      1.10400000    49.84000000    23.81000000
   H     -0.51500000    48.11400000    24.62800000
   H      0.84500000    47.03400000    25.01700000
   H      0.20900000    48.14700000    26.25300000
   N      2.53400000    49.14000000    25.41000000
   C      3.66400000    50.05000000    25.34000000
   C      4.92400000    49.39000000    24.82000000
   O      5.07400000    48.17000000    24.74000000
   C      3.89400000    50.67000000    26.72000000
   C      4.27400000    49.72000000    27.85000000
   O      3.46400000    49.40000000    28.74000000
   O      5.44400000    49.28000000    27.85000000
   H      2.52400000    48.49000000    26.18000000
   H      3.32400000    50.85000000    24.68000000
   H      3.00400000    51.21000000    27.04000000
   H      4.70400000    51.37000000    26.54000000
   N      5.82400000    50.25000000    24.34000000
   C      7.14400000    49.85000000    23.89000000
   C      7.20400000    49.16000000    22.53000000
   O      8.19400000    48.53000000    22.17000000
   C      8.05400000    51.06000000    24.00000000
   C      8.15400000    51.49000000    25.46000000
   C      9.35400000    52.40000000    25.70000000
   C      9.48400000    52.53000000    27.22000000
   N     10.66400000    53.33000000    27.56000000
   H      5.57400000    51.23000000    24.28000000
   H      7.44400000    49.00000000    24.51000000
   H      7.80400000    51.89000000    23.34000000
   H      9.00400000    50.66000000    23.64000000
   H      8.32400000    50.59000000    26.05000000
   H      7.31400000    52.09000000    25.81000000
   H      9.22400000    53.32000000    25.15000000
   H     10.22400000    51.91000000    25.25000000
   H      9.62400000    51.53000000    27.61000000
   H      8.63400000    52.97000000    27.75000000
   H     10.65400000    53.49000000    28.55000000
   H     11.48400000    52.79000000    27.34000000
   H     10.62400000    54.22000000    27.08000000
   N      6.02400000    49.12000000    21.90000000
   C      5.61400000    48.50000000    20.67000000
   C      5.82400000    49.40000000    19.46000000
   O      6.22400000    48.90000000    18.41000000
   C      4.15400000    48.05000000    20.73000000
   C      3.13400000    49.05000000    21.26000000
   O      1.95400000    48.83000000    20.90000000
   O      3.49400000    50.13000000    21.79000000
   H      5.28400000    49.67000000    22.31000000
   H      6.26400000    47.65000000    20.46000000
   H      4.08400000    47.17000000    21.36000000
   H      3.82400000    47.78000000    19.72000000
   N      5.63400000    50.71000000    19.62000000
   C      5.43400000    51.78000000    18.65000000
   C      4.00400000    52.29000000    18.66000000
   O      3.16400000    51.75000000    19.38000000
   H      5.67400000    51.02000000    20.58000000
   H      5.61400000    51.51000000    17.61000000
   H      6.02400000    52.66000000    18.88000000
   N      3.62400000    53.24000000    17.80000000
   C      4.39400000    53.92000000    16.78000000
   C      3.50400000    54.42000000    15.66000000
   O      2.62400000    55.22000000    15.99000000
   C      5.13400000    55.05000000    17.49000000
   C      6.13400000    55.84000000    16.66000000
   N      7.01400000    56.64000000    17.27000000
   O      6.13400000    55.81000000    15.43000000
   H      2.68400000    53.59000000    17.95000000
   H      5.13400000    53.27000000    16.33000000
   H      5.56400000    54.79000000    18.46000000
   H      4.41400000    55.80000000    17.83000000
   H      7.07400000    56.78000000    18.27000000
   H      7.74400000    57.09000000    16.73000000
   N      3.65400000    54.18000000    14.35000000
   C      4.44400000    53.09000000    13.80000000
   C      3.93400000    51.69000000    14.09000000
   O      3.60400000    51.38000000    15.24000000
   H      2.99400000    54.62000000    13.73000000
   H      5.47400000    53.17000000    14.15000000
   H      4.53400000    53.24000000    12.73000000
   N      4.07400000    50.80000000    13.10000000
   C      3.84400000    49.37000000    13.09000000
   C      5.00400000    48.63000000    12.44000000
   O      4.79400000    47.76000000    11.59000000
   C      2.50400000    49.05000000    12.43000000
   C      1.31400000    49.81000000    12.94000000
   C      0.47400000    49.36000000    13.98000000
   C      1.08400000    51.12000000    12.50000000
   C     -0.43600000    50.19000000    14.65000000
   C      0.09400000    51.96000000    13.03000000
   C     -0.64600000    51.48000000    14.13000000
   O     -1.45600000    52.34000000    14.81000000
   H      4.47400000    51.07000000    12.22000000
   H      3.72400000    48.94000000    14.09000000
   H      2.30400000    48.00000000    12.61000000
   H      2.60400000    49.19000000    11.35000000
   H      0.58400000    48.37000000    14.37000000
   H      1.71400000    51.54000000    11.74000000
   H     -0.97600000    49.90000000    15.54000000
   H     -0.06600000    53.00000000    12.78000000
   H     -1.57600000    53.16000000    14.33000000
   N      6.26400000    48.95000000    12.73000000
   C      7.37400000    48.59000000    11.87000000
   C      7.68400000    47.10000000    11.88000000
   O      8.63400000    46.72000000    11.21000000
   C      8.56400000    49.49000000    12.17000000
   C      8.43400000    51.01000000    12.11000000
   C      9.19400000    49.18000000    13.53000000
   C      9.69400000    51.85000000    12.24000000
   H      6.51400000    49.53000000    13.51000000
   H      7.08400000    48.83000000    10.84000000
   H      9.27400000    49.20000000    11.40000000
   H      7.62400000    51.28000000    12.80000000
   H      8.09400000    51.30000000    11.11000000
   H     10.08400000    49.77000000    13.75000000
   H      8.56400000    49.39000000    14.39000000
   H      9.42400000    48.11000000    13.61000000
   H      9.50400000    52.92000000    12.24000000
   H     10.19400000    51.77000000    13.21000000
   H     10.34400000    51.58000000    11.41000000
   N      7.02400000    46.26000000    12.68000000
   C      7.41400000    44.86000000    12.73000000
   C      7.60400000    44.30000000    14.14000000
   O      8.21400000    43.26000000    14.32000000
   C      6.44400000    44.06000000    11.87000000
   O      6.71400000    42.68000000    11.76000000
   H      6.19400000    46.56000000    13.18000000
   H      8.39400000    44.75000000    12.28000000
   H      6.39400000    44.40000000    10.83000000
   H      5.47400000    44.23000000    12.33000000
   H      5.96400000    42.33000000    11.27000000
   N      7.12400000    45.00000000    15.17000000
   C      7.42400000    44.80000000    16.58000000
   C      6.44400000    43.92000000    17.35000000
   O      6.08400000    44.21000000    18.49000000
   C      7.58400000    46.16000000    17.24000000
   H      6.60400000    45.83000000    14.94000000
   H      8.33400000    44.21000000    16.64000000
   H      8.32400000    46.80000000    16.75000000
   H      6.65400000    46.72000000    17.15000000
   H      7.93400000    45.99000000    18.25000000
   N      6.01400000    42.82000000    16.72000000
   C      5.02400000    41.88000000    17.22000000
   C      3.72400000    42.56000000    17.64000000
   O      3.16400000    42.30000000    18.69000000
   C      5.73400000    40.94000000    18.20000000
   H      6.26400000    42.78000000    15.75000000
   H      4.74400000    41.34000000    16.33000000
   H      4.97400000    40.33000000    18.67000000
   H      6.53400000    40.36000000    17.74000000
   H      6.15400000    41.43000000    19.08000000
   N      3.22400000    43.52000000    16.85000000
   C      2.38400000    44.58000000    17.36000000
   C      0.96400000    44.53000000    16.82000000
   O      0.12400000    45.29000000    17.31000000
   C      2.89400000    46.00000000    17.13000000
   C      2.86400000    46.52000000    15.70000000
   C      3.96400000    45.91000000    14.84000000
   O      3.98400000    44.72000000    14.46000000
   O      4.83400000    46.77000000    14.57000000
   H      3.61400000    43.51000000    15.92000000
   H      2.20400000    44.61000000    18.44000000
   H      3.90400000    46.13000000    17.51000000
   H      2.18400000    46.57000000    17.73000000
   H      3.02400000    47.60000000    15.72000000
   H      1.86400000    46.47000000    15.26000000
   N      0.61400000    43.68000000    15.85000000
   C     -0.73600000    43.39000000    15.42000000
   H     -1.37100000    44.25600000    15.61000000
   H     -0.73800000    43.16500000    14.35300000
   H     -1.11800000    42.53200000    15.97300000
   H      1.36400000    43.18000000    15.40000000
  Ca      1.32000000    51.35000000    21.37000000
   O     -1.09600000    51.40000000    22.18000000
   H     -1.59600000    52.19000000    21.96000000
   H     -1.73600000    50.83000000    22.62000000

Ca 1.70



