%chk=Ng-31_loop3_14.0.chk
%nprocshared=48
%mem=10GB
%nosave
#b3lyp/svp scf=(tight,noincore) Test 
#IOP(5/87=12) Density=Current Pop=(MK,readradii) iop(6/33=2) iop(6/42=6)

Ng-31_loop3_14.0 

   0   1
   C     88.17000000    73.95000000    28.91000000
   C     87.35000000    73.33000000    30.03000000
   O     86.27000000    73.79000000    30.38000000
   H     89.15500000    73.48300000    28.88000000
   H     87.66400000    73.79100000    27.95800000
   H     88.28100000    75.01900000    29.08900000
   N     87.89000000    72.28000000    30.66000000
   C     87.22000000    71.57000000    31.73000000
   C     87.55000000    71.96000000    33.17000000
   O     86.82000000    71.54000000    34.06000000
   C     87.43000000    70.06000000    31.66000000
   C     88.83000000    69.48000000    31.54000000
   O     89.64000000    70.19000000    30.91000000
   O     89.04000000    68.28000000    31.85000000
   H     88.74000000    71.89000000    30.28000000
   H     86.15000000    71.72000000    31.59000000
   H     87.02000000    69.65000000    30.73000000
   H     86.88000000    69.66000000    32.51000000
   N     88.62000000    72.72000000    33.41000000
   C     88.86000000    73.38000000    34.68000000
   C     89.20000000    72.33000000    35.73000000
   O     89.90000000    71.36000000    35.49000000
   C     89.91000000    74.46000000    34.45000000
   C     89.34000000    75.82000000    34.04000000
   C     90.43000000    76.85000000    33.77000000
   C     89.90000000    78.15000000    33.17000000
   N     89.32000000    79.01000000    34.20000000
   H     89.16000000    73.04000000    32.62000000
   H     87.97000000    73.91000000    35.03000000
   H     90.64000000    74.09000000    33.73000000
   H     90.49000000    74.69000000    35.34000000
   H     88.69000000    76.19000000    34.83000000
   H     88.65000000    75.62000000    33.22000000
   H     91.05000000    76.36000000    33.02000000
   H     90.99000000    76.94000000    34.71000000
   H     89.20000000    77.86000000    32.38000000
   H     90.80000000    78.53000000    32.69000000
   H     88.78000000    79.72000000    33.73000000
   H     88.75000000    78.41000000    34.78000000
   H     89.95000000    79.46000000    34.85000000
   N     88.70000000    72.61000000    36.94000000
   C     88.72000000    71.62000000    38.00000000
   C     87.69000000    70.50000000    37.95000000
   O     87.42000000    69.79000000    38.92000000
   C     88.62000000    72.38000000    39.33000000
   C     87.37000000    73.24000000    39.42000000
   O     87.41000000    74.38000000    38.90000000
   O     86.32000000    72.76000000    39.89000000
   H     88.24000000    73.49000000    37.13000000
   H     89.74000000    71.24000000    37.99000000
   H     89.41000000    73.12000000    39.46000000
   H     88.63000000    71.75000000    40.22000000
   N     86.98000000    70.48000000    36.82000000
   C     86.02000000    69.45000000    36.46000000
   C     86.57000000    68.11000000    36.01000000
   O     87.78000000    67.92000000    36.16000000
   H     87.18000000    71.14000000    36.09000000
   H     85.38000000    69.87000000    35.69000000
   H     85.39000000    69.29000000    37.33000000
   N     85.74000000    67.11000000    35.71000000
   C     84.29000000    67.06000000    35.63000000
   C     83.78000000    66.42000000    34.35000000
   O     83.74000000    65.19000000    34.28000000
   C     83.81000000    66.25000000    36.83000000
   C     84.29000000    66.77000000    38.18000000
   N     85.38000000    66.26000000    38.76000000
   O     83.63000000    67.64000000    38.75000000
   H     86.23000000    66.30000000    35.37000000
   H     83.82000000    68.03000000    35.80000000
   H     84.23000000    65.25000000    36.75000000
   H     82.73000000    66.38000000    36.78000000
   H     85.81000000    65.53000000    38.20000000
   H     85.95000000    66.71000000    39.45000000
   N     83.20000000    67.16000000    33.40000000
   C     83.34000000    68.58000000    33.17000000
   C     82.41000000    69.42000000    34.03000000
   O     82.81000000    70.49000000    34.50000000
   H     82.82000000    66.66000000    32.62000000
   H     83.23000000    68.90000000    32.13000000
   H     84.32000000    68.92000000    33.49000000
   N     81.14000000    69.03000000    34.18000000
   C     80.15000000    69.76000000    34.95000000
   C     80.60000000    69.74000000    36.40000000
   O     81.18000000    68.83000000    36.98000000
   C     78.84000000    69.06000000    34.60000000
   C     78.28000000    69.38000000    33.23000000
   C     77.99000000    70.69000000    32.84000000
   C     77.96000000    68.32000000    32.37000000
   C     77.41000000    70.97000000    31.60000000
   C     77.59000000    68.60000000    31.05000000
   C     77.23000000    69.91000000    30.68000000
   O     76.85000000    70.14000000    29.39000000
   H     80.82000000    68.21000000    33.69000000
   H     80.19000000    70.76000000    34.52000000
   H     78.12000000    69.48000000    35.30000000
   H     78.99000000    68.00000000    34.76000000
   H     78.26000000    71.50000000    33.50000000
   H     78.17000000    67.31000000    32.67000000
   H     77.30000000    72.01000000    31.32000000
   H     77.41000000    67.81000000    30.34000000
   H     76.78000000    69.34000000    28.87000000
   N     80.06000000    70.77000000    37.06000000
   C     80.44000000    71.21000000    38.39000000
   C     79.42000000    70.93000000    39.49000000
   O     79.72000000    70.87000000    40.68000000
   C     80.82000000    72.69000000    38.37000000
   C     82.05000000    73.06000000    37.54000000
   C     79.62000000    73.54000000    37.98000000
   C     83.34000000    72.31000000    37.86000000
   H     79.42000000    71.31000000    36.49000000
   H     81.25000000    70.58000000    38.75000000
   H     81.18000000    72.98000000    39.36000000
   H     82.31000000    74.11000000    37.66000000
   H     81.82000000    72.90000000    36.48000000
   H     79.38000000    73.45000000    36.92000000
   H     78.74000000    73.25000000    38.56000000
   H     79.86000000    74.57000000    38.25000000
   H     84.16000000    72.76000000    37.30000000
   H     83.54000000    72.38000000    38.92000000
   H     83.23000000    71.26000000    37.56000000
   N     78.18000000    70.62000000    39.12000000
   C     77.19000000    70.03000000    40.00000000
   C     76.49000000    71.12000000    40.79000000
   O     76.04000000    72.11000000    40.23000000
   C     76.24000000    69.23000000    39.11000000
   O     75.59000000    68.27000000    39.91000000
   H     78.03000000    70.70000000    38.12000000
   H     77.65000000    69.31000000    40.69000000
   H     76.81000000    68.73000000    38.32000000
   H     75.59000000    69.87000000    38.52000000
   H     75.24000000    67.51000000    39.42000000
   N     76.65000000    70.99000000    42.11000000
   C     75.85000000    71.81000000    43.00000000
   C     76.78000000    72.69000000    43.83000000
   O     77.86000000    72.30000000    44.25000000
   C     75.04000000    70.93000000    43.95000000
   H     77.18000000    70.20000000    42.44000000
   H     75.06000000    72.34000000    42.48000000
   H     75.69000000    70.53000000    44.72000000
   H     74.43000000    71.68000000    44.46000000
   H     74.36000000    70.19000000    43.53000000
   N     76.19000000    73.86000000    44.11000000
   C     76.80000000    75.00000000    44.75000000
   C     78.07000000    75.44000000    44.04000000
   O     79.04000000    75.74000000    44.73000000
   C     76.93000000    74.66000000    46.23000000
   H     75.29000000    74.07000000    43.68000000
   H     76.11000000    75.84000000    44.63000000
   H     77.44000000    75.45000000    46.77000000
   H     75.92000000    74.78000000    46.61000000
   H     77.40000000    73.68000000    46.37000000
   N     78.00000000    75.46000000    42.71000000
   C     79.09000000    76.01000000    41.92000000
   C     78.62000000    76.80000000    40.71000000
   O     79.12000000    77.92000000    40.59000000
   C     80.08000000    74.91000000    41.55000000
   C     81.47000000    75.43000000    41.18000000
   C     82.60000000    74.46000000    41.50000000
   O     82.53000000    73.74000000    42.51000000
   O     83.55000000    74.28000000    40.70000000
   H     77.12000000    75.19000000    42.28000000
   H     79.62000000    76.76000000    42.50000000
   H     79.70000000    74.43000000    40.64000000
   H     80.09000000    74.27000000    42.43000000
   H     81.77000000    76.39000000    41.60000000
   H     81.51000000    75.57000000    40.10000000
   N     77.56000000    76.45000000    39.97000000
   C     76.93000000    77.38000000    39.05000000
   H     76.01700000    77.77100000    39.49800000
   H     77.61300000    78.20300000    38.84000000
   H     76.68600000    76.86400000    38.12100000
   H     77.09000000    75.58000000    40.14000000
  Ca     84.75000000    72.24000000    41.81000000
   O     87.04000000    71.76000000    42.99000000
   H     86.73000000    71.69000000    43.89000000
   H     87.72000000    72.44000000    43.02000000

Ca 1.70



