%chk=Ng-31_loop3_4.0.chk
%nprocshared=48
%mem=10GB
%nosave
#b3lyp/svp scf=(tight,noincore) Test 
#IOP(5/87=12) Density=Current Pop=(MK,readradii) iop(6/33=2) iop(6/42=6)

Ng-31_loop3_4.0 

   0   1
   C     -2.23700000    28.51000000    97.57700000
   C     -0.76700000    28.74000000    97.21700000
   O     -0.30700000    29.81000000    96.81700000
   H     -2.85200000    28.62700000    96.68500000
   H     -2.36100000    27.50200000    97.97300000
   H     -2.54600000    29.23700000    98.32800000
   N      0.03300000    27.70000000    97.43700000
   C      1.38300000    27.33000000    97.03700000
   C      1.42300000    26.52000000    95.74700000
   O      0.57300000    25.70000000    95.39700000
   C      2.04300000    26.51000000    98.14700000
   C      1.26300000    25.36000000    98.76700000
   O      0.06300000    25.10000000    98.55700000
   O      1.88300000    24.59000000    99.53700000
   H     -0.56700000    26.90000000    97.59700000
   H      1.95300000    28.23000000    96.83700000
   H      2.27300000    27.22000000    98.93700000
   H      3.01300000    26.14000000    97.83700000
   N      2.44300000    26.87000000    94.96700000
   C      2.87300000    26.22000000    93.73700000
   C      2.45300000    26.99000000    92.49700000
   O      2.84300000    26.70000000    91.36700000
   C      4.35300000    25.83000000    93.72700000
   C      4.98300000    25.18000000    94.94700000
   C      4.22300000    23.94000000    95.41700000
   C      4.91300000    23.17000000    96.54700000
   N      6.24300000    22.63000000    96.21700000
   H      3.01300000    27.65000000    95.26700000
   H      2.43300000    25.23000000    93.70700000
   H      4.97300000    26.68000000    93.44700000
   H      4.46300000    25.22000000    92.81700000
   H      5.08300000    25.86000000    95.79700000
   H      5.99300000    24.89000000    94.65700000
   H      4.03300000    23.26000000    94.58700000
   H      3.22300000    24.22000000    95.74700000
   H      4.20300000    22.41000000    96.88700000
   H      5.05300000    23.87000000    97.36700000
   H      6.66300000    22.30000000    97.07700000
   H      6.31300000    21.91000000    95.51700000
   H      6.87300000    23.34000000    95.87700000
   N      1.62300000    28.02000000    92.63700000
   C      1.46300000    29.05000000    91.63700000
   C      2.64300000    30.00000000    91.70700000
   O      3.50300000    29.99000000    90.82700000
   C      0.07300000    29.69000000    91.76700000
   C     -0.44700000    30.06000000    93.14700000
   O     -1.68700000    30.07000000    93.29700000
   O      0.37300000    30.47000000    93.99700000
   H      1.44300000    28.27000000    93.60700000
   H      1.46300000    28.55000000    90.67700000
   H     -0.62700000    29.07000000    91.21700000
   H      0.05300000    30.63000000    91.21700000
   N      2.80300000    30.74000000    92.80700000
   C      3.90300000    31.63000000    93.12700000
   C      3.90300000    32.09000000    94.57700000
   O      3.05300000    31.70000000    95.36700000
   H      2.02300000    30.78000000    93.45700000
   H      3.87300000    32.57000000    92.56700000
   H      4.88300000    31.23000000    92.87700000
   N      4.93300000    32.84000000    94.97700000
   C      5.77300000    33.76000000    94.23700000
   C      5.82300000    35.03000000    95.06700000
   O      5.84300000    34.90000000    96.28700000
   C      7.12300000    33.17000000    93.84700000
   C      8.00300000    32.77000000    95.02700000
   N      8.14300000    31.45000000    95.16700000
   O      8.63300000    33.58000000    95.69700000
   H      4.84300000    33.15000000    95.92700000
   H      5.26300000    34.10000000    93.32700000
   H      7.64300000    33.89000000    93.21700000
   H      7.05300000    32.30000000    93.19700000
   H      7.60300000    30.80000000    94.61700000
   H      8.72300000    31.18000000    95.94700000
   N      5.86300000    36.25000000    94.53700000
   C      5.48300000    36.57000000    93.16700000
   C      4.02300000    36.31000000    92.81700000
   O      3.16300000    35.97000000    93.61700000
   H      5.97300000    37.00000000    95.20700000
   H      6.07300000    35.97000000    92.46700000
   H      5.81300000    37.59000000    93.00700000
   N      3.67300000    36.62000000    91.55700000
   C      2.42300000    36.52000000    90.84700000
   C      2.50300000    35.85000000    89.47700000
   O      3.48300000    36.04000000    88.75700000
   C      1.83300000    37.90000000    90.55700000
   C      1.29300000    38.61000000    91.77700000
   C     -0.07700000    38.55000000    92.06700000
   C      2.07300000    39.39000000    92.63700000
   C     -0.69700000    39.20000000    93.14700000
   C      1.51300000    40.01000000    93.75700000
   C      0.12300000    39.98000000    93.98700000
   O     -0.41700000    40.71000000    95.00700000
   H      4.45300000    36.99000000    91.03700000
   H      1.60300000    36.14000000    91.45700000
   H      1.08300000    37.86000000    89.77700000
   H      2.71300000    38.48000000    90.25700000
   H     -0.66700000    38.00000000    91.34700000
   H      3.14300000    39.41000000    92.47700000
   H     -1.72700000    39.03000000    93.41700000
   H      2.12300000    40.65000000    94.38700000
   H      0.32300000    41.22000000    95.34700000
   N      1.43300000    35.17000000    89.07700000
   C      1.23300000    34.53000000    87.79700000
   C      0.19300000    35.21000000    86.91700000
   O      0.28300000    35.09000000    85.69700000
   C      1.05300000    33.03000000    88.01700000
   C      2.29300000    32.39000000    88.62700000
   C     -0.20700000    32.64000000    88.78700000
   C      3.59300000    32.41000000    87.84700000
   H      0.68300000    35.07000000    89.75700000
   H      2.14300000    34.63000000    87.21700000
   H      0.95300000    32.56000000    87.03700000
   H      2.03300000    31.33000000    88.62700000
   H      2.34300000    32.72000000    89.66700000
   H     -0.46700000    31.58000000    88.76700000
   H     -0.04700000    32.88000000    89.83700000
   H     -1.02700000    33.20000000    88.34700000
   H      3.37300000    32.10000000    86.82700000
   H      3.97300000    33.44000000    87.88700000
   H      4.38300000    31.79000000    88.26700000
   N     -0.70700000    36.03000000    87.46700000
   C     -1.73700000    36.81000000    86.80700000
   C     -2.94700000    36.04000000    86.29700000
   O     -3.72700000    36.59000000    85.52700000
   C     -2.22700000    37.91000000    87.74700000
   O     -2.85700000    37.43000000    88.90700000
   H     -0.73700000    35.96000000    88.46700000
   H     -1.19700000    37.39000000    86.05700000
   H     -2.92700000    38.56000000    87.20700000
   H     -1.33700000    38.50000000    87.94700000
   H     -2.22700000    36.90000000    89.41700000
   N     -3.20700000    34.79000000    86.67700000
   C     -4.44700000    34.06000000    86.49700000
   C     -4.81700000    33.20000000    87.69700000
   O     -3.94700000    32.47000000    88.15700000
   C     -4.21700000    33.12000000    85.30700000
   H     -2.55700000    34.37000000    87.33700000
   H     -5.22700000    34.78000000    86.24700000
   H     -3.41700000    32.42000000    85.54700000
   H     -5.12700000    32.60000000    85.01700000
   H     -3.86700000    33.75000000    84.49700000
   N     -6.09700000    33.22000000    88.08700000
   C     -6.74700000    32.53000000    89.18700000
   C     -5.91700000    32.28000000    90.43700000
   O     -6.32700000    31.46000000    91.25700000
   C     -7.42700000    31.29000000    88.60700000
   H     -6.74700000    33.74000000    87.51700000
   H     -7.49700000    33.25000000    89.49700000
   H     -8.10700000    30.94000000    89.38700000
   H     -7.95700000    31.57000000    87.69700000
   H     -6.66700000    30.52000000    88.42700000
   N     -4.85700000    33.06000000    90.66700000
   C     -4.17700000    33.04000000    91.94700000
   C     -4.88700000    33.76000000    93.08700000
   O     -4.71700000    33.43000000    94.26700000
   C     -2.69700000    33.39000000    91.79700000
   C     -2.60700000    34.92000000    91.79700000
   C     -1.24700000    35.31000000    91.23700000
   O     -0.26700000    34.95000000    91.93700000
   O     -1.20700000    35.81000000    90.09700000
   H     -4.42700000    33.61000000    89.94700000
   H     -4.18700000    31.98000000    92.19700000
   H     -2.28700000    33.00000000    90.86700000
   H     -2.10700000    33.01000000    92.62700000
   H     -2.65700000    35.32000000    92.80700000
   H     -3.40700000    35.33000000    91.18700000
   N     -5.67700000    34.78000000    92.73700000
   C     -6.52700000    35.50000000    93.65700000
   H     -7.49300000    35.00000000    93.72500000
   H     -6.06100000    35.52200000    94.64200000
   H     -6.67000000    36.51900000    93.29900000
   H     -5.92700000    34.79000000    91.76700000
  Ca      0.43000000    32.16000000    95.91000000
   O     -1.97700000    32.11000000    95.03000000
   H     -1.91700000    31.30000000    94.53000000
   H     -2.84700000    32.44000000    94.85000000

Ca 1.70



