%chk=Ng-31_loop3_48.0.chk
%nprocshared=48
%mem=10GB
%nosave
#b3lyp/svp scf=(tight,noincore) Test 
#IOP(5/87=12) Density=Current Pop=(MK,readradii) iop(6/33=2) iop(6/42=6)

Ng-31_loop3_48.0 

   0   1
   C     84.61000000    75.18000000    25.94000000
   C     86.11000000    74.98000000    26.09000000
   O     86.56000000    74.11000000    26.83000000
   H     84.13000000    75.06700000    26.91200000
   H     84.41300000    76.17900000    25.55200000
   H     84.21100000    74.43600000    25.25000000
   N     86.97000000    75.82000000    25.49000000
   C     88.40000000    75.70000000    25.69000000
   C     88.83000000    75.91000000    27.14000000
   O     89.30000000    75.08000000    27.91000000
   C     89.13000000    76.63000000    24.73000000
   C     88.47000000    77.99000000    24.51000000
   O     87.41000000    78.40000000    25.03000000
   O     89.11000000    78.78000000    23.78000000
   H     86.61000000    76.54000000    24.88000000
   H     88.68000000    74.67000000    25.48000000
   H     88.99000000    76.17000000    23.75000000
   H     90.18000000    76.69000000    24.99000000
   N     88.50000000    77.10000000    27.63000000
   C     89.09000000    77.84000000    28.73000000
   C     90.61000000    77.89000000    28.65000000
   O     91.14000000    78.71000000    27.91000000
   C     88.38000000    79.19000000    28.80000000
   C     88.32000000    79.83000000    30.18000000
   C     87.69000000    81.21000000    30.02000000
   C     87.88000000    82.03000000    31.29000000
   N     87.66000000    83.42000000    30.88000000
   H     87.74000000    77.54000000    27.11000000
   H     88.90000000    77.25000000    29.63000000
   H     87.33000000    79.05000000    28.52000000
   H     88.88000000    79.85000000    28.09000000
   H     89.33000000    80.00000000    30.55000000
   H     87.78000000    79.18000000    30.86000000
   H     86.63000000    81.19000000    29.76000000
   H     88.17000000    81.77000000    29.22000000
   H     88.90000000    81.89000000    31.65000000
   H     87.17000000    81.75000000    32.07000000
   H     88.53000000    83.81000000    30.56000000
   H     86.97000000    83.27000000    30.15000000
   H     87.41000000    83.99000000    31.68000000
   N     91.34000000    77.07000000    29.41000000
   C     92.78000000    76.92000000    29.50000000
   C     93.34000000    76.18000000    28.30000000
   O     94.46000000    76.49000000    27.93000000
   C     93.13000000    76.10000000    30.73000000
   C     92.41000000    74.77000000    30.89000000
   O     92.84000000    73.94000000    31.72000000
   O     91.30000000    74.62000000    30.32000000
   H     90.86000000    76.30000000    29.85000000
   H     93.17000000    77.94000000    29.50000000
   H     93.00000000    76.69000000    31.64000000
   H     94.20000000    75.86000000    30.73000000
   N     92.52000000    75.36000000    27.63000000
   C     92.81000000    74.70000000    26.37000000
   C     92.88000000    75.66000000    25.19000000
   O     92.79000000    76.88000000    25.27000000
   H     91.63000000    75.19000000    28.07000000
   H     92.17000000    73.85000000    26.13000000
   H     93.77000000    74.19000000    26.48000000
   N     92.84000000    75.20000000    23.94000000
   C     92.92000000    73.83000000    23.46000000
   C     91.57000000    73.14000000    23.43000000
   O     90.52000000    73.78000000    23.51000000
   C     93.56000000    73.83000000    22.07000000
   C     93.71000000    72.53000000    21.29000000
   N     92.77000000    72.35000000    20.36000000
   O     94.63000000    71.72000000    21.32000000
   H     92.74000000    75.95000000    23.28000000
   H     93.60000000    73.24000000    24.07000000
   H     94.53000000    74.32000000    22.16000000
   H     92.93000000    74.50000000    21.49000000
   H     92.09000000    73.06000000    20.10000000
   H     92.92000000    71.54000000    19.78000000
   N     91.45000000    71.81000000    23.52000000
   C     92.44000000    70.77000000    23.70000000
   C     92.01000000    69.80000000    24.80000000
   O     91.03000000    69.98000000    25.51000000
   H     90.50000000    71.47000000    23.42000000
   H     93.40000000    71.15000000    24.05000000
   H     92.54000000    70.27000000    22.74000000
   N     92.99000000    68.92000000    25.03000000
   C     92.84000000    67.84000000    25.98000000
   C     94.11000000    67.79000000    26.82000000
   O     95.22000000    67.65000000    26.31000000
   C     92.61000000    66.49000000    25.29000000
   C     91.52000000    66.29000000    24.27000000
   C     90.36000000    65.59000000    24.61000000
   C     91.79000000    66.76000000    22.98000000
   C     89.47000000    65.20000000    23.61000000
   C     90.79000000    66.55000000    22.02000000
   C     89.66000000    65.78000000    22.34000000
   O     88.63000000    65.68000000    21.45000000
   H     93.86000000    69.00000000    24.52000000
   H     92.00000000    68.10000000    26.62000000
   H     92.37000000    65.82000000    26.11000000
   H     93.47000000    66.00000000    24.85000000
   H     90.22000000    65.36000000    25.66000000
   H     92.73000000    67.23000000    22.74000000
   H     88.55000000    64.66000000    23.83000000
   H     91.11000000    66.93000000    21.06000000
   H     88.64000000    66.29000000    20.71000000
   N     93.92000000    67.58000000    28.12000000
   C     94.98000000    67.53000000    29.10000000
   C     95.00000000    66.12000000    29.70000000
   O     95.85000000    65.80000000    30.53000000
   C     94.72000000    68.60000000    30.16000000
   C     93.60000000    68.21000000    31.11000000
   C     95.90000000    69.08000000    30.99000000
   C     93.06000000    69.32000000    32.01000000
   H     93.01000000    67.81000000    28.49000000
   H     95.93000000    67.76000000    28.60000000
   H     94.37000000    69.52000000    29.69000000
   H     93.91000000    67.37000000    31.73000000
   H     92.73000000    67.84000000    30.57000000
   H     96.36000000    68.37000000    31.68000000
   H     96.71000000    69.34000000    30.31000000
   H     95.70000000    70.06000000    31.43000000
   H     92.14000000    69.02000000    32.52000000
   H     93.87000000    69.78000000    32.57000000
   H     92.67000000    70.18000000    31.46000000
   N     94.00000000    65.28000000    29.44000000
   C     93.93000000    63.88000000    29.80000000
   C     93.01000000    63.51000000    30.96000000
   O     92.97000000    62.37000000    31.41000000
   C     93.42000000    63.15000000    28.56000000
   O     94.29000000    63.46000000    27.50000000
   H     93.34000000    65.63000000    28.76000000
   H     94.95000000    63.61000000    30.08000000
   H     92.45000000    63.62000000    28.38000000
   H     93.32000000    62.09000000    28.79000000
   H     95.18000000    63.58000000    27.84000000
   N     92.30000000    64.46000000    31.58000000
   C     91.68000000    64.27000000    32.87000000
   C     90.63000000    65.33000000    33.14000000
   O     90.94000000    66.50000000    32.95000000
   C     92.70000000    64.24000000    34.00000000
   H     92.35000000    65.42000000    31.27000000
   H     91.15000000    63.31000000    32.81000000
   H     92.27000000    64.54000000    34.96000000
   H     93.18000000    63.26000000    34.07000000
   H     93.42000000    65.03000000    33.78000000
   N     89.49000000    64.90000000    33.70000000
   C     88.44000000    65.63000000    34.37000000
   C     87.77000000    66.72000000    33.54000000
   O     87.14000000    67.59000000    34.13000000
   C     88.98000000    66.11000000    35.71000000
   H     89.53000000    63.90000000    33.84000000
   H     87.61000000    64.99000000    34.67000000
   H     88.29000000    66.70000000    36.32000000
   H     89.33000000    65.26000000    36.30000000
   H     89.79000000    66.79000000    35.46000000
   N     87.78000000    66.63000000    32.21000000
   C     87.38000000    67.66000000    31.27000000
   C     86.15000000    67.25000000    30.47000000
   O     85.29000000    68.07000000    30.16000000
   C     88.52000000    67.91000000    30.28000000
   C     89.64000000    68.78000000    30.83000000
   C     89.38000000    70.27000000    30.65000000
   O     90.19000000    71.04000000    30.09000000
   O     88.44000000    70.79000000    31.29000000
   H     88.24000000    65.81000000    31.84000000
   H     87.14000000    68.61000000    31.74000000
   H     88.24000000    68.44000000    29.37000000
   H     88.95000000    66.95000000    29.99000000
   H     90.55000000    68.50000000    30.30000000
   H     89.85000000    68.61000000    31.88000000
   N     85.92000000    65.96000000    30.20000000
   C     84.70000000    65.28000000    29.82000000
   H     83.92900000    66.01700000    29.59400000
   H     84.88500000    64.66600000    28.93800000
   H     84.36600000    64.64600000    30.64100000
   H     86.70000000    65.33000000    30.33000000
  Ca     89.13000000    73.19000000    30.54000000
   O     87.92000000    72.17000000    28.44000000
   H     87.57000000    72.69000000    27.71000000
   H     87.45000000    71.34000000    28.38000000

Ca 1.70



