%chk=holoCaM_loop3_3.0.chk
%nprocshared=48
%mem=10GB
%nosave
#b3lyp/svp scf=(tight,noincore) Test 
#IOP(5/87=12) Density=Current Pop=(MK,readradii) iop(6/33=2) iop(6/42=6)

holoCaM_loop3_3.0 

   0   1
   C     43.72000000    43.61000000    30.18000000
   C     44.00000000    43.10000000    31.59000000
   O     43.93000000    43.84000000    32.57000000
   H     42.93700000    44.36700000    30.21700000
   H     44.62800000    44.04700000    29.76400000
   H     43.39400000    42.78100000    29.55100000
   N     44.47000000    41.85000000    31.70000000
   C     44.76000000    41.18000000    32.95000000
   C     45.85000000    41.99000000    33.63000000
   O     46.85000000    42.35000000    33.01000000
   C     45.24000000    39.76000000    32.65000000
   C     45.44000000    38.96000000    33.93000000
   O     45.41000000    39.49000000    35.06000000
   O     45.65000000    37.73000000    33.85000000
   H     44.64000000    41.34000000    30.84000000
   H     43.82000000    41.17000000    33.51000000
   H     46.10000000    39.69000000    31.98000000
   H     44.43000000    39.26000000    32.11000000
   N     45.71000000    42.44000000    34.88000000
   C     46.55000000    43.34000000    35.64000000
   C     47.93000000    42.78000000    35.96000000
   O     48.94000000    43.48000000    35.95000000
   C     45.87000000    43.88000000    36.90000000
   C     46.78000000    44.84000000    37.66000000
   C     46.05000000    45.38000000    38.89000000
   C     46.95000000    45.99000000    39.96000000
   N     47.66000000    47.16000000    39.41000000
   H     44.91000000    42.12000000    35.41000000
   H     46.71000000    44.23000000    35.02000000
   H     45.63000000    43.09000000    37.62000000
   H     44.95000000    44.40000000    36.66000000
   H     47.24000000    45.63000000    37.06000000
   H     47.60000000    44.26000000    38.06000000
   H     45.39000000    44.63000000    39.34000000
   H     45.35000000    46.16000000    38.58000000
   H     47.60000000    45.21000000    40.33000000
   H     46.31000000    46.30000000    40.79000000
   H     47.10000000    47.88000000    38.97000000
   H     48.21000000    47.57000000    40.15000000
   H     48.41000000    46.87000000    38.80000000
   N     48.10000000    41.46000000    35.98000000
   C     49.31000000    40.71000000    36.24000000
   C     49.61000000    39.67000000    35.17000000
   O     50.76000000    39.26000000    35.11000000
   C     49.28000000    40.04000000    37.61000000
   C     47.99000000    39.39000000    38.08000000
   O     47.00000000    39.35000000    37.32000000
   O     48.00000000    38.93000000    39.25000000
   H     47.28000000    40.87000000    36.10000000
   H     50.12000000    41.44000000    36.22000000
   H     49.49000000    40.85000000    38.31000000
   H     50.04000000    39.29000000    37.83000000
   N     48.64000000    39.10000000    34.45000000
   C     48.73000000    38.04000000    33.47000000
   C     48.57000000    36.67000000    34.12000000
   O     49.16000000    35.70000000    33.64000000
   H     47.73000000    39.47000000    34.69000000
   H     49.74000000    38.05000000    33.06000000
   H     47.94000000    38.07000000    32.72000000
   N     47.88000000    36.62000000    35.26000000
   C     47.60000000    35.44000000    36.06000000
   C     46.49000000    34.54000000    35.54000000
   O     46.41000000    33.42000000    36.05000000
   C     47.43000000    35.77000000    37.54000000
   C     45.98000000    36.08000000    37.86000000
   N     45.42000000    35.57000000    38.96000000
   O     45.31000000    36.88000000    37.21000000
   H     47.42000000    37.45000000    35.63000000
   H     48.55000000    34.91000000    35.99000000
   H     48.15000000    36.54000000    37.83000000
   H     47.71000000    34.85000000    38.05000000
   H     45.84000000    34.94000000    39.62000000
   H     44.53000000    35.94000000    39.27000000
   N     45.88000000    34.87000000    34.41000000
   C     44.83000000    34.20000000    33.67000000
   C     43.45000000    34.46000000    34.27000000
   O     42.51000000    33.73000000    33.97000000
   H     46.07000000    35.82000000    34.11000000
   H     44.90000000    33.12000000    33.80000000
   H     44.93000000    34.63000000    32.68000000
   N     43.30000000    35.61000000    34.94000000
   C     41.99000000    36.03000000    35.39000000
   C     41.80000000    37.53000000    35.28000000
   O     42.78000000    38.26000000    35.42000000
   C     41.73000000    35.52000000    36.81000000
   C     41.69000000    34.03000000    37.03000000
   C     42.42000000    33.42000000    38.06000000
   C     40.84000000    33.24000000    36.24000000
   C     42.42000000    32.03000000    38.19000000
   C     40.83000000    31.85000000    36.39000000
   C     41.65000000    31.21000000    37.35000000
   O     41.61000000    29.86000000    37.51000000
   H     44.14000000    36.14000000    35.13000000
   H     41.21000000    35.53000000    34.81000000
   H     40.82000000    35.94000000    37.23000000
   H     42.53000000    35.89000000    37.45000000
   H     42.99000000    34.04000000    38.73000000
   H     40.29000000    33.71000000    35.43000000
   H     43.03000000    31.57000000    38.96000000
   H     40.30000000    31.18000000    35.73000000
   H     41.16000000    29.44000000    36.77000000
   N     40.58000000    38.00000000    35.02000000
   C     40.11000000    39.37000000    34.90000000
   C     39.05000000    39.40000000    36.00000000
   O     38.07000000    38.66000000    35.94000000
   C     39.58000000    39.80000000    33.54000000
   C     40.75000000    40.13000000    32.61000000
   C     38.80000000    41.10000000    33.68000000
   C     40.31000000    40.53000000    31.20000000
   H     39.85000000    37.30000000    34.95000000
   H     40.91000000    40.05000000    35.16000000
   H     38.96000000    39.04000000    33.06000000
   H     41.38000000    39.25000000    32.52000000
   H     41.36000000    40.93000000    33.03000000
   H     37.87000000    40.98000000    34.23000000
   H     39.48000000    41.91000000    33.95000000
   H     38.44000000    41.42000000    32.70000000
   H     41.25000000    40.45000000    30.66000000
   H     39.60000000    39.81000000    30.79000000
   H     39.87000000    41.52000000    31.22000000
   N     39.17000000    40.36000000    36.92000000
   C     38.16000000    40.77000000    37.87000000
   C     37.30000000    41.93000000    37.38000000
   O     37.46000000    42.46000000    36.29000000
   C     38.89000000    41.10000000    39.17000000
   O     39.82000000    42.15000000    39.02000000
   H     39.99000000    40.95000000    36.84000000
   H     37.46000000    39.97000000    38.13000000
   H     39.38000000    40.22000000    39.58000000
   H     38.13000000    41.45000000    39.87000000
   H     40.56000000    41.80000000    38.53000000
   N     36.30000000    42.36000000    38.16000000
   C     35.50000000    43.55000000    37.95000000
   C     36.37000000    44.79000000    37.80000000
   O     36.27000000    45.54000000    36.83000000
   C     34.54000000    43.65000000    39.12000000
   H     36.04000000    41.84000000    38.99000000
   H     34.99000000    43.45000000    36.99000000
   H     33.80000000    44.42000000    38.88000000
   H     33.86000000    42.80000000    39.13000000
   H     35.07000000    43.90000000    40.04000000
   N     37.37000000    44.96000000    38.67000000
   C     38.26000000    46.10000000    38.65000000
   C     39.17000000    46.04000000    37.43000000
   O     39.92000000    46.99000000    37.24000000
   C     39.05000000    46.16000000    39.95000000
   H     37.53000000    44.27000000    39.39000000
   H     37.60000000    46.96000000    38.50000000
   H     38.37000000    46.13000000    40.80000000
   H     39.80000000    45.38000000    40.02000000
   H     39.52000000    47.13000000    40.15000000
   N     39.25000000    44.96000000    36.65000000
   C     40.01000000    44.78000000    35.42000000
   C     39.11000000    44.91000000    34.20000000
   O     39.52000000    45.36000000    33.14000000
   C     40.68000000    43.41000000    35.53000000
   C     41.89000000    43.37000000    36.45000000
   C     42.38000000    41.95000000    36.67000000
   O     43.42000000    41.49000000    36.14000000
   O     41.81000000    41.25000000    37.54000000
   H     38.53000000    44.26000000    36.72000000
   H     40.80000000    45.52000000    35.35000000
   H     41.17000000    43.04000000    34.63000000
   H     39.88000000    42.75000000    35.87000000
   H     41.68000000    43.83000000    37.41000000
   H     42.72000000    43.95000000    36.05000000
   N     37.82000000    44.57000000    34.34000000
   C     36.78000000    44.68000000    33.34000000
   H     35.93900000    45.23800000    33.75100000
   H     37.16900000    45.20200000    32.46600000
   H     36.44700000    43.68300000    33.05000000
   H     37.58000000    44.04000000    35.16000000
  Ca     44.45000000    39.34000000    37.33000000
   O     42.45000000    38.38000000    38.74000000
   H     41.50000000    38.49000000    38.73000000
   H     42.62000000    37.83000000    39.51000000

Ca 1.70



