%chk=holoCaM_loop3_27.0.chk
%nprocshared=48
%mem=10GB
%nosave
#b3lyp/svp scf=(tight,noincore) Test 
#IOP(5/87=12) Density=Current Pop=(MK,readradii) iop(6/33=2) iop(6/42=6)

holoCaM_loop3_27.0 

   0   1
   C     46.81000000    40.13000000    24.57000000
   C     47.27000000    39.25000000    25.73000000
   O     47.12000000    39.64000000    26.88000000
   H     45.93000000    40.69700000    24.87200000
   H     47.60900000    40.81900000    24.29700000
   H     46.56100000    39.50300000    23.71400000
   N     47.80000000    38.07000000    25.40000000
   C     48.64000000    37.30000000    26.29000000
   C     50.07000000    37.79000000    26.48000000
   O     50.86000000    37.86000000    25.54000000
   C     48.67000000    35.92000000    25.63000000
   C     49.52000000    34.89000000    26.36000000
   O     50.17000000    35.18000000    27.39000000
   O     49.42000000    33.72000000    25.94000000
   H     47.85000000    37.84000000    24.42000000
   H     48.26000000    37.28000000    27.31000000
   H     49.07000000    36.13000000    24.63000000
   H     47.64000000    35.65000000    25.44000000
   N     50.37000000    38.40000000    27.63000000
   C     51.47000000    39.31000000    27.82000000
   C     52.83000000    38.66000000    27.63000000
   O     53.77000000    39.44000000    27.49000000
   C     51.32000000    39.98000000    29.18000000
   C     50.33000000    41.13000000    29.36000000
   C     50.53000000    42.37000000    28.48000000
   C     51.85000000    43.10000000    28.71000000
   N     52.03000000    44.35000000    27.96000000
   H     49.73000000    38.31000000    28.41000000
   H     51.49000000    40.05000000    27.01000000
   H     52.29000000    40.33000000    29.54000000
   H     51.15000000    39.25000000    29.96000000
   H     50.28000000    41.34000000    30.43000000
   H     49.34000000    40.73000000    29.15000000
   H     49.63000000    42.97000000    28.58000000
   H     50.51000000    41.89000000    27.51000000
   H     52.67000000    42.42000000    28.48000000
   H     51.95000000    43.37000000    29.76000000
   H     52.72000000    44.95000000    28.40000000
   H     52.45000000    44.08000000    27.08000000
   H     51.14000000    44.82000000    27.95000000
   N     52.98000000    37.33000000    27.57000000
   C     54.11000000    36.48000000    27.26000000
   C     53.98000000    35.68000000    25.96000000
   O     54.89000000    35.01000000    25.48000000
   C     54.55000000    35.65000000    28.46000000
   C     53.44000000    35.05000000    29.31000000
   O     53.78000000    33.94000000    29.77000000
   O     52.36000000    35.62000000    29.61000000
   H     52.17000000    36.82000000    27.90000000
   H     54.92000000    37.15000000    27.00000000
   H     55.23000000    36.16000000    29.14000000
   H     55.13000000    34.82000000    28.04000000
   N     52.77000000    35.57000000    25.42000000
   C     52.38000000    34.72000000    24.31000000
   C     52.42000000    33.22000000    24.54000000
   O     52.69000000    32.48000000    23.60000000
   H     52.01000000    36.08000000    25.86000000
   H     53.10000000    34.91000000    23.51000000
   H     51.33000000    34.93000000    24.11000000
   N     52.35000000    32.77000000    25.80000000
   C     52.63000000    31.42000000    26.22000000
   C     51.44000000    30.49000000    25.98000000
   O     51.56000000    29.27000000    26.05000000
   C     53.10000000    31.51000000    27.66000000
   C     52.04000000    31.62000000    28.75000000
   N     52.17000000    30.88000000    29.85000000
   O     51.12000000    32.44000000    28.75000000
   H     52.04000000    33.40000000    26.53000000
   H     53.38000000    31.01000000    25.54000000
   H     53.86000000    32.30000000    27.72000000
   H     53.63000000    30.60000000    27.93000000
   H     52.98000000    30.28000000    29.91000000
   H     51.49000000    30.90000000    30.59000000
   N     50.31000000    31.07000000    25.58000000
   C     49.08000000    30.43000000    25.16000000
   C     47.85000000    30.71000000    26.01000000
   O     46.79000000    30.23000000    25.62000000
   H     50.29000000    32.08000000    25.62000000
   H     49.12000000    29.37000000    24.90000000
   H     48.92000000    30.98000000    24.24000000
   N     47.99000000    31.44000000    27.12000000
   C     46.95000000    31.57000000    28.13000000
   C     46.81000000    32.95000000    28.75000000
   O     47.85000000    33.54000000    29.01000000
   C     47.01000000    30.51000000    29.23000000
   C     47.47000000    29.14000000    28.81000000
   C     48.82000000    28.77000000    28.72000000
   C     46.57000000    28.09000000    28.59000000
   C     49.24000000    27.49000000    28.34000000
   C     46.96000000    26.77000000    28.33000000
   C     48.32000000    26.43000000    28.18000000
   O     48.79000000    25.22000000    27.75000000
   H     48.86000000    31.93000000    27.22000000
   H     46.00000000    31.34000000    27.65000000
   H     46.00000000    30.39000000    29.60000000
   H     47.62000000    30.93000000    30.03000000
   H     49.60000000    29.43000000    29.07000000
   H     45.51000000    28.26000000    28.63000000
   H     50.30000000    27.32000000    28.31000000
   H     46.19000000    26.01000000    28.28000000
   H     48.09000000    24.56000000    27.77000000
   N     45.58000000    33.36000000    29.06000000
   C     45.23000000    34.58000000    29.76000000
   C     44.74000000    34.22000000    31.16000000
   O     44.01000000    33.26000000    31.37000000
   C     44.46000000    35.56000000    28.88000000
   C     45.11000000    35.86000000    27.53000000
   C     44.03000000    36.89000000    29.50000000
   C     44.31000000    36.62000000    26.47000000
   H     44.80000000    32.72000000    29.01000000
   H     46.14000000    35.13000000    30.00000000
   H     43.55000000    35.03000000    28.57000000
   H     45.43000000    34.95000000    27.02000000
   H     45.96000000    36.45000000    27.85000000
   H     43.23000000    37.31000000    28.88000000
   H     43.52000000    36.65000000    30.43000000
   H     44.83000000    37.62000000    29.59000000
   H     44.26000000    37.66000000    26.82000000
   H     44.72000000    36.57000000    25.47000000
   H     43.27000000    36.33000000    26.49000000
   N     45.13000000    35.05000000    32.13000000
   C     44.75000000    34.90000000    33.52000000
   C     43.90000000    36.02000000    34.11000000
   O     43.61000000    36.96000000    33.37000000
   C     46.06000000    34.81000000    34.30000000
   O     46.84000000    35.98000000    34.19000000
   H     45.68000000    35.85000000    31.86000000
   H     44.16000000    33.99000000    33.56000000
   H     46.62000000    33.94000000    33.97000000
   H     45.84000000    34.67000000    35.36000000
   H     47.74000000    35.70000000    34.39000000
   N     43.52000000    36.03000000    35.39000000
   C     42.85000000    37.15000000    36.02000000
   C     43.57000000    38.47000000    35.78000000
   O     43.03000000    39.49000000    35.34000000
   C     42.53000000    36.86000000    37.48000000
   H     43.75000000    35.26000000    36.00000000
   H     41.92000000    37.20000000    35.45000000
   H     42.01000000    35.90000000    37.52000000
   H     43.41000000    36.90000000    38.13000000
   H     41.86000000    37.68000000    37.74000000
   N     44.88000000    38.46000000    36.05000000
   C     45.72000000    39.63000000    35.99000000
   C     45.99000000    40.16000000    34.58000000
   O     46.40000000    41.31000000    34.47000000
   C     47.02000000    39.23000000    36.68000000
   H     45.31000000    37.59000000    36.30000000
   H     45.17000000    40.42000000    36.51000000
   H     47.63000000    40.12000000    36.86000000
   H     46.85000000    38.77000000    37.65000000
   H     47.58000000    38.52000000    36.07000000
   N     45.88000000    39.26000000    33.60000000
   C     46.08000000    39.67000000    32.23000000
   C     44.78000000    40.11000000    31.56000000
   O     44.80000000    41.09000000    30.80000000
   C     46.78000000    38.55000000    31.47000000
   C     48.24000000    38.31000000    31.84000000
   C     48.87000000    37.15000000    31.10000000
   O     49.19000000    37.20000000    29.89000000
   O     48.86000000    36.01000000    31.62000000
   H     45.74000000    38.29000000    33.83000000
   H     46.68000000    40.58000000    32.19000000
   H     46.91000000    38.85000000    30.43000000
   H     46.23000000    37.61000000    31.52000000
   H     48.40000000    38.14000000    32.91000000
   H     48.89000000    39.16000000    31.62000000
   N     43.61000000    39.53000000    31.83000000
   C     42.31000000    39.89000000    31.31000000
   H     41.62200000    40.05700000    32.13800000
   H     42.39400000    40.80200000    30.71900000
   H     41.93300000    39.08300000    30.68200000
   H     43.59000000    38.71000000    32.40000000
  Ca     50.08000000    34.62000000    29.90000000
   O     51.54000000    34.34000000    32.11000000
   H     51.08000000    33.98000000    32.86000000
   H     52.45000000    34.40000000    32.39000000

Ca 1.70



