%chk=holoCaM_loop3_23.0.chk
%nprocshared=48
%mem=10GB
%nosave
#b3lyp/svp scf=(tight,noincore) Test 
#IOP(5/87=12) Density=Current Pop=(MK,readradii) iop(6/33=2) iop(6/42=6)

holoCaM_loop3_23.0 

   0   1
   C     39.48000000    42.60000000    25.47000000
   C     39.74000000    41.36000000    26.31000000
   O     39.26000000    41.24000000    27.44000000
   H     38.64000000    43.15300000    25.89000000
   H     40.36800000    43.23300000    25.47000000
   H     39.24500000    42.30400000    24.44800000
   N     40.68000000    40.52000000    25.86000000
   C     41.22000000    39.37000000    26.55000000
   C     42.24000000    39.82000000    27.59000000
   O     43.42000000    39.62000000    27.30000000
   C     41.67000000    38.40000000    25.47000000
   C     42.05000000    36.99000000    25.89000000
   O     41.73000000    36.67000000    27.06000000
   O     42.77000000    36.35000000    25.11000000
   H     40.94000000    40.70000000    24.90000000
   H     40.46000000    38.78000000    27.07000000
   H     42.56000000    38.81000000    24.99000000
   H     40.87000000    38.43000000    24.72000000
   N     41.86000000    40.23000000    28.80000000
   C     42.73000000    40.71000000    29.86000000
   C     43.95000000    39.86000000    30.17000000
   O     45.09000000    40.26000000    29.96000000
   C     41.96000000    40.85000000    31.17000000
   C     41.25000000    42.20000000    31.24000000
   C     40.25000000    42.15000000    32.39000000
   C     39.40000000    43.40000000    32.60000000
   N     40.17000000    44.51000000    33.17000000
   H     40.86000000    40.34000000    28.89000000
   H     43.19000000    41.67000000    29.59000000
   H     42.73000000    40.82000000    31.93000000
   H     41.24000000    40.03000000    31.21000000
   H     40.71000000    42.16000000    30.29000000
   H     41.96000000    43.01000000    31.37000000
   H     40.86000000    41.96000000    33.27000000
   H     39.55000000    41.33000000    32.25000000
   H     38.60000000    43.09000000    33.28000000
   H     38.82000000    43.55000000    31.69000000
   H     39.66000000    45.39000000    33.20000000
   H     40.49000000    44.38000000    34.11000000
   H     40.94000000    44.71000000    32.54000000
   N     43.71000000    38.56000000    30.41000000
   C     44.78000000    37.62000000    30.69000000
   C     45.53000000    37.06000000    29.49000000
   O     46.41000000    36.23000000    29.69000000
   C     44.24000000    36.50000000    31.57000000
   C     42.97000000    35.82000000    31.11000000
   O     42.61000000    34.80000000    31.74000000
   O     42.53000000    36.08000000    29.97000000
   H     42.81000000    38.21000000    30.69000000
   H     45.48000000    38.14000000    31.35000000
   H     43.96000000    36.86000000    32.56000000
   H     45.03000000    35.76000000    31.71000000
   N     45.12000000    37.43000000    28.28000000
   C     45.68000000    36.87000000    27.06000000
   C     45.52000000    35.37000000    26.87000000
   O     46.46000000    34.75000000    26.36000000
   H     44.37000000    38.10000000    28.16000000
   H     46.72000000    37.17000000    26.95000000
   H     45.17000000    37.30000000    26.20000000
   N     44.38000000    34.85000000    27.32000000
   C     44.03000000    33.46000000    27.53000000
   C     43.44000000    32.79000000    26.30000000
   O     43.27000000    31.57000000    26.24000000
   C     43.34000000    33.16000000    28.86000000
   C     41.82000000    33.22000000    28.77000000
   N     41.16000000    32.51000000    29.69000000
   O     41.26000000    33.90000000    27.92000000
   H     43.73000000    35.57000000    27.61000000
   H     45.03000000    33.06000000    27.66000000
   H     43.74000000    33.79000000    29.66000000
   H     43.60000000    32.13000000    29.10000000
   H     41.70000000    31.99000000    30.37000000
   H     40.18000000    32.36000000    29.54000000
   N     43.17000000    33.55000000    25.24000000
   C     42.74000000    33.11000000    23.93000000
   C     41.23000000    33.18000000    23.73000000
   O     40.81000000    32.93000000    22.60000000
   H     43.26000000    34.55000000    25.38000000
   H     42.97000000    32.05000000    23.81000000
   H     43.19000000    33.72000000    23.15000000
   N     40.51000000    33.53000000    24.79000000
   C     39.06000000    33.55000000    24.90000000
   C     38.57000000    34.86000000    25.51000000
   O     39.22000000    35.43000000    26.39000000
   C     38.62000000    32.35000000    25.73000000
   C     39.11000000    30.98000000    25.30000000
   C     39.78000000    30.22000000    26.27000000
   C     38.67000000    30.37000000    24.12000000
   C     40.06000000    28.88000000    25.96000000
   C     38.97000000    29.04000000    23.82000000
   C     39.74000000    28.29000000    24.73000000
   O     40.00000000    26.99000000    24.42000000
   H     41.08000000    33.96000000    25.51000000
   H     38.55000000    33.51000000    23.94000000
   H     37.55000000    32.40000000    25.93000000
   H     39.07000000    32.49000000    26.71000000
   H     40.01000000    30.63000000    27.24000000
   H     38.08000000    30.91000000    23.39000000
   H     40.54000000    28.33000000    26.76000000
   H     38.63000000    28.55000000    22.91000000
   H     39.73000000    26.77000000    23.52000000
   N     37.40000000    35.35000000    25.09000000
   C     36.62000000    36.45000000    25.62000000
   C     35.35000000    35.90000000    26.25000000
   O     34.47000000    35.37000000    25.58000000
   C     36.32000000    37.59000000    24.65000000
   C     37.52000000    38.15000000    23.89000000
   C     35.57000000    38.75000000    25.31000000
   C     37.21000000    39.05000000    22.70000000
   H     37.00000000    34.84000000    24.32000000
   H     37.23000000    37.03000000    26.31000000
   H     35.61000000    37.26000000    23.89000000
   H     38.04000000    37.26000000    23.56000000
   H     38.12000000    38.72000000    24.60000000
   H     35.34000000    39.45000000    24.51000000
   H     34.59000000    38.52000000    25.73000000
   H     36.16000000    39.30000000    26.04000000
   H     36.40000000    38.60000000    22.13000000
   H     36.94000000    40.05000000    23.03000000
   H     38.11000000    39.06000000    22.09000000
   N     35.30000000    36.17000000    27.56000000
   C     34.17000000    35.92000000    28.44000000
   C     33.20000000    37.10000000    28.42000000
   O     33.47000000    38.23000000    28.01000000
   C     34.71000000    35.58000000    29.83000000
   O     33.78000000    35.14000000    30.79000000
   H     36.10000000    36.50000000    28.07000000
   H     33.70000000    35.04000000    28.01000000
   H     35.09000000    36.52000000    30.23000000
   H     35.55000000    34.91000000    29.64000000
   H     33.69000000    34.20000000    30.59000000
   N     31.98000000    36.86000000    28.91000000
   C     30.96000000    37.86000000    29.14000000
   C     31.36000000    38.91000000    30.17000000
   O     31.15000000    40.08000000    29.88000000
   C     29.62000000    37.22000000    29.51000000
   H     32.00000000    35.99000000    29.42000000
   H     30.89000000    38.42000000    28.21000000
   H     29.21000000    36.69000000    28.66000000
   H     29.67000000    36.52000000    30.34000000
   H     28.93000000    38.02000000    29.80000000
   N     32.06000000    38.51000000    31.24000000
   C     32.56000000    39.41000000    32.27000000
   C     33.46000000    40.46000000    31.65000000
   O     33.28000000    41.64000000    31.93000000
   C     33.38000000    38.58000000    33.25000000
   H     32.04000000    37.57000000    31.60000000
   H     31.71000000    39.95000000    32.69000000
   H     32.76000000    37.97000000    33.90000000
   H     34.08000000    37.94000000    32.71000000
   H     33.94000000    39.33000000    33.81000000
   N     34.35000000    40.02000000    30.75000000
   C     35.40000000    40.77000000    30.10000000
   C     34.84000000    41.82000000    29.15000000
   O     35.46000000    42.84000000    28.88000000
   C     36.33000000    39.80000000    29.38000000
   C     37.25000000    39.08000000    30.35000000
   C     38.17000000    38.12000000    29.61000000
   O     37.68000000    37.06000000    29.18000000
   O     39.39000000    38.39000000    29.61000000
   H     34.35000000    39.03000000    30.54000000
   H     36.04000000    41.26000000    30.85000000
   H     36.92000000    40.36000000    28.65000000
   H     35.75000000    39.10000000    28.78000000
   H     36.62000000    38.53000000    31.04000000
   H     37.86000000    39.85000000    30.82000000
   N     33.66000000    41.54000000    28.59000000
   C     32.81000000    42.41000000    27.79000000
   H     31.90800000    42.65300000    28.35200000
   H     33.34900000    43.32800000    27.55400000
   H     32.53500000    41.90100000    26.86600000
   H     33.24000000    40.68000000    28.89000000
  Ca     40.23000000    36.08000000    28.83000000
   O     38.64000000    33.95000000    29.24000000
   H     38.31000000    33.68000000    30.09000000
   H     37.94000000    33.73000000    28.63000000

Ca 1.70



