%chk=holoCaM_loop3_29.0.chk
%nprocshared=48
%mem=10GB
%nosave
#b3lyp/svp scf=(tight,noincore) Test 
#IOP(5/87=12) Density=Current Pop=(MK,readradii) iop(6/33=2) iop(6/42=6)

holoCaM_loop3_29.0 

   0   1
   C     85.81000000    32.21000000    26.16000000
   C     87.32000000    32.02000000    26.07000000
   O     87.76000000    30.95000000    26.49000000
   H     85.31500000    31.24700000    26.03300000
   H     85.55300000    32.62500000    27.13500000
   H     85.48200000    32.89200000    25.37600000
   N     88.06000000    32.97000000    25.49000000
   C     89.50000000    33.08000000    25.42000000
   C     89.94000000    33.79000000    26.69000000
   O     89.69000000    34.98000000    26.90000000
   C     89.95000000    33.91000000    24.23000000
   C     91.45000000    34.18000000    24.19000000
   O     91.88000000    35.08000000    23.44000000
   O     92.20000000    33.51000000    24.92000000
   H     87.63000000    33.75000000    25.01000000
   H     89.85000000    32.05000000    25.44000000
   H     89.40000000    34.85000000    24.20000000
   H     89.64000000    33.40000000    23.31000000
   N     90.52000000    33.04000000    27.63000000
   C     90.63000000    33.45000000    29.02000000
   C     91.90000000    34.26000000    29.23000000
   O     91.78000000    35.37000000    29.75000000
   C     90.61000000    32.21000000    29.91000000
   C     89.35000000    31.37000000    29.72000000
   C     87.98000000    32.03000000    29.91000000
   C     86.86000000    30.99000000    29.86000000
   N     85.56000000    31.48000000    30.35000000
   H     90.61000000    32.07000000    27.37000000
   H     89.80000000    34.08000000    29.33000000
   H     90.73000000    32.43000000    30.97000000
   H     91.49000000    31.59000000    29.76000000
   H     89.44000000    30.54000000    30.42000000
   H     89.38000000    30.95000000    28.72000000
   H     87.82000000    32.67000000    29.04000000
   H     87.93000000    32.57000000    30.85000000
   H     87.24000000    30.11000000    30.38000000
   H     86.83000000    30.65000000    28.83000000
   H     85.20000000    32.34000000    29.95000000
   H     84.78000000    30.84000000    30.29000000
   H     85.67000000    31.71000000    31.32000000
   N     93.08000000    33.81000000    28.81000000
   C     94.29000000    34.61000000    28.85000000
   C     94.28000000    35.74000000    27.83000000
   O     95.29000000    36.40000000    27.60000000
   C     95.49000000    33.70000000    28.67000000
   C     95.53000000    32.82000000    27.42000000
   O     94.68000000    33.03000000    26.53000000
   O     96.37000000    31.92000000    27.26000000
   H     93.19000000    32.89000000    28.40000000
   H     94.32000000    35.05000000    29.85000000
   H     95.51000000    33.03000000    29.53000000
   H     96.46000000    34.21000000    28.70000000
   N     93.24000000    35.88000000    27.00000000
   C     93.10000000    36.85000000    25.94000000
   C     94.18000000    36.68000000    24.88000000
   O     94.39000000    37.64000000    24.15000000
   H     92.52000000    35.18000000    27.15000000
   H     93.07000000    37.87000000    26.30000000
   H     92.18000000    36.58000000    25.40000000
   N     94.85000000    35.53000000    24.76000000
   C     96.00000000    35.34000000    23.90000000
   C     95.75000000    35.25000000    22.40000000
   O     96.67000000    34.94000000    21.66000000
   C     97.00000000    34.37000000    24.53000000
   C     96.79000000    32.92000000    24.11000000
   N     97.88000000    32.16000000    23.99000000
   O     95.69000000    32.53000000    23.74000000
   H     94.52000000    34.80000000    25.37000000
   H     96.57000000    36.25000000    24.10000000
   H     97.08000000    34.44000000    25.62000000
   H     97.99000000    34.57000000    24.12000000
   H     98.81000000    32.50000000    24.20000000
   H     97.79000000    31.18000000    23.75000000
   N     94.52000000    35.38000000    21.90000000
   C     93.99000000    35.48000000    20.55000000
   C     93.37000000    34.18000000    20.06000000
   O     92.76000000    34.22000000    19.00000000
   H     93.83000000    35.68000000    22.59000000
   H     94.78000000    35.75000000    19.85000000
   H     93.14000000    36.16000000    20.50000000
   N     93.35000000    33.10000000    20.85000000
   C     92.83000000    31.82000000    20.42000000
   C     92.24000000    31.00000000    21.56000000
   O     92.90000000    30.87000000    22.59000000
   C     93.87000000    31.02000000    19.64000000
   C     95.28000000    31.56000000    19.59000000
   C     96.16000000    31.23000000    20.62000000
   C     95.66000000    32.47000000    18.60000000
   C     97.48000000    31.71000000    20.55000000
   C     96.94000000    33.03000000    18.52000000
   C     97.84000000    32.59000000    19.51000000
   O     99.14000000    32.99000000    19.37000000
   H     93.83000000    33.15000000    21.74000000
   H     91.98000000    31.89000000    19.74000000
   H     93.44000000    31.15000000    18.65000000
   H     93.89000000    29.96000000    19.87000000
   H     95.76000000    30.72000000    21.49000000
   H     94.98000000    32.83000000    17.84000000
   H     98.19000000    31.57000000    21.34000000
   H     97.22000000    33.73000000    17.75000000
   H     99.19000000    33.71000000    18.74000000
   N     91.13000000    30.31000000    21.28000000
   C     90.61000000    29.24000000    22.11000000
   C     91.43000000    27.97000000    22.04000000
   O     92.07000000    27.74000000    21.01000000
   C     89.15000000    29.12000000    21.70000000
   C     88.32000000    30.29000000    22.23000000
   C     88.58000000    27.76000000    22.11000000
   C     86.84000000    30.30000000    21.88000000
   H     90.75000000    30.30000000    20.34000000
   H     90.66000000    29.53000000    23.16000000
   H     89.11000000    29.16000000    20.61000000
   H     88.73000000    31.25000000    21.92000000
   H     88.29000000    30.17000000    23.31000000
   H     89.14000000    26.98000000    21.59000000
   H     88.42000000    27.71000000    23.18000000
   H     87.58000000    27.67000000    21.69000000
   H     86.63000000    30.22000000    20.81000000
   H     86.35000000    29.53000000    22.48000000
   H     86.41000000    31.23000000    22.25000000
   N     91.38000000    27.14000000    23.08000000
   C     92.10000000    25.91000000    23.34000000
   C     91.18000000    24.92000000    24.04000000
   O     90.11000000    25.30000000    24.50000000
   C     93.32000000    26.28000000    24.18000000
   O     92.91000000    26.77000000    25.43000000
   H     90.69000000    27.37000000    23.78000000
   H     92.46000000    25.42000000    22.43000000
   H     93.88000000    27.10000000    23.72000000
   H     94.01000000    25.45000000    24.35000000
   H     92.57000000    27.66000000    25.37000000
   N     91.61000000    23.65000000    24.10000000
   C     90.79000000    22.63000000    24.72000000
   C     90.37000000    22.84000000    26.17000000
   O     89.25000000    22.48000000    26.51000000
   C     91.55000000    21.34000000    24.47000000
   H     92.36000000    23.27000000    23.55000000
   H     89.89000000    22.64000000    24.10000000
   H     92.37000000    21.20000000    25.17000000
   H     90.92000000    20.47000000    24.61000000
   H     91.86000000    21.23000000    23.43000000
   N     91.19000000    23.53000000    26.97000000
   C     90.90000000    23.91000000    28.34000000
   C     89.77000000    24.92000000    28.44000000
   O     88.98000000    24.94000000    29.39000000
   C     92.08000000    24.59000000    29.02000000
   H     91.99000000    23.96000000    26.53000000
   H     90.64000000    23.00000000    28.89000000
   H     92.47000000    25.40000000    28.41000000
   H     91.80000000    25.06000000    29.97000000
   H     92.88000000    23.85000000    29.15000000
   N     89.71000000    25.76000000    27.41000000
   C     88.79000000    26.87000000    27.22000000
   C     87.42000000    26.57000000    26.61000000
   O     86.36000000    27.09000000    26.94000000
   C     89.51000000    27.96000000    26.44000000
   C     90.68000000    28.48000000    27.28000000
   C     91.44000000    29.48000000    26.42000000
   O     91.47000000    30.68000000    26.75000000
   O     91.98000000    29.09000000    25.36000000
   H     90.52000000    25.75000000    26.81000000
   H     88.66000000    27.35000000    28.18000000
   H     88.87000000    28.78000000    26.12000000
   H     89.98000000    27.46000000    25.60000000
   H     91.37000000    27.69000000    27.58000000
   H     90.30000000    28.94000000    28.19000000
   N     87.52000000    25.59000000    25.70000000
   C     86.33000000    24.95000000    25.19000000
   H     85.54600000    25.69500000    25.05800000
   H     86.55100000    24.48200000    24.23100000
   H     85.99400000    24.19100000    25.89600000
   H     88.41000000    25.14000000    25.53000000
  Ca     93.48000000    31.24000000    25.13000000
   O     94.96000000    29.25000000    24.32000000
   H     95.36000000    28.72000000    23.62000000
   H     95.16000000    28.76000000    25.12000000

Ca 1.70



