%chk=holoCaM_loop3_9.0.chk
%nprocshared=48
%mem=10GB
%nosave
#b3lyp/svp scf=(tight,noincore) Test 
#IOP(5/87=12) Density=Current Pop=(MK,readradii) iop(6/33=2) iop(6/42=6)

holoCaM_loop3_9.0 

   0   1
   C     93.28000000    58.60000000   103.53300000
   C     94.57000000    59.03000000   102.84300000
   O     95.28000000    58.18000000   102.31300000
   H     92.47600000    58.54900000   102.79900000
   H     93.42000000    57.61900000   103.98700000
   H     93.02100000    59.32500000   104.30500000
   N     94.91000000    60.32000000   102.83300000
   C     96.12000000    60.85000000   102.23300000
   C     97.35000000    60.54000000   103.07300000
   O     97.32000000    60.85000000   104.26300000
   C     95.93000000    62.33000000   101.92300000
   C     96.97000000    62.93000000   100.98300000
   O     96.87000000    64.17000000   100.82300000
   O     97.85000000    62.18000000   100.52300000
   H     94.34000000    60.97000000   103.34300000
   H     96.18000000    60.31000000   101.28300000
   H     95.75000000    62.91000000   102.83300000
   H     94.99000000    62.45000000   101.38300000
   N     98.42000000    60.06000000   102.43300000
   C     99.57000000    59.52000000   103.12300000
   C    100.75000000    60.48000000   103.10300000
   O    101.52000000    60.38000000   104.05300000
   C     99.84000000    58.08000000   102.69300000
   C     98.66000000    57.15000000   102.94300000
   C     98.92000000    55.66000000   102.80300000
   C     99.87000000    55.10000000   103.86300000
   N     99.28000000    55.15000000   105.20300000
   H     98.39000000    59.90000000   101.43300000
   H     99.22000000    59.41000000   104.15300000
   H    100.73000000    57.78000000   103.26300000
   H    100.12000000    58.06000000   101.64300000
   H     97.89000000    57.40000000   102.21300000
   H     98.30000000    57.28000000   103.96300000
   H     99.30000000    55.47000000   101.79300000
   H     97.94000000    55.19000000   102.86300000
   H    100.81000000    55.64000000   103.77300000
   H    100.05000000    54.07000000   103.56300000
   H     99.47000000    56.03000000   105.65300000
   H     98.31000000    54.87000000   105.22300000
   H     99.77000000    54.49000000   105.79300000
   N    100.81000000    61.39000000   102.12300000
   C    101.84000000    62.41000000   102.09300000
   C    101.35000000    63.83000000   102.33300000
   O    102.17000000    64.68000000   102.67300000
   C    102.66000000    62.44000000   100.80300000
   C    101.96000000    63.08000000    99.61300000
   O    102.70000000    63.48000000    98.69300000
   O    100.71000000    63.12000000    99.53300000
   H    100.21000000    61.30000000   101.31300000
   H    102.60000000    62.18000000   102.84300000
   H    102.94000000    61.44000000   100.47300000
   H    103.56000000    63.01000000   101.02300000
   N    100.04000000    64.06000000   102.22300000
   C     99.38000000    65.33000000   102.44300000
   C     99.45000000    66.33000000   101.29300000
   O     99.64000000    67.53000000   101.52300000
   H     99.45000000    63.36000000   101.81300000
   H     99.79000000    65.89000000   103.28300000
   H     98.34000000    65.16000000   102.73300000
   N     99.50000000    65.85000000   100.05300000
   C     99.39000000    66.71000000    98.89300000
   C     97.96000000    67.16000000    98.64300000
   O     97.77000000    68.13000000    97.91300000
   C    100.04000000    65.98000000    97.72300000
   C     99.22000000    64.92000000    96.99300000
   N     99.61000000    64.41000000    95.82300000
   O     98.20000000    64.48000000    97.50300000
   H     99.79000000    64.90000000    99.88300000
   H     99.92000000    67.63000000    99.12300000
   H    101.04000000    65.64000000    97.98300000
   H    100.37000000    66.75000000    97.02300000
   H    100.56000000    64.55000000    95.50300000
   H     99.01000000    63.89000000    95.20300000
   N     96.98000000    66.51000000    99.28300000
   C     95.57000000    66.85000000    99.23300000
   C     94.66000000    65.96000000    98.41300000
   O     93.48000000    66.27000000    98.29300000
   H     97.18000000    65.66000000    99.79300000
   H     95.56000000    67.88000000    98.87300000
   H     95.23000000    66.97000000   100.26300000
   N     95.21000000    64.95000000    97.73300000
   C     94.63000000    64.00000000    96.81300000
   C     95.10000000    62.57000000    97.07300000
   O     96.21000000    62.35000000    97.55300000
   C     95.09000000    64.45000000    95.43300000
   C     95.10000000    65.91000000    95.04300000
   C     96.30000000    66.64000000    95.06300000
   C     93.84000000    66.50000000    94.92300000
   C     96.19000000    68.03000000    95.00300000
   C     93.81000000    67.89000000    94.72300000
   C     94.96000000    68.70000000    94.79300000
   O     94.92000000    70.05000000    94.68300000
   H     96.21000000    64.86000000    97.81300000
   H     93.54000000    64.03000000    96.85300000
   H     94.52000000    63.87000000    94.70300000
   H     96.12000000    64.09000000    95.34300000
   H     97.24000000    66.12000000    95.15300000
   H     92.96000000    65.89000000    94.77300000
   H     97.08000000    68.64000000    94.94300000
   H     92.90000000    68.47000000    94.79300000
   H     94.03000000    70.42000000    94.64300000
   N     94.19000000    61.67000000    96.70300000
   C     94.31000000    60.24000000    96.87300000
   C     94.87000000    59.52000000    95.65300000
   O     94.45000000    59.86000000    94.54300000
   C     93.03000000    59.56000000    97.34300000
   C     92.28000000    60.30000000    98.44300000
   C     93.37000000    58.15000000    97.84300000
   C     93.10000000    60.68000000    99.68300000
   H     93.53000000    62.02000000    96.02300000
   H     95.03000000    60.09000000    97.68300000
   H     92.45000000    59.36000000    96.45300000
   H     91.41000000    59.68000000    98.66300000
   H     91.88000000    61.22000000    98.01300000
   H     92.43000000    57.75000000    98.22300000
   H     93.67000000    57.53000000    97.00300000
   H     94.07000000    58.07000000    98.68300000
   H     94.00000000    61.25000000    99.47300000
   H     92.46000000    61.26000000   100.34300000
   H     93.38000000    59.74000000   100.15300000
   N     95.83000000    58.60000000    95.75300000
   C     96.34000000    57.76000000    94.69300000
   C     96.11000000    56.29000000    95.01300000
   O     95.77000000    55.98000000    96.15300000
   C     97.82000000    58.05000000    94.42300000
   O     98.66000000    57.94000000    95.54300000
   H     96.22000000    58.48000000    96.67300000
   H     95.83000000    57.93000000    93.74300000
   H     97.85000000    59.07000000    94.05300000
   H     98.03000000    57.41000000    93.55300000
   H     98.34000000    58.52000000    96.24300000
   N     96.41000000    55.43000000    94.03300000
   C     96.13000000    54.02000000    94.12300000
   C     97.12000000    53.26000000    94.99300000
   O     96.73000000    52.27000000    95.61300000
   C     96.08000000    53.45000000    92.71300000
   H     96.79000000    55.78000000    93.16300000
   H     95.10000000    53.87000000    94.46300000
   H     96.23000000    52.38000000    92.83300000
   H     95.15000000    53.70000000    92.20300000
   H     96.90000000    53.80000000    92.08300000
   N     98.37000000    53.72000000    95.15300000
   C     99.24000000    53.20000000    96.19300000
   C     98.68000000    53.54000000    97.57300000
   O     98.70000000    52.71000000    98.47300000
   C    100.62000000    53.81000000    95.99300000
   H     98.72000000    54.45000000    94.55300000
   H     99.36000000    52.12000000    96.22300000
   H    100.53000000    54.90000000    96.00300000
   H    101.27000000    53.56000000    96.82300000
   H    100.99000000    53.38000000    95.06300000
   N     98.03000000    54.68000000    97.76300000
   C     97.43000000    55.09000000    99.02300000
   C     96.11000000    54.42000000    99.39300000
   O     95.85000000    54.05000000   100.53300000
   C     97.27000000    56.61000000    99.06300000
   C     98.59000000    57.35000000    98.85300000
   C     98.40000000    58.85000000    98.69300000
   O     98.80000000    59.67000000    99.54300000
   O     97.95000000    59.33000000    97.63300000
   H     97.85000000    55.29000000    96.97300000
   H     98.18000000    54.94000000    99.79300000
   H     96.83000000    56.93000000   100.00300000
   H     96.64000000    56.94000000    98.23300000
   H     99.07000000    57.00000000    97.93300000
   H     99.35000000    57.11000000    99.59300000
   N     95.28000000    54.22000000    98.36300000
   C     94.04000000    53.48000000    98.26300000
   H     93.27400000    54.11500000    97.81800000
   H     94.19100000    52.60100000    97.63700000
   H     93.72100000    53.16800000    99.25800000
   H     95.62000000    54.58000000    97.48300000
  Ca     98.90000000    61.91000000    98.18000000
   O     98.74000000    61.50000000    95.56000000
   H     98.37000000    62.08000000    94.89000000
   H     99.54000000    61.15000000    95.17000000

Ca 1.70



