%chk=CaMKII_loop3_19.0.chk
%nprocshared=48
%mem=10GB
%nosave
#b3lyp/svp scf=(tight,noincore) Test 
#IOP(5/87=12) Density=Current Pop=(MK,readradii) iop(6/33=2) iop(6/42=6)

CaMKII_loop3_19.0 

   0   1
   C     68.80000000    46.86000000    24.87000000
   C     67.71000000    46.10000000    25.61000000
   O     67.99000000    45.13000000    26.30000000
   H     69.70600000    46.25400000    24.83600000
   H     68.46900000    47.07400000    23.85400000
   H     69.00800000    47.79500000    25.38900000
   N     66.45000000    46.40000000    25.28000000
   C     65.25000000    45.68000000    25.65000000
   C     65.03000000    44.59000000    24.60000000
   O     65.01000000    44.91000000    23.41000000
   C     64.10000000    46.66000000    25.80000000
   C     62.75000000    46.04000000    26.17000000
   O     62.73000000    44.81000000    26.38000000
   O     61.79000000    46.83000000    26.29000000
   H     66.32000000    47.25000000    24.74000000
   H     65.47000000    45.14000000    26.57000000
   H     63.87000000    47.22000000    24.89000000
   H     64.41000000    47.35000000    26.59000000
   N     64.89000000    43.34000000    25.02000000
   C     64.90000000    42.15000000    24.19000000
   C     63.54000000    41.96000000    23.54000000
   O     63.44000000    41.50000000    22.40000000
   C     65.36000000    40.93000000    24.99000000
   C     65.53000000    39.72000000    24.07000000
   C     66.39000000    38.60000000    24.62000000
   C     66.24000000    37.34000000    23.78000000
   N     64.95000000    36.64000000    23.87000000
   H     64.69000000    43.26000000    26.01000000
   H     65.62000000    42.32000000    23.39000000
   H     64.61000000    40.67000000    25.74000000
   H     66.34000000    41.20000000    25.38000000
   H     65.98000000    40.09000000    23.15000000
   H     64.56000000    39.27000000    23.84000000
   H     66.14000000    38.49000000    25.68000000
   H     67.42000000    38.95000000    24.61000000
   H     67.05000000    36.67000000    24.08000000
   H     66.42000000    37.55000000    22.72000000
   H     64.20000000    37.23000000    23.55000000
   H     65.07000000    35.69000000    23.54000000
   H     64.72000000    36.50000000    24.85000000
   N     62.48000000    42.25000000    24.30000000
   C     61.12000000    42.02000000    23.86000000
   C     60.23000000    43.25000000    23.69000000
   O     59.05000000    43.20000000    23.34000000
   C     60.48000000    41.11000000    24.91000000
   C     60.61000000    41.57000000    26.35000000
   O     60.71000000    40.74000000    27.27000000
   O     60.59000000    42.80000000    26.60000000
   H     62.67000000    42.70000000    25.19000000
   H     61.07000000    41.56000000    22.88000000
   H     61.04000000    40.18000000    24.84000000
   H     59.45000000    40.89000000    24.61000000
   N     60.83000000    44.43000000    23.89000000
   C     60.13000000    45.66000000    23.59000000
   C     59.15000000    46.15000000    24.64000000
   O     58.44000000    47.11000000    24.33000000
   H     61.78000000    44.38000000    24.22000000
   H     59.73000000    45.63000000    22.57000000
   H     60.93000000    46.39000000    23.49000000
   N     59.02000000    45.43000000    25.75000000
   C     57.98000000    45.70000000    26.72000000
   C     58.11000000    47.10000000    27.29000000
   O     57.13000000    47.58000000    27.85000000
   C     57.82000000    44.61000000    27.78000000
   C     58.68000000    44.85000000    29.02000000
   N     58.18000000    44.71000000    30.25000000
   O     59.88000000    45.09000000    28.91000000
   H     59.70000000    44.70000000    25.93000000
   H     57.05000000    45.71000000    26.15000000
   H     58.12000000    43.64000000    27.40000000
   H     56.81000000    44.62000000    28.18000000
   H     57.20000000    44.53000000    30.35000000
   H     58.75000000    44.91000000    31.06000000
   N     59.27000000    47.75000000    27.17000000
   C     59.55000000    49.10000000    27.63000000
   C     60.37000000    49.20000000    28.91000000
   O     60.41000000    50.28000000    29.49000000
   H     59.94000000    47.24000000    26.62000000
   H     58.55000000    49.53000000    27.75000000
   H     60.13000000    49.63000000    26.88000000
   N     61.07000000    48.12000000    29.26000000
   C     61.92000000    48.12000000    30.44000000
   C     63.03000000    47.13000000    30.13000000
   O     62.73000000    46.18000000    29.42000000
   C     61.18000000    47.67000000    31.70000000
   C     59.99000000    48.54000000    32.02000000
   C     60.17000000    49.60000000    32.92000000
   C     58.75000000    48.24000000    31.45000000
   C     59.08000000    50.44000000    33.17000000
   C     57.63000000    49.03000000    31.74000000
   C     57.83000000    50.13000000    32.60000000
   O     56.78000000    50.94000000    32.95000000
   H     61.00000000    47.33000000    28.65000000
   H     62.28000000    49.15000000    30.53000000
   H     61.84000000    47.52000000    32.55000000
   H     60.71000000    46.72000000    31.42000000
   H     61.10000000    49.74000000    33.45000000
   H     58.70000000    47.37000000    30.81000000
   H     59.19000000    51.32000000    33.78000000
   H     56.68000000    48.87000000    31.26000000
   H     55.99000000    50.61000000    32.51000000
   N     64.20000000    47.27000000    30.76000000
   C     65.36000000    46.42000000    30.56000000
   C     65.71000000    45.68000000    31.84000000
   O     66.19000000    46.30000000    32.79000000
   C     66.57000000    47.22000000    30.09000000
   C     66.40000000    47.74000000    28.67000000
   C     67.88000000    46.44000000    30.04000000
   C     67.11000000    49.07000000    28.41000000
   H     64.31000000    48.04000000    31.40000000
   H     65.19000000    45.71000000    29.75000000
   H     66.68000000    48.11000000    30.72000000
   H     65.35000000    47.92000000    28.42000000
   H     66.83000000    46.93000000    28.07000000
   H     68.19000000    46.37000000    31.09000000
   H     67.87000000    45.47000000    29.54000000
   H     68.70000000    47.06000000    29.67000000
   H     66.94000000    49.81000000    29.19000000
   H     68.18000000    48.84000000    28.39000000
   H     66.88000000    49.56000000    27.47000000
   N     65.76000000    44.35000000    31.85000000
   C     66.23000000    43.58000000    32.98000000
   C     67.74000000    43.43000000    32.92000000
   O     68.41000000    43.66000000    31.91000000
   C     65.53000000    42.22000000    33.04000000
   O     66.03000000    41.49000000    31.94000000
   H     65.38000000    43.83000000    31.07000000
   H     65.94000000    44.15000000    33.86000000
   H     64.47000000    42.43000000    32.96000000
   H     65.70000000    41.65000000    33.95000000
   H     65.48000000    40.70000000    31.98000000
   N     68.23000000    42.91000000    34.05000000
   C     69.59000000    42.41000000    34.20000000
   C     69.75000000    41.36000000    33.12000000
   O     70.71000000    41.36000000    32.35000000
   C     69.81000000    41.92000000    35.63000000
   H     67.70000000    42.83000000    34.90000000
   H     70.28000000    43.19000000    33.86000000
   H     70.72000000    41.34000000    35.78000000
   H     69.74000000    42.73000000    36.36000000
   H     69.15000000    41.07000000    35.77000000
   N     68.82000000    40.40000000    33.03000000
   C     69.00000000    39.28000000    32.14000000
   C     69.01000000    39.67000000    30.67000000
   O     69.60000000    38.92000000    29.90000000
   C     67.93000000    38.22000000    32.41000000
   H     68.05000000    40.45000000    33.68000000
   H     69.96000000    38.79000000    32.33000000
   H     66.94000000    38.67000000    32.41000000
   H     68.02000000    37.44000000    31.67000000
   H     68.10000000    37.86000000    33.43000000
   N     68.40000000    40.78000000    30.24000000
   C     68.57000000    41.38000000    28.93000000
   C     69.86000000    42.18000000    28.79000000
   O     70.42000000    42.04000000    27.71000000
   C     67.40000000    42.30000000    28.60000000
   C     66.07000000    41.55000000    28.68000000
   C     64.92000000    42.52000000    28.44000000
   O     64.03000000    42.39000000    27.57000000
   O     64.68000000    43.47000000    29.22000000
   H     67.84000000    41.30000000    30.90000000
   H     68.53000000    40.54000000    28.24000000
   H     67.52000000    42.52000000    27.54000000
   H     67.40000000    43.16000000    29.27000000
   H     65.92000000    41.05000000    29.64000000
   H     66.05000000    40.70000000    28.00000000
   N     70.31000000    42.88000000    29.83000000
   C     71.61000000    43.52000000    29.79000000
   H     72.33100000    42.84800000    29.32600000
   H     71.54500000    44.44000000    29.20900000
   H     71.93200000    43.75300000    30.80500000
   H     69.68000000    43.06000000    30.60000000
  Ca     62.07000000    43.74000000    28.66000000
   O     60.64000000    41.81000000    29.74000000
   H     60.31000000    41.33000000    28.98000000
   H     60.15000000    41.45000000    30.48000000

Ca 1.70



