%chk=CaMKII_loop3_20.0.chk
%nprocshared=48
%mem=10GB
%nosave
#b3lyp/svp scf=(tight,noincore) Test 
#IOP(5/87=12) Density=Current Pop=(MK,readradii) iop(6/33=2) iop(6/42=6)

CaMKII_loop3_20.0 

   0   1
   C     67.95000000    46.71000000    25.54000000
   C     66.75000000    45.96000000    26.09000000
   O     66.85000000    44.89000000    26.69000000
   H     68.80200000    46.03300000    25.47300000
   H     67.71500000    47.09600000    24.54800000
   H     68.19700000    47.53900000    26.20400000
   N     65.57000000    46.56000000    26.00000000
   C     64.27000000    45.99000000    26.33000000
   C     63.76000000    45.02000000    25.27000000
   O     63.08000000    45.29000000    24.28000000
   C     63.28000000    47.15000000    26.40000000
   C     61.85000000    46.97000000    26.90000000
   O     61.65000000    45.83000000    27.37000000
   O     60.92000000    47.79000000    26.77000000
   H     65.60000000    47.44000000    25.52000000
   H     64.24000000    45.47000000    27.28000000
   H     63.30000000    47.70000000    25.46000000
   H     63.86000000    47.73000000    27.11000000
   N     64.11000000    43.75000000    25.49000000
   C     64.12000000    42.73000000    24.46000000
   C     62.71000000    42.45000000    23.96000000
   O     62.56000000    42.19000000    22.76000000
   C     64.76000000    41.48000000    25.06000000
   C     65.43000000    40.59000000    24.01000000
   C     65.76000000    39.24000000    24.65000000
   C     66.12000000    38.31000000    23.49000000
   N     66.76000000    37.08000000    23.97000000
   H     64.45000000    43.53000000    26.41000000
   H     64.60000000    43.08000000    23.55000000
   H     63.97000000    40.99000000    25.63000000
   H     65.50000000    41.74000000    25.81000000
   H     66.29000000    41.11000000    23.60000000
   H     64.65000000    40.40000000    23.27000000
   H     64.96000000    38.86000000    25.29000000
   H     66.62000000    39.43000000    25.28000000
   H     66.86000000    38.78000000    22.85000000
   H     65.25000000    38.01000000    22.91000000
   H     66.11000000    36.58000000    24.56000000
   H     67.02000000    36.39000000    23.28000000
   H     67.53000000    37.39000000    24.56000000
   N     61.75000000    42.45000000    24.88000000
   C     60.35000000    42.18000000    24.61000000
   C     59.55000000    43.45000000    24.35000000
   O     58.49000000    43.42000000    23.72000000
   C     59.70000000    41.34000000    25.70000000
   C     59.70000000    41.88000000    27.12000000
   O     59.18000000    41.19000000    28.02000000
   O     60.29000000    42.95000000    27.38000000
   H     61.98000000    42.65000000    25.85000000
   H     60.25000000    41.60000000    23.69000000
   H     60.21000000    40.37000000    25.66000000
   H     58.69000000    41.18000000    25.32000000
   N     60.10000000    44.57000000    24.80000000
   C     59.63000000    45.91000000    24.53000000
   C     58.44000000    46.15000000    25.44000000
   O     57.44000000    46.75000000    25.04000000
   H     60.97000000    44.45000000    25.31000000
   H     59.40000000    45.95000000    23.47000000
   H     60.42000000    46.65000000    24.70000000
   N     58.48000000    45.68000000    26.69000000
   C     57.43000000    45.99000000    27.63000000
   C     57.59000000    47.35000000    28.29000000
   O     56.71000000    47.82000000    29.01000000
   C     57.31000000    44.78000000    28.55000000
   C     58.27000000    44.94000000    29.72000000
   N     57.90000000    44.65000000    30.97000000
   O     59.40000000    45.39000000    29.52000000
   H     59.29000000    45.13000000    26.97000000
   H     56.46000000    45.93000000    27.12000000
   H     57.55000000    43.85000000    28.05000000
   H     56.27000000    44.58000000    28.82000000
   H     57.07000000    44.13000000    31.22000000
   H     58.49000000    44.96000000    31.73000000
   N     58.60000000    48.15000000    27.93000000
   C     58.79000000    49.46000000    28.52000000
   C     59.83000000    49.52000000    29.62000000
   O     60.10000000    50.50000000    30.32000000
   H     59.22000000    47.81000000    27.20000000
   H     57.91000000    49.77000000    29.08000000
   H     59.26000000    50.09000000    27.77000000
   N     60.60000000    48.45000000    29.82000000
   C     61.51000000    48.35000000    30.95000000
   C     62.74000000    47.49000000    30.64000000
   O     62.55000000    46.43000000    30.05000000
   C     60.74000000    47.79000000    32.14000000
   C     59.62000000    48.66000000    32.68000000
   C     59.78000000    49.67000000    33.63000000
   C     58.33000000    48.36000000    32.24000000
   C     58.68000000    50.39000000    34.12000000
   C     57.24000000    49.13000000    32.67000000
   C     57.40000000    50.20000000    33.57000000
   O     56.30000000    50.91000000    33.98000000
   H     60.65000000    47.80000000    29.05000000
   H     61.98000000    49.31000000    31.13000000
   H     61.51000000    47.82000000    32.91000000
   H     60.31000000    46.82000000    31.88000000
   H     60.77000000    49.88000000    34.01000000
   H     58.15000000    47.58000000    31.51000000
   H     58.87000000    51.17000000    34.84000000
   H     56.27000000    49.08000000    32.19000000
   H     55.52000000    50.54000000    33.56000000
   N     63.92000000    47.77000000    31.18000000
   C     65.12000000    47.00000000    30.96000000
   C     65.42000000    46.26000000    32.26000000
   O     65.60000000    46.91000000    33.29000000
   C     66.32000000    47.90000000    30.65000000
   C     65.98000000    48.82000000    29.48000000
   C     67.55000000    47.02000000    30.46000000
   C     67.21000000    49.66000000    29.17000000
   H     63.88000000    48.59000000    31.77000000
   H     64.99000000    46.35000000    30.10000000
   H     66.49000000    48.51000000    31.54000000
   H     65.21000000    49.54000000    29.76000000
   H     65.58000000    48.23000000    28.65000000
   H     67.53000000    46.10000000    31.05000000
   H     67.52000000    46.71000000    29.42000000
   H     68.47000000    47.55000000    30.70000000
   H     68.02000000    49.01000000    28.84000000
   H     66.95000000    50.34000000    28.36000000
   H     67.41000000    50.14000000    30.13000000
   N     65.38000000    44.93000000    32.20000000
   C     65.58000000    44.09000000    33.36000000
   C     66.94000000    43.41000000    33.34000000
   O     67.57000000    43.23000000    32.30000000
   C     64.44000000    43.09000000    33.52000000
   O     64.37000000    42.21000000    32.43000000
   H     65.19000000    44.59000000    31.26000000
   H     65.44000000    44.79000000    34.19000000
   H     63.51000000    43.67000000    33.51000000
   H     64.50000000    42.57000000    34.48000000
   H     64.19000000    42.70000000    31.62000000
   N     67.41000000    42.88000000    34.47000000
   C     68.79000000    42.46000000    34.59000000
   C     69.11000000    41.32000000    33.63000000
   O     70.23000000    41.14000000    33.17000000
   C     68.96000000    42.13000000    36.07000000
   H     66.80000000    42.94000000    35.28000000
   H     69.46000000    43.29000000    34.39000000
   H     68.61000000    41.13000000    36.31000000
   H     70.04000000    42.08000000    36.16000000
   H     68.46000000    42.84000000    36.73000000
   N     68.08000000    40.53000000    33.30000000
   C     68.26000000    39.36000000    32.46000000
   C     68.41000000    39.73000000    31.00000000
   O     69.12000000    39.09000000    30.22000000
   C     67.07000000    38.44000000    32.75000000
   H     67.18000000    40.80000000    33.65000000
   H     69.21000000    38.91000000    32.75000000
   H     66.09000000    38.87000000    32.55000000
   H     67.17000000    37.46000000    32.29000000
   H     67.11000000    38.26000000    33.83000000
   N     67.87000000    40.89000000    30.62000000
   C     67.98000000    41.39000000    29.27000000
   C     69.29000000    42.15000000    29.12000000
   O     69.86000000    42.12000000    28.03000000
   C     66.80000000    42.32000000    29.02000000
   C     65.39000000    41.73000000    28.98000000
   C     64.31000000    42.80000000    28.98000000
   O     63.47000000    42.65000000    28.07000000
   O     64.15000000    43.58000000    29.94000000
   H     67.41000000    41.47000000    31.32000000
   H     67.89000000    40.58000000    28.55000000
   H     66.91000000    42.73000000    28.01000000
   H     66.79000000    43.00000000    29.87000000
   H     65.28000000    41.09000000    29.86000000
   H     65.40000000    41.12000000    28.08000000
   N     69.75000000    42.92000000    30.11000000
   C     70.98000000    43.67000000    30.00000000
   H     71.76100000    43.02800000    29.59200000
   H     70.82800000    44.52300000    29.33800000
   H     71.28000000    44.02300000    30.98600000
   H     69.28000000    42.72000000    30.99000000
  Ca     61.66000000    44.18000000    29.25000000
   O     61.55000000    43.97000000    31.83000000
   H     61.02000000    43.23000000    32.11000000
   H     61.62000000    44.53000000    32.61000000

Ca 1.70



