%chk=CaMKII_loop3_27.0.chk
%nprocshared=48
%mem=10GB
%nosave
#b3lyp/svp scf=(tight,noincore) Test 
#IOP(5/87=12) Density=Current Pop=(MK,readradii) iop(6/33=2) iop(6/42=6)

CaMKII_loop3_27.0 

   0   1
   C     50.76000000    47.62000000    44.65000000
   C     50.25000000    48.03000000    46.02000000
   O     51.09000000    48.03000000    46.91000000
   H     51.78300000    47.25400000    44.73800000
   H     50.12600000    46.83100000    44.24700000
   H     50.74000000    48.48100000    43.98100000
   N     48.98000000    48.44000000    46.08000000
   C     48.17000000    48.59000000    47.28000000
   C     47.70000000    47.25000000    47.82000000
   O     46.51000000    46.94000000    47.84000000
   C     46.99000000    49.52000000    47.02000000
   C     46.22000000    49.85000000    48.29000000
   O     45.12000000    50.43000000    48.18000000
   O     46.69000000    49.75000000    49.44000000
   H     48.46000000    48.42000000    45.22000000
   H     48.75000000    49.10000000    48.05000000
   H     46.38000000    49.08000000    46.23000000
   H     47.39000000    50.43000000    46.58000000
   N     48.60000000    46.37000000    48.26000000
   C     48.32000000    45.00000000    48.63000000
   C     47.21000000    44.86000000    49.67000000
   O     46.25000000    44.12000000    49.48000000
   C     49.57000000    44.43000000    49.30000000
   C     50.73000000    44.54000000    48.31000000
   C     51.88000000    43.61000000    48.68000000
   C     52.39000000    43.66000000    50.12000000
   N     52.69000000    42.30000000    50.59000000
   H     49.56000000    46.67000000    48.33000000
   H     48.00000000    44.43000000    47.76000000
   H     49.39000000    43.39000000    49.57000000
   H     49.87000000    45.06000000    50.14000000
   H     51.03000000    45.58000000    48.20000000
   H     50.49000000    44.34000000    47.27000000
   H     52.78000000    43.71000000    48.07000000
   H     51.44000000    42.65000000    48.42000000
   H     51.64000000    44.06000000    50.81000000
   H     53.31000000    44.23000000    50.21000000
   H     52.65000000    42.25000000    51.59000000
   H     52.09000000    41.56000000    50.24000000
   H     53.65000000    42.09000000    50.33000000
   N     47.16000000    45.64000000    50.76000000
   C     46.10000000    45.59000000    51.74000000
   C     44.81000000    46.32000000    51.41000000
   O     43.78000000    45.99000000    51.98000000
   C     46.64000000    45.93000000    53.13000000
   C     47.43000000    47.23000000    53.20000000
   O     47.16000000    48.27000000    52.57000000
   O     48.36000000    47.26000000    54.04000000
   H     47.93000000    46.28000000    50.87000000
   H     45.76000000    44.56000000    51.80000000
   H     47.33000000    45.15000000    53.46000000
   H     45.81000000    46.03000000    53.82000000
   N     44.83000000    47.22000000    50.42000000
   C     43.60000000    47.82000000    49.94000000
   C     43.12000000    49.09000000    50.63000000
   O     41.96000000    49.47000000    50.53000000
   H     45.68000000    47.53000000    49.98000000
   H     42.78000000    47.10000000    49.96000000
   H     43.81000000    48.08000000    48.91000000
   N     43.94000000    49.78000000    51.43000000
   C     43.47000000    50.91000000    52.21000000
   C     43.53000000    52.18000000    51.38000000
   O     43.05000000    53.23000000    51.81000000
   C     44.17000000    50.99000000    53.56000000
   C     45.56000000    51.61000000    53.44000000
   N     45.87000000    52.63000000    54.24000000
   O     46.29000000    51.30000000    52.50000000
   H     44.81000000    49.30000000    51.63000000
   H     42.41000000    50.78000000    52.39000000
   H     44.23000000    49.97000000    53.94000000
   H     43.51000000    51.58000000    54.19000000
   H     45.27000000    52.85000000    55.02000000
   H     46.85000000    52.84000000    54.18000000
   N     44.17000000    52.24000000    50.21000000
   C     44.17000000    53.35000000    49.28000000
   C     45.49000000    54.04000000    49.01000000
   O     45.39000000    55.08000000    48.36000000
   H     44.68000000    51.40000000    49.96000000
   H     43.47000000    54.13000000    49.57000000
   H     43.83000000    52.95000000    48.32000000
   N     46.63000000    53.49000000    49.44000000
   C     47.90000000    54.15000000    49.19000000
   C     48.96000000    53.08000000    48.97000000
   O     48.81000000    51.95000000    49.44000000
   C     48.40000000    54.88000000    50.43000000
   C     47.37000000    55.79000000    51.04000000
   C     47.57000000    57.18000000    51.02000000
   C     46.35000000    55.27000000    51.85000000
   C     46.74000000    58.05000000    51.73000000
   C     45.53000000    56.14000000    52.57000000
   C     45.66000000    57.54000000    52.48000000
   O     44.79000000    58.30000000    53.22000000
   H     46.54000000    52.52000000    49.70000000
   H     47.78000000    54.69000000    48.25000000
   H     49.32000000    55.44000000    50.23000000
   H     48.66000000    54.17000000    51.21000000
   H     48.31000000    57.54000000    50.31000000
   H     46.32000000    54.20000000    52.01000000
   H     46.83000000    59.11000000    51.57000000
   H     44.82000000    55.71000000    53.27000000
   H     44.09000000    57.74000000    53.56000000
   N     50.10000000    53.37000000    48.33000000
   C     51.27000000    52.53000000    48.18000000
   C     52.38000000    53.07000000    49.08000000
   O     52.75000000    54.24000000    49.00000000
   C     51.72000000    52.46000000    46.72000000
   C     50.57000000    52.03000000    45.81000000
   C     52.85000000    51.44000000    46.73000000
   C     50.97000000    52.29000000    44.35000000
   H     50.25000000    54.18000000    47.76000000
   H     51.08000000    51.56000000    48.64000000
   H     52.12000000    53.42000000    46.42000000
   H     49.75000000    52.68000000    46.11000000
   H     50.30000000    50.98000000    45.89000000
   H     53.62000000    51.65000000    47.48000000
   H     52.54000000    50.40000000    46.67000000
   H     53.40000000    51.61000000    45.80000000
   H     50.09000000    52.28000000    43.71000000
   H     51.34000000    53.31000000    44.33000000
   H     51.71000000    51.67000000    43.85000000
   N     52.99000000    52.18000000    49.87000000
   C     53.96000000    52.40000000    50.92000000
   C     55.24000000    51.63000000    50.68000000
   O     55.25000000    50.76000000    49.81000000
   C     53.27000000    52.07000000    52.25000000
   O     52.83000000    50.74000000    52.35000000
   H     52.72000000    51.21000000    49.78000000
   H     54.26000000    53.45000000    50.95000000
   H     52.42000000    52.74000000    52.34000000
   H     53.98000000    52.38000000    53.02000000
   H     51.97000000    50.60000000    51.95000000
   N     56.34000000    52.03000000    51.33000000
   C     57.61000000    51.33000000    51.24000000
   C     57.54000000    49.86000000    51.63000000
   O     57.95000000    48.96000000    50.91000000
   C     58.70000000    52.06000000    52.03000000
   H     56.19000000    52.75000000    52.02000000
   H     57.94000000    51.40000000    50.20000000
   H     58.65000000    53.11000000    51.75000000
   H     58.31000000    52.10000000    53.04000000
   H     59.66000000    51.58000000    51.80000000
   N     56.81000000    49.53000000    52.70000000
   C     56.55000000    48.19000000    53.19000000
   C     55.81000000    47.30000000    52.21000000
   O     56.13000000    46.11000000    52.17000000
   C     55.84000000    48.42000000    54.52000000
   H     56.50000000    50.26000000    53.33000000
   H     57.54000000    47.73000000    53.20000000
   H     54.91000000    48.95000000    54.36000000
   H     55.65000000    47.49000000    55.06000000
   H     56.43000000    49.09000000    55.15000000
   N     55.04000000    47.91000000    51.30000000
   C     54.36000000    47.15000000    50.27000000
   C     55.24000000    47.05000000    49.03000000
   O     55.40000000    45.95000000    48.51000000
   C     53.08000000    47.85000000    49.84000000
   C     51.94000000    47.80000000    50.86000000
   C     50.77000000    48.75000000    50.65000000
   O     49.63000000    48.25000000    50.53000000
   O     50.87000000    49.99000000    50.75000000
   H     54.90000000    48.89000000    51.46000000
   H     54.22000000    46.13000000    50.64000000
   H     52.70000000    47.29000000    48.99000000
   H     53.24000000    48.91000000    49.64000000
   H     52.44000000    47.99000000    51.81000000
   H     51.62000000    46.76000000    50.81000000
   N     55.76000000    48.17000000    48.52000000
   C     56.54000000    48.32000000    47.31000000
   H     57.52800000    47.88600000    47.45900000
   H     56.03900000    47.80800000    46.48800000
   H     56.64100000    49.37900000    47.07100000
   H     55.66000000    49.01000000    49.06000000
  Ca     48.39000000    50.23000000    51.42000000
   O     49.82000000    49.41000000    53.63000000
   H     49.29000000    48.62000000    53.75000000
   H     50.52000000    49.32000000    54.27000000

Ca 1.70



