%Nproc=28
%chk=holo25.0.chk
%mem=80GB
%NoSave
#MP2(semidirect)/Gen scf=(tight,noincore) Test
#IOP(5/87=12) Density=Current Pop=(MK,readradii) iop(6/33=2) iop(6/42=6)

holo_loop_3_model_25.0 

   0   1
   C     30.91000000    71.92000000    10.24000000
   C     29.90000000    71.20000000     9.34000000
   C     28.79000000    72.06000000     8.75000000
   O     27.69000000    71.55000000     8.57000000
   O     29.11000000    73.33000000     8.38000000
   H     31.62900000    71.22300000    10.66900000
   H     30.39900000    72.40700000    11.07000000
   H     31.40000000    72.66000000     9.61000000
   H     29.46000000    70.45000000     9.99000000
   H     30.42000000    70.58000000     8.61000000
   H     29.95000000    73.57000000     8.78000000
   C     29.10000000    76.91000000    11.41000000
   C     29.83000000    77.59000000    10.25000000
   C     30.16000000    76.74000000     9.04000000
   O     30.69000000    75.61000000     9.10000000
   O     30.00000000    77.26000000     7.91000000
   H     29.76400000    76.14100000    11.80400000
   H     28.16700000    76.49100000    11.03500000
   H     28.87000000    77.59000000    12.23000000
   H     30.68000000    78.06000000    10.75000000
   H     29.23000000    78.43000000     9.88000000
   C     37.39000000    74.45000000     9.54000000
   C     36.00000000    74.33000000     8.92000000
   C     35.54000000    75.70000000     8.42000000
   C     34.16000000    75.77000000     7.78000000
   O     33.57000000    76.87000000     7.69000000
   O     33.83000000    74.83000000     7.01000000
   H     38.06500000    74.80500000     8.76100000
   H     37.68700000    73.47300000     9.92000000
   H     37.43000000    75.17000000    10.36000000
   H     35.38000000    73.97000000     9.74000000
   H     36.00000000    73.63000000     8.09000000
   H     36.30000000    76.21000000     7.84000000
   H     35.40000000    76.36000000     9.28000000
  Ca     31.39000000    75.63000000     6.51000000
   O     32.17000000    75.84000000     3.94000000
   H     31.85000000    76.64000000     3.53000000
   H     32.28000000    75.23000000     3.21000000

C O H 0
aug-cc-pVTZ 
****
@/home/pzhang5/ca_ccpvtz_basisset.gbs/N

Ca 1.70




