%Nproc=28
%chk=holo20.0.chk
%mem=80GB
%NoSave
#MP2(semidirect)/Gen scf=(tight,noincore) Test
#IOP(5/87=12) Density=Current Pop=(MK,readradii) iop(6/33=2) iop(6/42=6)

holo_loop_3_model_20.0 

   0   1
   C     31.28000000    70.67000000     9.89000000
   C     30.29000000    69.87000000     9.05000000
   C     29.18000000    70.73000000     8.45000000
   O     28.01000000    70.59000000     8.81000000
   O     29.40000000    71.44000000     7.31000000
   H     32.00700000    70.00900000    10.36100000
   H     30.75200000    71.20800000    10.67700000
   H     31.78000000    71.38000000     9.22000000
   H     29.87000000    69.11000000     9.71000000
   H     30.78000000    69.41000000     8.20000000
   H     30.29000000    71.23000000     7.03000000
   C     28.85000000    75.70000000    10.80000000
   C     29.28000000    76.49000000     9.57000000
   C     29.75000000    75.66000000     8.39000000
   O     29.77000000    74.41000000     8.36000000
   O     30.21000000    76.31000000     7.42000000
   H     29.64400000    75.00700000    11.08100000
   H     27.94200000    75.14100000    10.57400000
   H     28.66000000    76.38000000    11.62000000
   H     30.17000000    77.05000000     9.82000000
   H     28.49000000    77.18000000     9.27000000
   C     37.62000000    72.90000000     9.36000000
   C     36.25000000    72.93000000     8.69000000
   C     35.47000000    74.24000000     8.62000000
   C     34.13000000    74.15000000     7.91000000
   O     33.08000000    74.42000000     8.54000000
   O     34.10000000    73.95000000     6.68000000
   H     38.28200000    73.47800000     8.71600000
   H     37.91800000    71.85700000     9.47000000
   H     37.67000000    73.37000000    10.34000000
   H     35.74000000    72.13000000     9.23000000
   H     36.45000000    72.69000000     7.65000000
   H     36.05000000    75.00000000     8.10000000
   H     35.23000000    74.52000000     9.65000000
  Ca     31.56000000    74.27000000     6.41000000
   O     32.75000000    76.67000000     5.95000000
   H     33.35000000    76.62000000     5.20000000
   H     32.77000000    77.59000000     6.21000000

C O H 0
aug-cc-pVTZ 
****
@/home/pzhang5/ca_ccpvtz_basisset.gbs/N

Ca 1.70




