%Nproc=28
%chk=holo12.0.chk
%mem=80GB
%NoSave
#MP2(semidirect)/Gen scf=(tight,noincore) Test
#IOP(5/87=12) Density=Current Pop=(MK,readradii) iop(6/33=2) iop(6/42=6)

holo_loop_3_model_12.0 

   0   1
   C     31.03000000    72.16000000    10.57000000
   C     30.26000000    71.48000000     9.45000000
   C     29.15000000    72.29000000     8.78000000
   O     27.97000000    72.16000000     9.11000000
   O     29.50000000    73.15000000     7.79000000
   H     31.77700000    71.46300000    10.94900000
   H     30.33500000    72.44200000    11.36100000
   H     31.54000000    73.05000000    10.21000000
   H     29.66000000    70.67000000     9.85000000
   H     30.90000000    71.10000000     8.65000000
   H     30.40000000    73.20000000     7.46000000
   C     29.25000000    77.10000000    11.92000000
   C     30.22000000    77.92000000    11.08000000
   C     30.67000000    77.25000000     9.79000000
   O     31.08000000    77.95000000     8.83000000
   O     30.63000000    76.01000000     9.67000000
   H     29.77100000    76.22400000    12.30700000
   H     28.40900000    76.79100000    11.29900000
   H     28.88000000    77.69000000    12.76000000
   H     31.17000000    78.15000000    11.55000000
   H     29.69000000    78.86000000    10.90000000
   C     38.04000000    73.81000000    10.91000000
   C     36.70000000    74.11000000    10.26000000
   C     36.34000000    75.59000000    10.21000000
   C     35.10000000    75.87000000     9.37000000
   O     35.07000000    75.38000000     8.22000000
   O     34.04000000    76.33000000     9.84000000
   H     38.83200000    74.32000000    10.36100000
   H     38.22100000    72.73500000    10.89200000
   H     38.03000000    74.16000000    11.94000000
   H     35.92000000    73.60000000    10.83000000
   H     36.73000000    73.72000000     9.24000000
   H     36.98000000    76.20000000     9.59000000
   H     36.37000000    76.04000000    11.20000000
  Ca     32.44000000    76.13000000     7.58000000
   O     33.56000000    76.48000000     5.07000000
   H     33.51000000    76.78000000     4.17000000
   H     34.13000000    77.11000000     5.50000000

C O H 0
aug-cc-pVTZ 
****
@/home/pzhang5/ca_ccpvtz_basisset.gbs/N

Ca 1.70




