%Nproc=28
%chk=holo2.0.chk
%mem=80GB
%NoSave
#MP2(semidirect)/Gen scf=(tight,noincore) Test
#IOP(5/87=12) Density=Current Pop=(MK,readradii) iop(6/33=2) iop(6/42=6)

holo_loop_3_model_2.0 

   0   1
   C     44.40000000    52.96000000    36.19000000
   C     43.36000000    54.06000000    36.01000000
   C     42.34000000    53.86000000    37.12000000
   O     41.27000000    53.31000000    36.88000000
   O     42.77000000    54.14000000    38.39000000
   H     45.24000000    53.14000000    35.52000000
   H     43.95300000    51.99400000    35.95700000
   H     44.75000000    52.96000000    37.22000000
   H     42.95000000    53.98000000    35.00000000
   H     43.85000000    55.03000000    36.05000000
   H     42.18000000    53.64000000    38.96000000
   C     43.14000000    48.51000000    39.05000000
   C     43.52000000    49.11000000    40.40000000
   C     43.61000000    50.63000000    40.33000000
   O     43.53000000    51.35000000    39.31000000
   O     43.64000000    51.14000000    41.47000000
   H     43.91200000    48.81900000    38.34500000
   H     42.14900000    48.87500000    38.78100000
   H     43.12000000    47.42000000    39.03000000
   H     44.38000000    48.56000000    40.78000000
   H     42.73000000    48.88000000    41.11000000
   C     50.75000000    54.69000000    39.60000000
   C     49.23000000    54.75000000    39.46000000
   C     48.62000000    53.62000000    40.29000000
   C     47.12000000    53.63000000    40.02000000
   O     46.59000000    54.76000000    40.17000000
   O     46.59000000    52.55000000    39.67000000
   H     51.01100000    55.05900000    40.59200000
   H     51.20000000    55.30400000    38.82000000
   H     51.13000000    53.67000000    39.51000000
   H     48.90000000    54.60000000    38.44000000
   H     48.85000000    55.68000000    39.87000000
   H     48.61000000    53.80000000    41.36000000
   H     49.12000000    52.67000000    40.10000000
  Ca     44.32000000    53.63000000    40.72000000
   O     45.85000000    52.69000000    42.70000000
   H     46.21000000    52.86000000    43.57000000
   H     45.76000000    51.73000000    42.67000000

C O H 0
aug-cc-pVTZ 
****
@/home/pzhang5/ca_ccpvtz_basisset.gbs/N

Ca 1.70




