%chk=Ng-293_loop3_46.0.chk
%nprocshared=48
%mem=10GB
%nosave
#b3lyp/svp scf=(tight,noincore) Test 
#IOP(5/87=12) Density=Current Pop=(MK,readradii) iop(6/33=2) iop(6/42=6)

Ng-293_loop3_46.0 

   0   1
   C     55.69000000    23.19000000     7.68000000
   C     55.29000000    24.55000000     7.11000000
   O     55.13000000    24.63000000     5.89000000
   H     56.60600000    23.29500000     8.26100000
   H     54.89300000    22.81600000     8.32300000
   H     55.85700000    22.48800000     6.86300000
   N     55.17000000    25.61000000     7.91000000
   C     54.65000000    26.90000000     7.52000000
   C     53.13000000    26.91000000     7.62000000
   O     52.47000000    26.45000000     8.54000000
   C     55.20000000    28.02000000     8.40000000
   C     55.12000000    27.89000000     9.91000000
   O     55.24000000    28.91000000    10.63000000
   O     54.92000000    26.77000000    10.43000000
   H     55.46000000    25.52000000     8.88000000
   H     54.94000000    27.03000000     6.48000000
   H     54.71000000    28.94000000     8.07000000
   H     56.25000000    28.20000000     8.16000000
   N     52.62000000    27.72000000     6.68000000
   C     51.27000000    27.86000000     6.18000000
   C     50.15000000    28.32000000     7.10000000
   O     49.08000000    28.55000000     6.56000000
   C     50.92000000    26.57000000     5.44000000
   C     51.70000000    26.48000000     4.13000000
   C     51.01000000    25.56000000     3.14000000
   C     51.77000000    25.49000000     1.82000000
   N     51.02000000    24.66000000     0.87000000
   H     53.32000000    28.25000000     6.18000000
   H     51.31000000    28.65000000     5.43000000
   H     49.84000000    26.54000000     5.27000000
   H     51.07000000    25.71000000     6.09000000
   H     52.73000000    26.19000000     4.35000000
   H     51.74000000    27.47000000     3.69000000
   H     49.97000000    25.83000000     2.97000000
   H     51.04000000    24.58000000     3.62000000
   H     52.79000000    25.22000000     2.12000000
   H     51.88000000    26.48000000     1.36000000
   H     50.10000000    25.07000000     0.81000000
   H     51.35000000    24.77000000    -0.08000000
   H     50.90000000    23.67000000     1.02000000
   N     50.45000000    28.55000000     8.39000000
   C     49.57000000    29.13000000     9.38000000
   C     50.37000000    30.04000000    10.30000000
   O     51.50000000    29.71000000    10.63000000
   C     48.89000000    27.98000000    10.12000000
   C     47.64000000    28.38000000    10.89000000
   O     47.30000000    29.58000000    10.86000000
   O     46.93000000    27.53000000    11.48000000
   H     51.42000000    28.40000000     8.62000000
   H     48.73000000    29.66000000     8.92000000
   H     49.61000000    27.69000000    10.88000000
   H     48.74000000    27.16000000     9.42000000
   N     49.81000000    31.16000000    10.77000000
   C     50.36000000    32.05000000    11.77000000
   C     49.84000000    31.81000000    13.18000000
   O     48.65000000    31.70000000    13.49000000
   H     48.80000000    31.21000000    10.72000000
   H     50.26000000    33.10000000    11.51000000
   H     51.45000000    32.01000000    11.74000000
   N     50.78000000    31.75000000    14.12000000
   C     50.60000000    31.19000000    15.44000000
   C     51.06000000    32.11000000    16.57000000
   O     50.50000000    32.00000000    17.66000000
   C     51.41000000    29.90000000    15.57000000
   C     51.13000000    28.83000000    14.51000000
   N     52.11000000    28.64000000    13.62000000
   O     50.16000000    28.09000000    14.48000000
   H     51.73000000    31.74000000    13.77000000
   H     49.56000000    30.87000000    15.51000000
   H     51.24000000    29.42000000    16.53000000
   H     52.47000000    30.13000000    15.56000000
   H     52.99000000    29.11000000    13.77000000
   H     51.98000000    27.98000000    12.87000000
   N     52.01000000    33.02000000    16.35000000
   C     52.44000000    34.01000000    17.32000000
   C     52.90000000    33.33000000    18.60000000
   O     53.78000000    32.48000000    18.55000000
   H     52.26000000    33.16000000    15.39000000
   H     51.63000000    34.66000000    17.63000000
   H     53.30000000    34.57000000    16.94000000
   N     52.44000000    33.76000000    19.78000000
   C     52.66000000    33.27000000    21.12000000
   C     52.38000000    31.77000000    21.22000000
   O     52.70000000    31.17000000    22.24000000
   C     54.05000000    33.70000000    21.59000000
   C     54.28000000    35.19000000    21.70000000
   C     54.75000000    35.89000000    20.59000000
   C     53.98000000    35.89000000    22.88000000
   C     54.87000000    37.28000000    20.66000000
   C     54.16000000    37.27000000    22.95000000
   C     54.60000000    38.01000000    21.83000000
   O     54.77000000    39.36000000    21.85000000
   H     51.64000000    34.37000000    19.67000000
   H     51.97000000    33.80000000    21.78000000
   H     54.77000000    33.21000000    20.93000000
   H     54.17000000    33.37000000    22.62000000
   H     54.97000000    35.30000000    19.71000000
   H     53.61000000    35.23000000    23.65000000
   H     55.13000000    37.78000000    19.74000000
   H     53.92000000    37.79000000    23.87000000
   H     54.34000000    39.78000000    22.60000000
   N     51.67000000    31.19000000    20.25000000
   C     51.12000000    29.85000000    20.20000000
   C     49.98000000    29.64000000    21.19000000
   O     48.95000000    29.10000000    20.80000000
   C     52.11000000    28.69000000    20.17000000
   C     53.38000000    29.03000000    19.40000000
   C     51.55000000    27.35000000    19.71000000
   C     54.51000000    28.00000000    19.34000000
   H     51.37000000    31.67000000    19.41000000
   H     50.66000000    29.68000000    19.22000000
   H     52.45000000    28.52000000    21.20000000
   H     53.81000000    29.97000000    19.74000000
   H     53.06000000    29.13000000    18.37000000
   H     51.31000000    27.35000000    18.64000000
   H     52.34000000    26.64000000    19.96000000
   H     50.60000000    27.20000000    20.23000000
   H     54.61000000    27.46000000    20.28000000
   H     54.26000000    27.32000000    18.52000000
   H     55.48000000    28.40000000    19.06000000
   N     50.04000000    30.18000000    22.40000000
   C     48.88000000    30.65000000    23.15000000
   C     48.10000000    29.59000000    23.91000000
   O     47.02000000    29.95000000    24.38000000
   C     49.19000000    31.83000000    24.06000000
   O     49.96000000    32.84000000    23.46000000
   H     50.91000000    30.65000000    22.59000000
   H     48.13000000    30.99000000    22.43000000
   H     49.75000000    31.27000000    24.81000000
   H     48.29000000    32.27000000    24.50000000
   H     49.63000000    32.94000000    22.56000000
   N     48.58000000    28.35000000    23.93000000
   C     47.79000000    27.15000000    24.12000000
   C     46.48000000    27.28000000    23.35000000
   O     45.41000000    27.23000000    23.95000000
   C     47.63000000    26.81000000    25.60000000
   H     49.46000000    28.27000000    23.44000000
   H     48.37000000    26.32000000    23.70000000
   H     47.19000000    25.84000000    25.82000000
   H     48.62000000    26.92000000    26.06000000
   H     47.02000000    27.58000000    26.08000000
   N     46.60000000    27.44000000    22.03000000
   C     45.47000000    27.58000000    21.13000000
   C     45.55000000    26.47000000    20.08000000
   O     46.59000000    25.84000000    19.94000000
   C     45.49000000    28.95000000    20.46000000
   H     47.48000000    27.44000000    21.54000000
   H     44.59000000    27.37000000    21.74000000
   H     44.51000000    29.02000000    19.98000000
   H     45.52000000    29.78000000    21.17000000
   H     46.33000000    29.09000000    19.78000000
   N     44.48000000    26.33000000    19.30000000
   C     44.33000000    25.53000000    18.10000000
   C     44.72000000    24.07000000    18.33000000
   O     45.41000000    23.45000000    17.53000000
   C     44.88000000    26.21000000    16.86000000
   C     44.31000000    27.61000000    16.63000000
   C     44.35000000    28.02000000    15.17000000
   O     43.72000000    29.05000000    14.85000000
   O     45.07000000    27.41000000    14.35000000
   H     43.64000000    26.83000000    19.57000000
   H     43.26000000    25.52000000    17.88000000
   H     44.61000000    25.53000000    16.05000000
   H     45.95000000    26.28000000    17.02000000
   H     44.81000000    28.28000000    17.33000000
   H     43.26000000    27.70000000    16.94000000
   N     44.30000000    23.54000000    19.48000000
   C     44.84000000    22.32000000    20.04000000
   H     45.77300000    22.54100000    20.55900000
   H     44.12500000    21.89500000    20.74500000
   H     45.03000000    21.60500000    19.23900000
   H     43.67000000    24.05000000    20.07000000
  Ca     44.73000000    28.61000000    12.18000000
   O     42.25000000    29.02000000    11.93000000
   H     41.58000000    28.35000000    12.07000000
   H     41.82000000    29.68000000    11.39000000

Ca 1.70



