%chk=Ng-293_loop3_59.0.chk
%nprocshared=48
%mem=10GB
%nosave
#b3lyp/svp scf=(tight,noincore) Test 
#IOP(5/87=12) Density=Current Pop=(MK,readradii) iop(6/33=2) iop(6/42=6)

Ng-293_loop3_59.0 

   0   1
   C     51.88000000    22.67000000     8.89000000
   C     51.64000000    23.82000000     7.92000000
   O     51.72000000    24.96000000     8.39000000
   H     52.70000000    22.92600000     9.56000000
   H     50.97700000    22.49200000     9.47400000
   H     52.13600000    21.77000000     8.33100000
   N     51.45000000    23.60000000     6.62000000
   C     51.52000000    24.55000000     5.52000000
   C     50.65000000    25.78000000     5.71000000
   O     51.19000000    26.88000000     5.81000000
   C     52.98000000    24.78000000     5.18000000
   C     53.55000000    23.70000000     4.27000000
   O     53.80000000    22.54000000     4.66000000
   O     53.78000000    24.02000000     3.08000000
   H     51.28000000    22.66000000     6.31000000
   H     51.14000000    24.04000000     4.63000000
   H     53.64000000    24.98000000     6.02000000
   H     53.04000000    25.63000000     4.49000000
   N     49.33000000    25.56000000     5.69000000
   C     48.18000000    26.36000000     6.07000000
   C     48.30000000    27.84000000     5.76000000
   O     48.05000000    28.17000000     4.60000000
   C     47.99000000    25.97000000     7.53000000
   C     47.75000000    24.51000000     7.92000000
   C     47.23000000    24.40000000     9.35000000
   C     46.57000000    23.02000000     9.40000000
   N     46.21000000    22.51000000    10.73000000
   H     49.11000000    24.58000000     5.58000000
   H     47.35000000    25.98000000     5.48000000
   H     47.10000000    26.53000000     7.83000000
   H     48.80000000    26.33000000     8.16000000
   H     48.60000000    23.87000000     7.68000000
   H     46.93000000    24.15000000     7.31000000
   H     46.44000000    25.15000000     9.49000000
   H     48.10000000    24.43000000    10.00000000
   H     47.33000000    22.32000000     9.06000000
   H     45.70000000    23.03000000     8.74000000
   H     45.89000000    21.56000000    10.64000000
   H     47.04000000    22.51000000    11.31000000
   H     45.57000000    23.03000000    11.31000000
   N     48.71000000    28.70000000     6.70000000
   C     49.14000000    30.08000000     6.59000000
   C     50.30000000    30.32000000     7.54000000
   O     50.42000000    29.53000000     8.48000000
   C     47.98000000    31.01000000     6.95000000
   C     48.46000000    32.44000000     6.80000000
   O     48.39000000    32.86000000     5.63000000
   O     48.81000000    33.13000000     7.79000000
   H     48.99000000    28.35000000     7.60000000
   H     49.41000000    30.24000000     5.54000000
   H     47.67000000    30.82000000     7.98000000
   H     47.21000000    30.75000000     6.22000000
   N     51.21000000    31.27000000     7.33000000
   C     52.46000000    31.36000000     8.06000000
   C     52.37000000    32.24000000     9.30000000
   O     51.29000000    32.74000000     9.60000000
   H     51.20000000    31.67000000     6.40000000
   H     53.28000000    31.75000000     7.46000000
   H     52.78000000    30.40000000     8.44000000
   N     53.42000000    32.21000000    10.13000000
   C     53.45000000    32.89000000    11.40000000
   C     54.74000000    33.67000000    11.61000000
   O     54.67000000    34.58000000    12.43000000
   C     53.36000000    31.84000000    12.51000000
   C     52.01000000    31.14000000    12.56000000
   N     51.17000000    31.54000000    13.52000000
   O     51.67000000    30.23000000    11.81000000
   H     54.18000000    31.59000000     9.91000000
   H     52.63000000    33.61000000    11.37000000
   H     53.63000000    32.20000000    13.50000000
   H     54.14000000    31.14000000    12.21000000
   H     51.37000000    32.36000000    14.08000000
   H     50.24000000    31.14000000    13.58000000
   N     55.90000000    33.26000000    11.09000000
   C     57.14000000    33.99000000    11.22000000
   C     57.63000000    34.10000000    12.66000000
   O     57.57000000    33.10000000    13.38000000
   H     55.91000000    32.39000000    10.57000000
   H     56.96000000    35.00000000    10.87000000
   H     57.93000000    33.54000000    10.61000000
   N     58.07000000    35.27000000    13.11000000
   C     58.41000000    35.59000000    14.49000000
   C     57.30000000    35.48000000    15.52000000
   O     57.46000000    36.02000000    16.62000000
   C     59.72000000    34.94000000    14.91000000
   C     60.79000000    34.88000000    13.84000000
   C     61.05000000    33.68000000    13.16000000
   C     61.55000000    36.04000000    13.67000000
   C     62.05000000    33.73000000    12.18000000
   C     62.56000000    36.05000000    12.70000000
   C     62.79000000    34.90000000    11.92000000
   O     63.63000000    34.92000000    10.85000000
   H     58.25000000    35.95000000    12.38000000
   H     58.66000000    36.65000000    14.44000000
   H     59.44000000    33.90000000    15.06000000
   H     60.16000000    35.35000000    15.82000000
   H     60.56000000    32.73000000    13.34000000
   H     61.33000000    36.94000000    14.22000000
   H     62.29000000    32.78000000    11.71000000
   H     63.21000000    36.90000000    12.61000000
   H     64.19000000    35.70000000    10.84000000
   N     56.17000000    34.86000000    15.18000000
   C     55.07000000    34.45000000    16.03000000
   C     54.16000000    35.50000000    16.66000000
   O     52.94000000    35.31000000    16.65000000
   C     55.55000000    33.42000000    17.05000000
   C     56.07000000    32.11000000    16.46000000
   C     54.40000000    33.02000000    17.97000000
   C     56.91000000    31.34000000    17.47000000
   H     56.06000000    34.65000000    14.20000000
   H     54.44000000    33.89000000    15.35000000
   H     56.37000000    33.87000000    17.62000000
   H     56.79000000    32.33000000    15.68000000
   H     55.20000000    31.56000000    16.09000000
   H     54.57000000    32.21000000    18.68000000
   H     54.15000000    33.78000000    18.70000000
   H     53.53000000    32.78000000    17.37000000
   H     56.42000000    30.91000000    18.35000000
   H     57.28000000    30.44000000    16.97000000
   H     57.85000000    31.84000000    17.68000000
   N     54.72000000    36.60000000    17.17000000
   C     53.98000000    37.76000000    17.61000000
   C     52.93000000    37.56000000    18.70000000
   O     52.06000000    38.42000000    18.82000000
   C     54.97000000    38.81000000    18.10000000
   O     55.96000000    39.00000000    17.11000000
   H     55.72000000    36.73000000    17.11000000
   H     53.43000000    38.24000000    16.80000000
   H     55.49000000    38.53000000    19.02000000
   H     54.38000000    39.72000000    18.16000000
   H     56.56000000    39.68000000    17.45000000
   N     53.01000000    36.41000000    19.37000000
   C     51.99000000    35.97000000    20.31000000
   C     50.55000000    35.96000000    19.83000000
   O     49.59000000    36.05000000    20.60000000
   C     52.25000000    36.68000000    21.63000000
   H     53.87000000    35.89000000    19.28000000
   H     52.16000000    34.92000000    20.52000000
   H     52.07000000    37.76000000    21.64000000
   H     51.76000000    36.11000000    22.43000000
   H     53.27000000    36.44000000    21.93000000
   N     50.40000000    35.90000000    18.51000000
   C     49.11000000    35.98000000    17.85000000
   C     48.57000000    34.61000000    17.46000000
   O     49.33000000    33.67000000    17.24000000
   C     49.23000000    36.91000000    16.64000000
   H     51.19000000    36.01000000    17.90000000
   H     48.37000000    36.45000000    18.50000000
   H     50.01000000    36.60000000    15.94000000
   H     48.23000000    36.83000000    16.21000000
   H     49.33000000    37.95000000    16.93000000
   N     47.24000000    34.48000000    17.37000000
   C     46.46000000    33.38000000    16.85000000
   C     46.50000000    32.05000000    17.58000000
   O     46.09000000    31.01000000    17.06000000
   C     46.60000000    33.13000000    15.35000000
   C     46.64000000    34.30000000    14.37000000
   C     46.86000000    33.92000000    12.91000000
   O     46.74000000    34.75000000    11.98000000
   O     47.21000000    32.76000000    12.62000000
   H     46.71000000    35.28000000    17.68000000
   H     45.44000000    33.73000000    17.03000000
   H     45.79000000    32.47000000    15.06000000
   H     47.48000000    32.51000000    15.16000000
   H     47.43000000    34.95000000    14.73000000
   H     45.68000000    34.76000000    14.60000000
   N     47.03000000    32.00000000    18.80000000
   C     47.45000000    30.85000000    19.57000000
   H     48.35700000    31.09500000    20.12300000
   H     46.66200000    30.57300000    20.27000000
   H     47.65000000    30.01500000    18.89800000
   H     47.46000000    32.88000000    19.05000000
  Ca     48.34000000    33.37000000    10.37000000
   O     49.26000000    30.96000000    10.76000000
   H     48.77000000    30.35000000    11.32000000
   H     50.06000000    30.49000000    10.53000000

Ca 1.70



