%chk=Ng-293_loop3_35.0.chk
%nprocshared=48
%mem=10GB
%nosave
#b3lyp/svp scf=(tight,noincore) Test 
#IOP(5/87=12) Density=Current Pop=(MK,readradii) iop(6/33=2) iop(6/42=6)

Ng-293_loop3_35.0 

   0   1
   C     43.35000000    81.37000000    69.39000000
   C     43.24000000    81.72000000    67.91000000
   O     44.21000000    82.22000000    67.34000000
   H     43.83000000    82.19100000    69.92200000
   H     42.35400000    81.20500000    69.80000000
   H     43.94600000    80.46500000    69.50700000
   N     42.12000000    81.42000000    67.25000000
   C     41.85000000    81.57000000    65.84000000
   C     41.75000000    80.19000000    65.21000000
   O     41.52000000    79.17000000    65.87000000
   C     40.59000000    82.39000000    65.55000000
   C     40.61000000    83.04000000    64.17000000
   O     41.60000000    82.85000000    63.43000000
   O     39.65000000    83.76000000    63.85000000
   H     41.36000000    81.03000000    67.78000000
   H     42.76000000    82.03000000    65.45000000
   H     40.53000000    83.20000000    66.27000000
   H     39.82000000    81.66000000    65.78000000
   N     41.84000000    80.13000000    63.88000000
   C     41.43000000    79.06000000    62.99000000
   C     39.92000000    78.94000000    62.91000000
   O     39.18000000    79.51000000    63.71000000
   C     42.25000000    77.79000000    63.22000000
   C     43.75000000    77.96000000    63.04000000
   C     44.17000000    78.03000000    61.57000000
   C     45.68000000    77.99000000    61.37000000
   N     46.26000000    77.92000000    60.02000000
   H     42.06000000    81.00000000    63.41000000
   H     41.73000000    79.42000000    62.00000000
   H     41.95000000    76.96000000    62.59000000
   H     42.10000000    77.45000000    64.25000000
   H     44.19000000    77.06000000    63.48000000
   H     44.20000000    78.78000000    63.62000000
   H     43.80000000    78.96000000    61.14000000
   H     43.61000000    77.19000000    61.16000000
   H     46.21000000    77.23000000    61.94000000
   H     46.16000000    78.82000000    61.90000000
   H     47.27000000    77.98000000    60.05000000
   H     45.96000000    77.10000000    59.51000000
   H     45.95000000    78.70000000    59.46000000
   N     39.43000000    78.19000000    61.92000000
   C     38.05000000    78.38000000    61.51000000
   C     37.06000000    77.37000000    62.07000000
   O     35.95000000    77.85000000    62.29000000
   C     38.01000000    78.50000000    59.99000000
   C     38.55000000    77.29000000    59.25000000
   O     37.84000000    76.75000000    58.38000000
   O     39.65000000    76.74000000    59.50000000
   H     40.03000000    77.86000000    61.18000000
   H     37.80000000    79.36000000    61.90000000
   H     38.57000000    79.40000000    59.74000000
   H     36.97000000    78.70000000    59.74000000
   N     37.49000000    76.13000000    62.27000000
   C     36.80000000    75.04000000    62.93000000
   C     35.32000000    74.97000000    62.57000000
   O     34.50000000    74.84000000    63.47000000
   H     38.46000000    75.99000000    62.03000000
   H     36.76000000    75.20000000    64.01000000
   H     37.20000000    74.07000000    62.63000000
   N     34.99000000    75.16000000    61.29000000
   C     33.59000000    75.28000000    60.93000000
   C     32.80000000    73.98000000    60.91000000
   O     33.22000000    72.94000000    60.41000000
   C     33.59000000    76.12000000    59.66000000
   C     32.22000000    76.12000000    58.99000000
   N     32.23000000    75.63000000    57.75000000
   O     31.22000000    76.47000000    59.61000000
   H     35.71000000    75.47000000    60.65000000
   H     33.20000000    75.97000000    61.68000000
   H     34.36000000    75.83000000    58.95000000
   H     33.68000000    77.18000000    59.91000000
   H     33.15000000    75.32000000    57.45000000
   H     31.31000000    75.54000000    57.34000000
   N     31.53000000    74.07000000    61.31000000
   C     30.56000000    72.99000000    61.29000000
   C     30.84000000    71.79000000    62.17000000
   O     31.20000000    72.01000000    63.33000000
   H     31.13000000    74.98000000    61.51000000
   H     30.36000000    72.62000000    60.28000000
   H     29.62000000    73.39000000    61.66000000
   N     30.82000000    70.55000000    61.66000000
   C     31.33000000    69.45000000    62.46000000
   C     32.76000000    69.43000000    62.98000000
   O     33.14000000    68.55000000    63.75000000
   C     30.29000000    69.02000000    63.48000000
   C     28.99000000    68.60000000    62.84000000
   C     27.87000000    69.45000000    62.84000000
   C     28.97000000    67.50000000    61.97000000
   C     26.66000000    69.14000000    62.22000000
   C     27.80000000    67.22000000    61.25000000
   C     26.64000000    68.02000000    61.37000000
   O     25.47000000    67.62000000    60.79000000
   H     30.42000000    70.47000000    60.74000000
   H     31.39000000    68.61000000    61.76000000
   H     30.16000000    69.79000000    64.25000000
   H     30.67000000    68.17000000    64.05000000
   H     27.87000000    70.32000000    63.48000000
   H     29.81000000    66.84000000    61.86000000
   H     25.79000000    69.76000000    62.36000000
   H     27.77000000    66.49000000    60.46000000
   H     25.60000000    66.71000000    60.50000000
   N     33.59000000    70.39000000    62.57000000
   C     35.01000000    70.52000000    62.81000000
   C     35.83000000    69.51000000    62.02000000
   O     36.85000000    69.84000000    61.42000000
   C     35.44000000    70.56000000    64.28000000
   C     34.66000000    71.63000000    65.05000000
   C     36.93000000    70.81000000    64.50000000
   C     34.69000000    71.65000000    66.57000000
   H     33.08000000    71.16000000    62.16000000
   H     35.29000000    71.45000000    62.31000000
   H     35.30000000    69.56000000    64.67000000
   H     33.63000000    71.43000000    64.75000000
   H     34.86000000    72.58000000    64.55000000
   H     37.21000000    70.79000000    65.56000000
   H     37.51000000    70.01000000    64.05000000
   H     37.25000000    71.78000000    64.14000000
   H     35.70000000    71.95000000    66.85000000
   H     33.96000000    72.42000000    66.80000000
   H     34.43000000    70.69000000    67.03000000
   N     35.39000000    68.28000000    61.78000000
   C     35.78000000    67.24000000    60.84000000
   C     37.18000000    66.66000000    60.99000000
   O     37.76000000    66.17000000    60.03000000
   C     34.75000000    66.12000000    60.95000000
   O     33.57000000    66.75000000    60.49000000
   H     34.44000000    68.13000000    62.10000000
   H     35.72000000    67.58000000    59.80000000
   H     34.76000000    65.82000000    62.00000000
   H     35.02000000    65.30000000    60.29000000
   H     32.89000000    66.08000000    60.54000000
   N     37.74000000    66.60000000    62.20000000
   C     38.99000000    66.10000000    62.73000000
   C     40.29000000    66.64000000    62.15000000
   O     41.37000000    66.19000000    62.51000000
   C     38.92000000    64.57000000    62.73000000
   H     37.19000000    67.09000000    62.90000000
   H     39.01000000    66.32000000    63.79000000
   H     39.70000000    64.25000000    63.42000000
   H     37.99000000    64.21000000    63.17000000
   H     39.00000000    64.14000000    61.74000000
   N     40.19000000    67.66000000    61.28000000
   C     41.25000000    68.20000000    60.46000000
   C     41.95000000    69.30000000    61.25000000
   O     41.41000000    69.87000000    62.20000000
   C     40.66000000    68.74000000    59.15000000
   H     39.23000000    67.83000000    61.04000000
   H     42.02000000    67.46000000    60.23000000
   H     39.86000000    69.44000000    59.39000000
   H     41.33000000    69.30000000    58.51000000
   H     40.20000000    67.90000000    58.63000000
   N     43.05000000    69.79000000    60.69000000
   C     43.86000000    70.95000000    60.99000000
   C     44.49000000    71.01000000    62.37000000
   O     45.09000000    72.02000000    62.74000000
   C     43.20000000    72.25000000    60.51000000
   C     42.66000000    72.19000000    59.08000000
   C     42.04000000    73.51000000    58.65000000
   O     40.85000000    73.74000000    58.96000000
   O     42.68000000    74.30000000    57.93000000
   H     43.38000000    69.22000000    59.92000000
   H     44.65000000    71.01000000    60.24000000
   H     43.90000000    73.08000000    60.52000000
   H     42.40000000    72.39000000    61.24000000
   H     41.87000000    71.44000000    59.09000000
   H     43.40000000    71.93000000    58.32000000
   N     44.38000000    69.97000000    63.20000000
   C     44.93000000    69.83000000    64.53000000
   H     45.81700000    70.45600000    64.62300000
   H     44.18800000    70.14100000    65.26500000
   H     45.20100000    68.78900000    64.70400000
   H     43.92000000    69.13000000    62.88000000
  Ca     40.57000000    75.93000000    57.31000000
   O     42.62000000    77.26000000    58.37000000
   H     43.53000000    77.45000000    58.13000000
   H     42.32000000    78.03000000    58.85000000

Ca 1.70



