%chk=Ng-293_loop3_66.0.chk
%nprocshared=48
%mem=10GB
%nosave
#b3lyp/svp scf=(tight,noincore) Test 
#IOP(5/87=12) Density=Current Pop=(MK,readradii) iop(6/33=2) iop(6/42=6)

Ng-293_loop3_66.0 

   0   1
   C     59.27000000    92.03000000    75.43000000
   C     59.79000000    91.54000000    74.09000000
   O     60.99000000    91.29000000    73.97000000
   H     58.24700000    91.68100000    75.57200000
   H     59.90100000    91.64100000    76.22900000
   H     59.28700000    93.12000000    75.45100000
   N     59.00000000    91.48000000    73.01000000
   C     59.42000000    91.20000000    71.65000000
   C     58.18000000    90.71000000    70.90000000
   O     57.10000000    91.19000000    71.21000000
   C     59.90000000    92.50000000    71.02000000
   C     60.55000000    92.16000000    69.69000000
   O     60.72000000    93.18000000    68.98000000
   O     60.87000000    91.03000000    69.27000000
   H     58.03000000    91.74000000    73.10000000
   H     60.21000000    90.45000000    71.58000000
   H     60.58000000    93.03000000    71.70000000
   H     59.07000000    93.20000000    70.91000000
   N     58.36000000    89.80000000    69.95000000
   C     57.37000000    89.29000000    69.01000000
   C     56.95000000    90.32000000    67.98000000
   O     57.77000000    90.69000000    67.14000000
   C     56.19000000    88.53000000    69.62000000
   C     55.57000000    87.68000000    68.51000000
   C     56.38000000    86.64000000    67.75000000
   C     55.61000000    85.57000000    66.98000000
   N     56.41000000    84.40000000    66.57000000
   H     59.27000000    89.38000000    69.86000000
   H     57.92000000    88.59000000    68.38000000
   H     55.55000000    89.24000000    70.12000000
   H     56.66000000    87.86000000    70.34000000
   H     55.14000000    88.37000000    67.78000000
   H     54.66000000    87.20000000    68.87000000
   H     57.02000000    86.11000000    68.46000000
   H     56.93000000    87.14000000    66.96000000
   H     55.25000000    86.14000000    66.12000000
   H     54.76000000    85.12000000    67.48000000
   H     56.75000000    84.44000000    65.62000000
   H     57.16000000    84.29000000    67.24000000
   H     55.89000000    83.53000000    66.55000000
   N     55.74000000    90.89000000    67.96000000
   C     55.32000000    91.87000000    66.97000000
   C     54.24000000    92.79000000    67.51000000
   O     53.55000000    92.43000000    68.46000000
   C     54.85000000    91.29000000    65.64000000
   C     53.68000000    90.33000000    65.64000000
   O     53.49000000    89.66000000    64.60000000
   O     52.87000000    90.21000000    66.58000000
   H     55.09000000    90.65000000    68.68000000
   H     56.11000000    92.60000000    66.79000000
   H     55.76000000    90.90000000    65.19000000
   H     54.46000000    92.14000000    65.07000000
   N     54.03000000    93.97000000    66.92000000
   C     52.73000000    94.57000000    67.14000000
   C     51.65000000    93.83000000    66.35000000
   O     51.91000000    93.32000000    65.26000000
   H     54.65000000    94.38000000    66.23000000
   H     52.70000000    95.62000000    66.88000000
   H     52.47000000    94.64000000    68.19000000
   N     50.43000000    93.82000000    66.88000000
   C     49.20000000    93.33000000    66.30000000
   C     48.28000000    94.46000000    65.86000000
   O     47.25000000    94.12000000    65.29000000
   C     48.60000000    92.42000000    67.37000000
   C     49.37000000    91.13000000    67.62000000
   N     49.62000000    90.65000000    68.84000000
   O     49.60000000    90.32000000    66.72000000
   H     50.37000000    94.30000000    67.77000000
   H     49.36000000    92.62000000    65.49000000
   H     47.64000000    92.05000000    67.02000000
   H     48.49000000    93.01000000    68.28000000
   H     49.36000000    91.08000000    69.72000000
   H     50.06000000    89.75000000    68.94000000
   N     48.56000000    95.75000000    66.08000000
   C     47.84000000    96.92000000    65.63000000
   C     46.43000000    97.14000000    66.17000000
   O     46.31000000    97.38000000    67.37000000
   H     49.36000000    95.93000000    66.67000000
   H     47.81000000    97.00000000    64.54000000
   H     48.54000000    97.66000000    66.02000000
   N     45.41000000    97.07000000    65.31000000
   C     44.03000000    97.08000000    65.75000000
   C     43.52000000    95.92000000    66.60000000
   O     42.38000000    95.94000000    67.06000000
   C     43.66000000    98.40000000    66.42000000
   C     44.03000000    99.60000000    65.58000000
   C     45.33000000   100.11000000    65.65000000
   C     43.16000000    99.93000000    64.54000000
   C     45.64000000   101.14000000    64.76000000
   C     43.48000000   100.98000000    63.67000000
   C     44.78000000   101.53000000    63.71000000
   O     45.10000000   102.50000000    62.80000000
   H     45.48000000    96.74000000    64.36000000
   H     43.37000000    97.01000000    64.89000000
   H     44.12000000    98.44000000    67.41000000
   H     42.59000000    98.50000000    66.61000000
   H     45.95000000    99.72000000    66.44000000
   H     42.24000000    99.37000000    64.45000000
   H     46.62000000   101.59000000    64.73000000
   H     42.85000000   101.19000000    62.82000000
   H     44.34000000   102.96000000    62.45000000
   N     44.34000000    94.87000000    66.69000000
   C     44.12000000    93.59000000    67.33000000
   C     42.95000000    92.80000000    66.76000000
   O     43.16000000    91.60000000    66.60000000
   C     44.17000000    93.77000000    68.84000000
   C     45.53000000    94.21000000    69.36000000
   C     43.85000000    92.47000000    69.57000000
   C     45.56000000    94.90000000    70.72000000
   H     45.24000000    94.89000000    66.22000000
   H     44.93000000    92.87000000    67.18000000
   H     43.46000000    94.53000000    69.19000000
   H     46.06000000    94.85000000    68.66000000
   H     46.13000000    93.30000000    69.46000000
   H     42.91000000    92.05000000    69.20000000
   H     44.63000000    91.75000000    69.33000000
   H     43.76000000    92.57000000    70.65000000
   H     44.86000000    95.74000000    70.71000000
   H     45.36000000    94.18000000    71.51000000
   H     46.51000000    95.38000000    70.97000000
   N     41.77000000    93.30000000    66.41000000
   C     40.71000000    92.60000000    65.71000000
   C     40.30000000    91.26000000    66.30000000
   O     40.11000000    90.34000000    65.50000000
   C     39.49000000    93.49000000    65.54000000
   O     39.03000000    93.90000000    66.81000000
   H     41.68000000    94.28000000    66.65000000
   H     41.05000000    92.42000000    64.69000000
   H     38.64000000    92.91000000    65.18000000
   H     39.68000000    94.32000000    64.86000000
   H     38.11000000    94.17000000    66.83000000
   N     40.22000000    91.29000000    67.63000000
   C     39.98000000    90.15000000    68.50000000
   C     40.76000000    88.87000000    68.25000000
   O     40.33000000    87.78000000    68.62000000
   C     38.49000000    89.96000000    68.74000000
   H     40.45000000    92.16000000    68.08000000
   H     40.30000000    90.48000000    69.49000000
   H     38.10000000    89.26000000    68.00000000
   H     38.22000000    89.66000000    69.75000000
   H     38.07000000    90.96000000    68.72000000
   N     41.92000000    88.94000000    67.60000000
   C     42.80000000    87.81000000    67.34000000
   C     44.02000000    87.94000000    68.23000000
   O     44.43000000    89.05000000    68.57000000
   C     43.17000000    87.89000000    65.86000000
   H     42.30000000    89.87000000    67.46000000
   H     42.42000000    86.81000000    67.51000000
   H     43.90000000    87.12000000    65.62000000
   H     42.28000000    87.71000000    65.26000000
   H     43.41000000    88.92000000    65.60000000
   N     44.78000000    86.87000000    68.49000000
   C     45.97000000    86.78000000    69.30000000
   C     45.76000000    87.14000000    70.76000000
   O     46.74000000    86.97000000    71.49000000
   C     47.14000000    87.46000000    68.59000000
   C     48.51000000    86.85000000    68.84000000
   C     49.58000000    87.37000000    67.89000000
   O     49.54000000    87.14000000    66.66000000
   O     50.49000000    88.08000000    68.36000000
   H     44.43000000    85.98000000    68.15000000
   H     46.31000000    85.74000000    69.27000000
   H     47.07000000    88.51000000    68.88000000
   H     46.95000000    87.39000000    67.52000000
   H     48.43000000    85.78000000    68.65000000
   H     48.75000000    86.98000000    69.90000000
   N     44.69000000    87.82000000    71.15000000
   C     44.58000000    88.50000000    72.43000000
   H     43.52800000    88.64900000    72.67300000
   H     45.04900000    87.89400000    73.20500000
   H     45.07900000    89.46700000    72.37200000
   H     44.17000000    88.10000000    70.33000000
  Ca     51.02000000    88.73000000    65.21000000
   O     52.45000000    86.55000000    65.39000000
   H     52.28000000    85.96000000    66.13000000
   H     53.21000000    86.17000000    64.95000000

Ca 1.70



