%chk=Ng-293_loop3_9.0.chk
%nprocshared=48
%mem=10GB
%nosave
#b3lyp/svp scf=(tight,noincore) Test 
#IOP(5/87=12) Density=Current Pop=(MK,readradii) iop(6/33=2) iop(6/42=6)

Ng-293_loop3_9.0 

   0   1
   C     63.56000000    28.16000000    22.87000000
   C     64.38000000    28.98000000    21.88000000
   O     63.85000000    29.85000000    21.19000000
   H     62.58100000    27.94600000    22.44100000
   H     64.07600000    27.22400000    23.08200000
   H     63.43500000    28.72400000    23.79400000
   N     65.65000000    28.58000000    21.80000000
   C     66.79000000    29.17000000    21.12000000
   C     66.64000000    29.21000000    19.60000000
   O     67.43000000    29.71000000    18.81000000
   C     67.34000000    30.46000000    21.71000000
   C     68.80000000    30.69000000    21.34000000
   O     69.19000000    31.85000000    21.60000000
   O     69.56000000    29.81000000    20.89000000
   H     65.94000000    27.91000000    22.49000000
   H     67.54000000    28.41000000    21.33000000
   H     67.22000000    30.54000000    22.79000000
   H     66.70000000    31.23000000    21.27000000
   N     65.44000000    28.85000000    19.14000000
   C     64.85000000    29.07000000    17.83000000
   C     64.40000000    30.49000000    17.52000000
   O     64.28000000    30.87000000    16.36000000
   C     63.71000000    28.08000000    17.61000000
   C     64.32000000    26.69000000    17.49000000
   C     63.36000000    25.67000000    16.89000000
   C     63.97000000    24.30000000    16.60000000
   N     62.96000000    23.29000000    16.25000000
   H     64.81000000    28.50000000    19.85000000
   H     65.67000000    28.92000000    17.12000000
   H     63.29000000    28.41000000    16.66000000
   H     63.00000000    28.06000000    18.43000000
   H     64.71000000    26.28000000    18.42000000
   H     65.19000000    26.71000000    16.84000000
   H     63.05000000    26.20000000    15.99000000
   H     62.50000000    25.58000000    17.55000000
   H     64.54000000    24.04000000    17.50000000
   H     64.57000000    24.45000000    15.70000000
   H     62.45000000    22.85000000    17.00000000
   H     62.38000000    23.84000000    15.63000000
   H     63.40000000    22.51000000    15.78000000
   N     64.09000000    31.36000000    18.49000000
   C     64.24000000    32.79000000    18.34000000
   C     64.84000000    33.49000000    19.55000000
   O     64.46000000    33.11000000    20.66000000
   C     62.91000000    33.48000000    18.05000000
   C     62.94000000    35.00000000    18.08000000
   O     62.07000000    35.67000000    18.68000000
   O     63.84000000    35.66000000    17.50000000
   H     64.07000000    31.00000000    19.43000000
   H     64.81000000    33.08000000    17.46000000
   H     62.15000000    33.18000000    18.77000000
   H     62.57000000    33.24000000    17.04000000
   N     65.76000000    34.41000000    19.28000000
   C     66.57000000    35.14000000    20.24000000
   C     65.81000000    36.34000000    20.80000000
   O     64.80000000    36.74000000    20.22000000
   H     65.86000000    34.57000000    18.29000000
   H     67.46000000    35.60000000    19.82000000
   H     66.87000000    34.43000000    21.01000000
   N     66.23000000    36.85000000    21.96000000
   C     65.59000000    38.02000000    22.55000000
   C     66.53000000    39.16000000    22.90000000
   O     66.03000000    40.21000000    23.29000000
   C     64.82000000    37.51000000    23.76000000
   C     63.35000000    37.90000000    23.83000000
   N     63.03000000    39.20000000    23.87000000
   O     62.48000000    37.04000000    23.81000000
   H     66.90000000    36.42000000    22.58000000
   H     64.92000000    38.50000000    21.84000000
   H     65.33000000    37.81000000    24.67000000
   H     64.82000000    36.42000000    23.80000000
   H     63.77000000    39.87000000    23.72000000
   H     62.10000000    39.57000000    23.93000000
   N     67.86000000    39.00000000    22.81000000
   C     68.82000000    40.08000000    22.94000000
   C     68.73000000    40.76000000    24.30000000
   O     68.65000000    40.12000000    25.35000000
   H     68.13000000    38.09000000    22.48000000
   H     68.61000000    40.76000000    22.12000000
   H     69.84000000    39.73000000    22.76000000
   N     68.54000000    42.07000000    24.19000000
   C     68.29000000    42.93000000    25.33000000
   C     67.11000000    42.63000000    26.25000000
   O     67.13000000    42.96000000    27.44000000
   C     69.57000000    43.15000000    26.13000000
   C     70.90000000    43.60000000    25.55000000
   C     71.88000000    42.65000000    25.22000000
   C     71.16000000    44.94000000    25.25000000
   C     73.10000000    43.03000000    24.64000000
   C     72.32000000    45.34000000    24.60000000
   C     73.31000000    44.38000000    24.31000000
   O     74.48000000    44.58000000    23.63000000
   H     68.59000000    42.44000000    23.25000000
   H     68.10000000    43.92000000    24.92000000
   H     69.82000000    42.16000000    26.52000000
   H     69.37000000    43.81000000    26.97000000
   H     71.71000000    41.62000000    25.47000000
   H     70.46000000    45.74000000    25.44000000
   H     73.90000000    42.34000000    24.42000000
   H     72.61000000    46.35000000    24.32000000
   H     74.62000000    45.51000000    23.43000000
   N     66.04000000    42.04000000    25.72000000
   C     64.76000000    41.70000000    26.30000000
   C     63.98000000    42.98000000    26.55000000
   O     62.98000000    43.30000000    25.90000000
   C     64.69000000    40.74000000    27.49000000
   C     65.46000000    39.43000000    27.28000000
   C     63.26000000    40.41000000    27.91000000
   C     66.25000000    38.79000000    28.42000000
   H     66.25000000    41.63000000    24.82000000
   H     64.33000000    41.20000000    25.43000000
   H     65.16000000    41.20000000    28.36000000
   H     66.31000000    39.46000000    26.60000000
   H     64.83000000    38.69000000    26.80000000
   H     63.27000000    39.68000000    28.71000000
   H     62.81000000    41.24000000    28.45000000
   H     62.67000000    40.10000000    27.05000000
   H     66.83000000    37.98000000    27.98000000
   H     66.83000000    39.58000000    28.89000000
   H     65.56000000    38.42000000    29.18000000
   N     64.30000000    43.74000000    27.60000000
   C     63.77000000    45.05000000    27.88000000
   C     62.26000000    45.17000000    28.08000000
   O     61.65000000    46.20000000    27.83000000
   C     64.53000000    45.75000000    29.01000000
   O     64.68000000    44.84000000    30.08000000
   H     65.00000000    43.45000000    28.28000000
   H     64.02000000    45.62000000    26.99000000
   H     63.99000000    46.67000000    29.21000000
   H     65.48000000    46.11000000    28.60000000
   H     65.18000000    45.07000000    30.86000000
   N     61.62000000    44.03000000    28.37000000
   C     60.19000000    43.93000000    28.56000000
   C     59.43000000    44.24000000    27.27000000
   O     58.33000000    44.77000000    27.27000000
   C     59.66000000    44.76000000    29.72000000
   H     62.22000000    43.30000000    28.73000000
   H     59.93000000    42.93000000    28.89000000
   H     59.75000000    45.84000000    29.60000000
   H     58.62000000    44.51000000    29.96000000
   H     60.30000000    44.52000000    30.57000000
   N     59.99000000    43.85000000    26.12000000
   C     59.45000000    44.06000000    24.79000000
   C     59.46000000    42.79000000    23.96000000
   O     59.92000000    41.77000000    24.47000000
   C     60.14000000    45.23000000    24.09000000
   H     60.90000000    43.43000000    26.24000000
   H     58.39000000    44.31000000    24.89000000
   H     59.51000000    45.42000000    23.23000000
   H     60.15000000    46.23000000    24.52000000
   H     61.12000000    44.86000000    23.76000000
   N     58.80000000    42.82000000    22.80000000
   C     58.58000000    41.63000000    22.00000000
   C     57.66000000    40.64000000    22.69000000
   O     57.68000000    39.43000000    22.45000000
   C     59.85000000    40.96000000    21.49000000
   C     59.49000000    40.30000000    20.16000000
   C     60.69000000    39.70000000    19.43000000
   O     61.85000000    40.15000000    19.39000000
   O     60.50000000    38.83000000    18.56000000
   H     58.26000000    43.60000000    22.46000000
   H     58.06000000    42.00000000    21.11000000
   H     60.31000000    40.24000000    22.17000000
   H     60.65000000    41.69000000    21.36000000
   H     59.12000000    41.02000000    19.44000000
   H     58.71000000    39.55000000    20.29000000
   N     56.88000000    41.04000000    23.70000000
   C     56.44000000    40.02000000    24.64000000
   H     55.43200000    39.69800000    24.38000000
   H     57.11700000    39.16700000    24.59400000
   H     56.44000000    40.43100000    25.65000000
   H     56.82000000    41.98000000    24.04000000
  Ca     63.09000000    38.05000000    18.59000000
   O     61.97000000    37.76000000    16.16000000
   H     61.07000000    37.91000000    15.87000000
   H     62.42000000    37.47000000    15.36000000

Ca 1.70



