%chk=Ng-295_loop3_7.0.chk
%nprocshared=48
%mem=10GB
%nosave
#b3lyp/svp scf=(tight,noincore) Test 
#IOP(5/87=12) Density=Current Pop=(MK,readradii) iop(6/33=2) iop(6/42=6)

Ng-295_loop3_7.0 

   0   1
   C     16.33900000    75.03000000    32.05000000
   C     17.34900000    73.94000000    31.73000000
   O     18.21900000    73.67000000    32.56000000
   H     15.42100000    74.57600000    32.42300000
   H     16.75000000    75.69500000    32.81000000
   H     16.12000000    75.60000000    31.14700000
   N     17.20900000    73.43000000    30.50000000
   C     18.11900000    72.50000000    29.86000000
   C     18.99900000    73.23000000    28.87000000
   O     18.51900000    73.99000000    28.03000000
   C     17.18900000    71.43000000    29.27000000
   C     17.93900000    70.34000000    28.52000000
   O     19.01900000    70.52000000    27.92000000
   O     17.33900000    69.27000000    28.32000000
   H     16.33900000    73.70000000    30.06000000
   H     18.82900000    72.09000000    30.57000000
   H     16.55900000    71.90000000    28.52000000
   H     16.54900000    70.99000000    30.03000000
   N     20.29900000    72.99000000    29.03000000
   C     21.39900000    73.61000000    28.31000000
   C     21.22900000    73.41000000    26.81000000
   O     21.81900000    74.21000000    26.09000000
   C     22.70900000    73.01000000    28.82000000
   C     22.77900000    71.49000000    28.66000000
   C     24.20900000    71.00000000    28.88000000
   C     24.33900000    69.49000000    28.68000000
   N     24.16900000    69.10000000    27.27000000
   H     20.58900000    72.45000000    29.84000000
   H     21.27900000    74.68000000    28.48000000
   H     22.80900000    73.20000000    29.89000000
   H     23.47900000    73.48000000    28.21000000
   H     22.46900000    71.31000000    27.63000000
   H     22.06900000    71.01000000    29.32000000
   H     24.51900000    71.35000000    29.86000000
   H     24.84900000    71.39000000    28.09000000
   H     23.67900000    68.93000000    29.34000000
   H     25.36900000    69.24000000    28.94000000
   H     24.73900000    68.28000000    27.12000000
   H     23.24900000    68.88000000    26.92000000
   H     24.45900000    69.82000000    26.62000000
   N     20.44900000    72.45000000    26.29000000
   C     20.39900000    71.95000000    24.93000000
   C     18.97900000    71.72000000    24.43000000
   O     18.79900000    71.51000000    23.23000000
   C     21.33900000    70.77000000    24.79000000
   C     20.88900000    69.59000000    25.64000000
   O     19.95900000    68.92000000    25.14000000
   O     21.48900000    69.23000000    26.68000000
   H     19.95900000    71.94000000    27.01000000
   H     20.71900000    72.74000000    24.25000000
   H     22.34900000    71.02000000    25.11000000
   H     21.42900000    70.52000000    23.73000000
   N     17.93900000    71.71000000    25.26000000
   C     16.52900000    71.57000000    24.94000000
   C     16.04900000    70.13000000    24.82000000
   O     14.86900000    69.83000000    25.02000000
   H     18.14900000    71.81000000    26.24000000
   H     16.33900000    71.99000000    23.96000000
   H     15.93900000    72.12000000    25.68000000
   N     16.84900000    69.13000000    24.47000000
   C     16.39900000    67.76000000    24.28000000
   C     16.15900000    67.08000000    25.61000000
   O     17.07900000    66.89000000    26.41000000
   C     17.32900000    67.01000000    23.33000000
   C     16.96900000    65.59000000    22.93000000
   N     17.26900000    65.20000000    21.69000000
   O     16.43900000    64.85000000    23.75000000
   H     17.80900000    69.28000000    24.18000000
   H     15.41900000    67.79000000    23.80000000
   H     18.34900000    66.93000000    23.71000000
   H     17.45900000    67.52000000    22.37000000
   H     17.80900000    65.85000000    21.14000000
   H     17.17900000    64.27000000    21.30000000
   N     14.91900000    66.61000000    25.77000000
   C     14.30900000    66.06000000    26.96000000
   C     14.79900000    64.67000000    27.35000000
   O     14.32900000    64.08000000    28.32000000
   H     14.39900000    66.63000000    24.90000000
   H     13.22900000    66.00000000    26.82000000
   H     14.43900000    66.77000000    27.78000000
   N     15.79900000    64.09000000    26.68000000
   C     16.23900000    62.73000000    26.90000000
   C     17.10900000    62.65000000    28.15000000
   O     17.88900000    63.57000000    28.38000000
   C     16.96900000    62.35000000    25.61000000
   C     17.62900000    61.00000000    25.77000000
   C     18.96900000    61.05000000    26.16000000
   C     16.79900000    59.89000000    25.93000000
   C     19.55900000    59.88000000    26.66000000
   C     17.38900000    58.72000000    26.41000000
   C     18.73900000    58.75000000    26.82000000
   O     19.22900000    57.56000000    27.29000000
   H     16.22900000    64.59000000    25.92000000
   H     15.32900000    62.12000000    26.97000000
   H     17.70900000    63.11000000    25.34000000
   H     16.22900000    62.31000000    24.82000000
   H     19.69900000    61.83000000    25.98000000
   H     15.73900000    60.01000000    25.73000000
   H     20.61900000    59.83000000    26.82000000
   H     16.78900000    57.83000000    26.46000000
   H     18.56900000    56.88000000    27.42000000
   N     16.81900000    61.63000000    28.96000000
   C     17.50900000    61.39000000    30.21000000
   C     19.00900000    61.11000000    30.10000000
   O     19.79900000    61.77000000    29.42000000
   C     17.09900000    62.47000000    31.20000000
   C     18.06900000    62.77000000    32.33000000
   C     15.75900000    62.18000000    31.87000000
   C     17.77900000    63.92000000    33.29000000
   H     16.11900000    60.96000000    28.67000000
   H     17.08900000    60.45000000    30.58000000
   H     16.89900000    63.44000000    30.74000000
   H     18.97900000    63.01000000    31.78000000
   H     18.23900000    61.90000000    32.96000000
   H     15.33900000    63.09000000    32.30000000
   H     15.02900000    61.80000000    31.16000000
   H     15.90900000    61.44000000    32.66000000
   H     17.25900000    63.64000000    34.20000000
   H     18.75900000    64.37000000    33.45000000
   H     17.13900000    64.71000000    32.88000000
   N     19.38900000    60.15000000    30.94000000
   C     20.75900000    59.71000000    31.11000000
   C     21.03900000    58.26000000    31.47000000
   O     22.17900000    57.80000000    31.49000000
   C     21.48900000    60.63000000    32.09000000
   O     20.64900000    60.94000000    33.18000000
   H     18.74900000    59.91000000    31.67000000
   H     21.35900000    59.80000000    30.20000000
   H     21.52900000    61.62000000    31.63000000
   H     22.35900000    60.10000000    32.47000000
   H     21.15900000    61.29000000    33.92000000
   N     19.99900000    57.49000000    31.82000000
   C     20.01900000    56.07000000    32.10000000
   C     20.83900000    55.52000000    33.26000000
   O     21.38900000    54.42000000    33.15000000
   C     20.10900000    55.21000000    30.84000000
   H     19.14900000    58.00000000    31.96000000
   H     18.97900000    55.85000000    32.36000000
   H     19.28900000    55.41000000    30.15000000
   H     21.08900000    55.16000000    30.35000000
   H     19.89900000    54.20000000    31.17000000
   N     20.96900000    56.13000000    34.44000000
   C     20.38900000    57.28000000    35.10000000
   C     19.69900000    56.95000000    36.41000000
   O     19.78900000    55.84000000    36.93000000
   C     21.47900000    58.33000000    35.30000000
   H     21.44900000    55.55000000    35.11000000
   H     19.60900000    57.66000000    34.43000000
   H     21.93900000    58.48000000    34.33000000
   H     21.09900000    59.28000000    35.70000000
   H     22.20900000    57.90000000    35.99000000
   N     19.00900000    57.89000000    37.07000000
   C     18.35900000    59.06000000    36.53000000
   C     16.83900000    59.02000000    36.58000000
   O     16.24900000    59.62000000    35.68000000
   C     18.83900000    60.25000000    37.36000000
   C     18.61900000    61.57000000    36.64000000
   C     19.39900000    62.62000000    37.42000000
   O     20.63900000    62.68000000    37.29000000
   O     18.75900000    63.44000000    38.11000000
   H     18.64900000    57.51000000    37.94000000
   H     18.62900000    59.13000000    35.48000000
   H     19.90900000    60.15000000    37.53000000
   H     18.40900000    60.26000000    38.37000000
   H     17.56900000    61.84000000    36.64000000
   H     18.86900000    61.41000000    35.59000000
   N     16.28900000    58.33000000    37.58000000
   C     14.84900000    58.32000000    37.75000000
   H     14.36900000    58.24700000    36.77400000
   H     14.56100000    57.46500000    38.36100000
   H     14.53400000    59.24100000    38.24100000
   H     16.93900000    58.04000000    38.31000000
  Ca     19.42000000    67.79000000    27.64000000
   O     20.02000000    68.49000000    30.08000000
   H     19.37000000    68.74000000    30.74000000
   H     20.86000000    68.58000000    30.53000000

Ca 1.70



