%chk=Ng-295_loop3_8.0.chk
%nprocshared=48
%mem=10GB
%nosave
#b3lyp/svp scf=(tight,noincore) Test 
#IOP(5/87=12) Density=Current Pop=(MK,readradii) iop(6/33=2) iop(6/42=6)

Ng-295_loop3_8.0 

   0   1
   C     86.15800000    75.32800000    51.48000000
   C     85.53800000    74.01800000    51.96000000
   O     84.48800000    73.51800000    51.59000000
   H     87.14100000    75.12900000    51.05300000
   H     85.51700000    75.77700000    50.72100000
   H     86.26000000    76.01200000    52.32200000
   N     86.23800000    73.36800000    52.89000000
   C     85.69800000    72.13800000    53.43000000
   C     84.55800000    72.43800000    54.40000000
   O     84.39800000    73.56800000    54.86000000
   C     86.86800000    71.36800000    54.04000000
   C     86.54800000    69.89800000    54.28000000
   O     87.18800000    68.96800000    53.75000000
   O     85.61800000    69.52800000    55.03000000
   H     87.11800000    73.72800000    53.21000000
   H     85.34800000    71.45800000    52.65000000
   H     87.06800000    71.71800000    55.05000000
   H     87.78800000    71.43800000    53.47000000
   N     83.60800000    71.51800000    54.55000000
   C     82.46800000    71.66800000    55.43000000
   C     82.77800000    71.20800000    56.84000000
   O     82.25800000    71.85800000    57.75000000
   C     81.16800000    70.98800000    55.02000000
   C     81.24800000    69.46800000    54.99000000
   C     80.00800000    68.63800000    54.64000000
   C     80.41800000    67.25800000    54.13000000
   N     81.12800000    66.36800000    55.08000000
   H     83.64800000    70.55800000    54.22000000
   H     82.32800000    72.74800000    55.49000000
   H     80.94800000    71.15800000    53.96000000
   H     80.42800000    71.36800000    55.72000000
   H     81.46800000    69.18800000    56.02000000
   H     82.06800000    69.18800000    54.33000000
   H     79.48800000    69.14800000    53.83000000
   H     79.26800000    68.46800000    55.42000000
   H     81.00800000    67.35800000    53.22000000
   H     79.48800000    66.76800000    53.86000000
   H     81.19800000    65.43800000    54.68000000
   H     81.98800000    66.84800000    55.29000000
   H     80.66800000    66.28800000    55.97000000
   N     83.64800000    70.23800000    57.13000000
   C     83.88800000    69.65800000    58.43000000
   C     85.38800000    69.66800000    58.70000000
   O     85.79800000    69.22800000    59.77000000
   C     83.37800000    68.21800000    58.33000000
   C     83.94800000    67.39800000    57.18000000
   O     83.48800000    67.53800000    56.03000000
   O     85.05800000    66.85800000    57.38000000
   H     84.15800000    69.82800000    56.36000000
   H     83.49800000    70.30800000    59.21000000
   H     82.30800000    68.30800000    58.12000000
   H     83.50800000    67.65800000    59.26000000
   N     86.20800000    70.15800000    57.78000000
   C     87.63800000    70.31800000    57.98000000
   C     88.47800000    69.14800000    57.50000000
   O     89.62800000    69.28800000    57.10000000
   H     85.79800000    70.24800000    56.86000000
   H     87.84800000    70.55800000    59.03000000
   H     87.93800000    71.19800000    57.41000000
   N     87.91800000    67.93800000    57.56000000
   C     88.74800000    66.75800000    57.44000000
   C     88.95800000    66.43800000    55.97000000
   O     88.02800000    66.41800000    55.17000000
   C     88.09800000    65.58800000    58.17000000
   C     88.85800000    64.27800000    58.32000000
   N     88.45800000    63.36800000    59.21000000
   O     89.78800000    64.00800000    57.56000000
   H     86.97800000    67.77800000    57.89000000
   H     89.70800000    66.85800000    57.95000000
   H     87.28800000    65.28800000    57.50000000
   H     87.62800000    65.90800000    59.10000000
   H     87.59800000    63.58800000    59.70000000
   H     88.92800000    62.47800000    59.34000000
   N     90.14800000    66.06800000    55.50000000
   C     90.57800000    65.61800000    54.19000000
   C     90.00800000    64.29800000    53.70000000
   O     89.77800000    64.03800000    52.52000000
   H     90.83800000    65.89800000    56.22000000
   H     91.64800000    65.41800000    54.19000000
   H     90.35800000    66.30800000    53.38000000
   N     89.59800000    63.38800000    54.59000000
   C     89.14800000    62.05800000    54.22000000
   C     87.91800000    62.12800000    53.31000000
   O     86.99800000    62.84800000    53.67000000
   C     88.79800000    61.29800000    55.49000000
   C     88.11800000    59.94800000    55.43000000
   C     86.82800000    59.82800000    55.96000000
   C     88.61800000    58.87800000    54.67000000
   C     86.10800000    58.64800000    55.70000000
   C     87.88800000    57.72800000    54.37000000
   C     86.58800000    57.59800000    54.90000000
   O     85.80800000    56.53800000    54.53000000
   H     89.79800000    63.54800000    55.57000000
   H     89.99800000    61.62800000    53.70000000
   H     88.27800000    61.99800000    56.15000000
   H     89.69800000    60.97800000    56.02000000
   H     86.36800000    60.63800000    56.51000000
   H     89.62800000    58.95800000    54.31000000
   H     85.07800000    58.64800000    56.02000000
   H     88.20800000    56.92800000    53.71000000
   H     86.25800000    55.86800000    54.01000000
   N     87.77800000    61.21800000    52.34000000
   C     86.61800000    61.04800000    51.49000000
   C     85.50800000    60.25800000    52.18000000
   O     85.20800000    60.44800000    53.36000000
   C     86.10800000    62.30800000    50.79000000
   C     84.74800000    62.35800000    50.09000000
   C     87.13800000    62.90800000    49.84000000
   C     84.18800000    63.76800000    49.99000000
   H     88.59800000    60.70800000    52.06000000
   H     86.98800000    60.43800000    50.67000000
   H     85.95800000    62.98800000    51.62000000
   H     83.98800000    61.76800000    50.61000000
   H     84.89800000    61.90800000    49.11000000
   H     88.04800000    63.00800000    50.43000000
   H     87.33800000    62.14800000    49.09000000
   H     86.86800000    63.92800000    49.56000000
   H     83.12800000    63.67800000    49.74000000
   H     84.21800000    64.32800000    50.92000000
   H     84.67800000    64.25800000    49.15000000
   N     84.93800000    59.32800000    51.42000000
   C     83.64800000    58.69800000    51.62000000
   C     83.52800000    57.36800000    50.90000000
   O     82.99800000    56.39800000    51.45000000
   C     82.44800000    59.58800000    51.29000000
   O     82.41800000    59.97800000    49.93000000
   H     85.29800000    59.37800000    50.47000000
   H     83.57800000    58.46800000    52.68000000
   H     82.68800000    60.53800000    51.76000000
   H     81.51800000    59.15800000    51.67000000
   H     81.82800000    60.72800000    49.87000000
   N     84.04800000    57.38800000    49.67000000
   C     84.14800000    56.30800000    48.71000000
   C     82.79800000    55.71800000    48.32000000
   O     82.68800000    54.49800000    48.24000000
   C     85.15800000    55.31800000    49.28000000
   H     84.40800000    58.28800000    49.40000000
   H     84.52800000    56.80800000    47.81000000
   H     84.78800000    54.85800000    50.20000000
   H     85.45800000    54.60800000    48.51000000
   H     86.01800000    55.91800000    49.56000000
   N     81.68800000    56.37800000    48.00000000
   C     81.59800000    57.76800000    47.59000000
   C     81.56800000    57.92800000    46.08000000
   O     80.82800000    57.21800000    45.41000000
   C     80.46800000    58.54800000    48.27000000
   H     80.87800000    55.84800000    47.73000000
   H     82.52800000    58.17800000    47.97000000
   H     80.51800000    59.62800000    48.17000000
   H     79.54800000    58.18800000    47.81000000
   H     80.57800000    58.32800000    49.33000000
   N     82.23800000    58.83800000    45.37000000
   C     82.85800000    60.02800000    45.92000000
   C     84.26800000    60.10800000    45.37000000
   O     85.12800000    60.53800000    46.13000000
   C     82.02800000    61.23800000    45.48000000
   C     82.47800000    62.42800000    46.31000000
   C     81.73800000    63.65800000    45.80000000
   O     81.91800000    64.02800000    44.62000000
   O     80.87800000    64.12800000    46.57000000
   H     82.10800000    58.82800000    44.37000000
   H     82.82800000    60.01800000    47.01000000
   H     80.97800000    61.05800000    45.70000000
   H     82.26800000    61.42800000    44.43000000
   H     83.55800000    62.50800000    46.42000000
   H     82.17800000    62.28800000    47.35000000
   N     84.57800000    59.53800000    44.20000000
   C     85.83800000    59.39800000    43.51000000
   H     86.61400000    59.12400000    44.22400000
   H     85.75300000    58.62000000    42.75100000
   H     86.10000000    60.34300000    43.03500000
   H     83.78800000    59.11800000    43.72000000
  Ca     85.66000000    66.95000000    54.64000000
   O     85.96000000    64.42000000    55.50000000
   H     86.52000000    63.92000000    54.91000000
   H     85.50000000    63.76000000    56.02000000

Ca 1.70



