%chk=Ng-293_loop3_24.0.chk
%nprocshared=48
%mem=10GB
%nosave
#b3lyp/svp scf=(tight,noincore) Test 
#IOP(5/87=12) Density=Current Pop=(MK,readradii) iop(6/33=2) iop(6/42=6)

Ng-293_loop3_24.0 

   0   1
   C     66.44000000    26.57000000    21.66000000
   C     67.47000000    27.40000000    20.90000000
   O     67.48000000    28.62000000    20.81000000
   H     65.51500000    26.52400000    21.08500000
   H     66.82400000    25.56100000    21.80900000
   H     66.24300000    27.03100000    22.62800000
   N     68.40000000    26.69000000    20.24000000
   C     69.53000000    27.23000000    19.51000000
   C     69.26000000    28.15000000    18.33000000
   O     70.17000000    28.83000000    17.87000000
   C     70.64000000    27.54000000    20.50000000
   C     72.00000000    27.78000000    19.86000000
   O     72.55000000    28.88000000    20.11000000
   O     72.61000000    26.87000000    19.25000000
   H     68.37000000    25.70000000    20.44000000
   H     69.92000000    26.35000000    19.00000000
   H     70.70000000    26.70000000    21.19000000
   H     70.37000000    28.36000000    21.16000000
   N     68.02000000    28.14000000    17.83000000
   C     67.56000000    28.68000000    16.57000000
   C     67.49000000    30.19000000    16.42000000
   O     67.58000000    30.58000000    15.25000000
   C     66.21000000    28.04000000    16.30000000
   C     66.28000000    26.55000000    15.98000000
   C     65.02000000    25.85000000    16.50000000
   C     64.83000000    24.52000000    15.78000000
   N     65.86000000    23.57000000    16.22000000
   H     67.44000000    27.44000000    18.27000000
   H     68.30000000    28.34000000    15.84000000
   H     65.77000000    28.43000000    15.38000000
   H     65.58000000    28.21000000    17.17000000
   H     67.11000000    26.20000000    16.59000000
   H     66.36000000    26.42000000    14.90000000
   H     64.13000000    26.42000000    16.24000000
   H     65.14000000    25.63000000    17.56000000
   H     64.86000000    24.61000000    14.69000000
   H     63.85000000    24.08000000    15.97000000
   H     65.86000000    22.74000000    15.65000000
   H     66.77000000    24.00000000    16.13000000
   H     65.71000000    23.17000000    17.13000000
   N     67.18000000    30.92000000    17.50000000
   C     67.17000000    32.36000000    17.36000000
   C     67.90000000    32.95000000    18.56000000
   O     67.89000000    32.38000000    19.65000000
   C     65.72000000    32.85000000    17.30000000
   C     65.64000000    34.33000000    16.99000000
   O     64.86000000    35.03000000    17.68000000
   O     66.39000000    34.94000000    16.20000000
   H     67.37000000    30.50000000    18.40000000
   H     67.71000000    32.65000000    16.46000000
   H     65.30000000    32.67000000    18.29000000
   H     65.17000000    32.22000000    16.60000000
   N     68.37000000    34.17000000    18.29000000
   C     69.12000000    35.04000000    19.17000000
   C     68.33000000    36.21000000    19.75000000
   O     67.29000000    36.59000000    19.24000000
   H     68.02000000    34.58000000    17.44000000
   H     69.92000000    35.51000000    18.60000000
   H     69.53000000    34.48000000    20.01000000
   N     68.75000000    36.78000000    20.89000000
   C     67.91000000    37.67000000    21.66000000
   C     68.68000000    38.86000000    22.21000000
   O     68.16000000    39.90000000    22.59000000
   C     67.15000000    36.91000000    22.75000000
   C     66.17000000    35.84000000    22.29000000
   N     64.96000000    36.32000000    22.01000000
   O     66.54000000    34.68000000    22.09000000
   H     69.67000000    36.57000000    21.23000000
   H     67.15000000    38.15000000    21.05000000
   H     66.59000000    37.60000000    23.38000000
   H     67.89000000    36.38000000    23.35000000
   H     64.85000000    37.31000000    21.82000000
   H     64.42000000    35.61000000    21.54000000
   N     70.00000000    38.76000000    22.40000000
   C     70.94000000    39.71000000    22.96000000
   C     70.75000000    39.83000000    24.47000000
   O     70.39000000    38.90000000    25.19000000
   H     70.38000000    37.87000000    22.10000000
   H     70.79000000    40.71000000    22.56000000
   H     71.97000000    39.43000000    22.75000000
   N     70.65000000    41.13000000    24.78000000
   C     70.24000000    41.58000000    26.09000000
   C     68.86000000    41.16000000    26.59000000
   O     68.43000000    41.41000000    27.72000000
   C     71.30000000    41.34000000    27.17000000
   C     72.75000000    41.34000000    26.77000000
   C     73.39000000    40.11000000    26.55000000
   C     73.39000000    42.57000000    26.60000000
   C     74.67000000    40.21000000    25.99000000
   C     74.66000000    42.59000000    26.00000000
   C     75.35000000    41.40000000    25.68000000
   O     76.60000000    41.50000000    25.16000000
   H     70.92000000    41.85000000    24.13000000
   H     70.11000000    42.65000000    25.94000000
   H     70.99000000    40.36000000    27.52000000
   H     71.21000000    42.07000000    27.98000000
   H     72.94000000    39.17000000    26.86000000
   H     72.75000000    43.43000000    26.76000000
   H     75.23000000    39.32000000    25.75000000
   H     75.21000000    43.51000000    25.85000000
   H     76.67000000    42.33000000    24.69000000
   N     68.01000000    40.53000000    25.77000000
   C     66.61000000    40.22000000    25.95000000
   C     65.68000000    41.43000000    25.97000000
   O     64.85000000    41.61000000    25.08000000
   C     66.44000000    39.20000000    27.06000000
   C     67.18000000    37.92000000    26.72000000
   C     64.96000000    38.82000000    27.00000000
   C     67.23000000    36.84000000    27.81000000
   H     68.43000000    40.33000000    24.88000000
   H     66.28000000    39.72000000    25.04000000
   H     66.71000000    39.48000000    28.08000000
   H     68.23000000    38.13000000    26.48000000
   H     66.79000000    37.42000000    25.84000000
   H     64.62000000    38.50000000    26.02000000
   H     64.78000000    37.95000000    27.64000000
   H     64.29000000    39.62000000    27.32000000
   H     66.20000000    36.47000000    27.80000000
   H     67.96000000    36.07000000    27.62000000
   H     67.40000000    37.31000000    28.78000000
   N     65.78000000    42.29000000    26.99000000
   C     65.10000000    43.56000000    27.15000000
   C     63.58000000    43.53000000    27.01000000
   O     63.05000000    44.47000000    26.44000000
   C     65.43000000    44.13000000    28.53000000
   O     66.82000000    44.34000000    28.63000000
   H     66.42000000    42.01000000    27.71000000
   H     65.58000000    44.26000000    26.46000000
   H     65.17000000    43.35000000    29.23000000
   H     64.89000000    45.06000000    28.69000000
   H     66.91000000    44.76000000    29.49000000
   N     62.94000000    42.49000000    27.55000000
   C     61.50000000    42.37000000    27.42000000
   C     60.93000000    42.74000000    26.06000000
   O     59.91000000    43.40000000    25.86000000
   C     60.76000000    43.04000000    28.58000000
   H     63.42000000    41.82000000    28.13000000
   H     61.40000000    41.28000000    27.47000000
   H     60.62000000    44.09000000    28.32000000
   H     59.78000000    42.62000000    28.79000000
   H     61.25000000    43.01000000    29.55000000
   N     61.57000000    42.19000000    25.03000000
   C     61.15000000    42.20000000    23.64000000
   C     61.02000000    40.83000000    22.99000000
   O     61.25000000    39.80000000    23.62000000
   C     62.26000000    43.00000000    22.96000000
   H     62.50000000    41.85000000    25.21000000
   H     60.15000000    42.63000000    23.53000000
   H     62.21000000    42.95000000    21.87000000
   H     62.28000000    44.06000000    23.21000000
   H     63.26000000    42.69000000    23.24000000
   N     60.60000000    40.79000000    21.72000000
   C     60.25000000    39.65000000    20.91000000
   C     59.21000000    38.67000000    21.44000000
   O     59.06000000    37.52000000    21.02000000
   C     61.60000000    39.06000000    20.51000000
   C     61.51000000    37.92000000    19.50000000
   C     62.87000000    37.74000000    18.84000000
   O     63.95000000    37.97000000    19.43000000
   O     62.93000000    37.27000000    17.69000000
   H     60.17000000    41.66000000    21.44000000
   H     59.77000000    40.00000000    20.00000000
   H     62.06000000    38.67000000    21.42000000
   H     62.17000000    39.88000000    20.06000000
   H     60.73000000    38.23000000    18.81000000
   H     61.16000000    36.97000000    19.91000000
   N     58.47000000    39.01000000    22.49000000
   C     57.68000000    38.09000000    23.28000000
   H     56.70800000    37.94800000    22.80700000
   H     58.19500000    37.13200000    23.34600000
   H     57.54000000    38.49800000    24.28100000
   H     58.49000000    39.97000000    22.79000000
  Ca     65.59000000    37.50000000    17.38000000
   O     66.48000000    39.00000000    15.37000000
   H     66.53000000    38.69000000    14.46000000
   H     67.07000000    39.75000000    15.40000000

Ca 1.70



