%chk=Ng-293_loop3_30.0.chk
%nprocshared=48
%mem=10GB
%nosave
#b3lyp/svp scf=(tight,noincore) Test 
#IOP(5/87=12) Density=Current Pop=(MK,readradii) iop(6/33=2) iop(6/42=6)

Ng-293_loop3_30.0 

   0   1
   C     40.80000000    78.55000000    70.32000000
   C     41.35000000    78.47000000    68.90000000
   O     42.46000000    78.94000000    68.64000000
   H     39.77700000    78.17400000    70.33500000
   H     41.41800000    77.94600000    70.98400000
   H     40.81000000    79.58700000    70.65600000
   N     40.66000000    77.75000000    68.02000000
   C     41.01000000    77.27000000    66.69000000
   C     40.51000000    75.84000000    66.54000000
   O     39.79000000    75.19000000    67.30000000
   C     40.32000000    78.24000000    65.73000000
   C     40.84000000    78.06000000    64.31000000
   O     42.05000000    77.89000000    64.04000000
   O     40.06000000    78.28000000    63.35000000
   H     39.73000000    77.46000000    68.29000000
   H     42.06000000    77.34000000    66.44000000
   H     40.55000000    79.26000000    66.04000000
   H     39.26000000    77.98000000    65.69000000
   N     41.15000000    75.27000000    65.52000000
   C     40.71000000    74.06000000    64.85000000
   C     39.25000000    74.09000000    64.43000000
   O     38.46000000    74.94000000    64.82000000
   C     41.17000000    72.80000000    65.57000000
   C     42.64000000    72.75000000    65.96000000
   C     43.60000000    72.47000000    64.80000000
   C     45.01000000    72.53000000    65.38000000
   N     45.51000000    73.83000000    65.86000000
   H     41.89000000    75.81000000    65.11000000
   H     41.21000000    74.14000000    63.88000000
   H     41.01000000    71.93000000    64.92000000
   H     40.60000000    72.68000000    66.49000000
   H     42.79000000    71.94000000    66.68000000
   H     42.91000000    73.62000000    66.55000000
   H     43.48000000    73.21000000    64.01000000
   H     43.47000000    71.47000000    64.40000000
   H     45.72000000    72.12000000    64.66000000
   H     45.06000000    71.74000000    66.13000000
   H     45.54000000    74.59000000    65.21000000
   H     44.88000000    74.22000000    66.55000000
   H     46.43000000    73.73000000    66.28000000
   N     38.93000000    73.15000000    63.53000000
   C     37.69000000    73.05000000    62.80000000
   C     36.54000000    72.48000000    63.61000000
   O     35.85000000    71.54000000    63.22000000
   C     37.83000000    72.39000000    61.43000000
   C     38.61000000    71.08000000    61.32000000
   O     38.99000000    70.37000000    62.28000000
   O     38.95000000    70.74000000    60.17000000
   H     39.74000000    72.74000000    63.07000000
   H     37.39000000    74.08000000    62.60000000
   H     38.32000000    73.14000000    60.80000000
   H     36.85000000    72.19000000    61.00000000
   N     36.26000000    73.02000000    64.80000000
   C     35.50000000    72.53000000    65.93000000
   C     34.03000000    72.94000000    65.93000000
   O     33.50000000    73.39000000    66.94000000
   H     36.90000000    73.78000000    64.98000000
   H     36.00000000    72.85000000    66.85000000
   H     35.54000000    71.45000000    65.81000000
   N     33.35000000    72.78000000    64.79000000
   C     31.90000000    72.78000000    64.69000000
   C     31.23000000    71.52000000    64.17000000
   O     31.81000000    70.64000000    63.54000000
   C     31.70000000    73.95000000    63.73000000
   C     31.92000000    75.31000000    64.38000000
   N     30.88000000    75.84000000    65.04000000
   O     32.94000000    75.93000000    64.11000000
   H     33.93000000    72.45000000    64.04000000
   H     31.48000000    73.08000000    65.65000000
   H     30.67000000    73.90000000    63.38000000
   H     32.40000000    73.82000000    62.91000000
   H     30.13000000    75.22000000    65.30000000
   H     30.77000000    76.82000000    65.25000000
   N     29.93000000    71.46000000    64.46000000
   C     29.28000000    70.17000000    64.43000000
   C     29.79000000    69.22000000    65.50000000
   O     30.61000000    69.72000000    66.28000000
   H     29.60000000    72.01000000    65.24000000
   H     29.28000000    69.67000000    63.46000000
   H     28.23000000    70.27000000    64.68000000
   N     29.40000000    67.95000000    65.46000000
   C     29.38000000    66.99000000    66.55000000
   C     30.69000000    66.55000000    67.18000000
   O     30.64000000    65.66000000    68.03000000
   C     28.46000000    67.49000000    67.65000000
   C     27.79000000    66.42000000    68.49000000
   C     28.09000000    66.34000000    69.86000000
   C     27.06000000    65.43000000    67.83000000
   C     27.44000000    65.32000000    70.57000000
   C     26.53000000    64.36000000    68.55000000
   C     26.65000000    64.33000000    69.96000000
   O     26.05000000    63.36000000    70.70000000
   H     28.70000000    67.82000000    64.74000000
   H     28.97000000    66.05000000    66.15000000
   H     27.60000000    67.86000000    67.09000000
   H     28.86000000    68.27000000    68.31000000
   H     28.48000000    67.22000000    70.34000000
   H     26.90000000    65.40000000    66.76000000
   H     27.45000000    65.37000000    71.64000000
   H     25.96000000    63.65000000    67.97000000
   H     25.62000000    62.75000000    70.10000000
   N     31.84000000    67.05000000    66.71000000
   C     33.19000000    66.76000000    67.13000000
   C     33.84000000    65.41000000    66.83000000
   O     34.97000000    65.35000000    66.37000000
   C     33.53000000    67.45000000    68.45000000
   C     33.06000000    68.90000000    68.58000000
   C     35.00000000    67.54000000    68.84000000
   C     33.47000000    69.90000000    67.51000000
   H     31.75000000    67.75000000    65.99000000
   H     33.76000000    67.40000000    66.46000000
   H     33.05000000    66.95000000    69.29000000
   H     33.23000000    69.27000000    69.59000000
   H     31.97000000    68.82000000    68.54000000
   H     35.23000000    66.49000000    69.02000000
   H     35.62000000    67.97000000    68.06000000
   H     35.13000000    68.07000000    69.79000000
   H     33.15000000    69.52000000    66.54000000
   H     32.90000000    70.82000000    67.64000000
   H     34.55000000    70.09000000    67.56000000
   N     33.12000000    64.30000000    67.01000000
   C     33.50000000    62.95000000    66.65000000
   C     34.86000000    62.41000000    67.04000000
   O     35.30000000    61.54000000    66.28000000
   C     32.44000000    62.01000000    67.21000000
   O     32.38000000    62.08000000    68.61000000
   H     32.26000000    64.42000000    67.54000000
   H     33.42000000    62.94000000    65.56000000
   H     32.79000000    61.01000000    66.96000000
   H     31.50000000    62.28000000    66.72000000
   H     31.47000000    61.94000000    68.89000000
   N     35.46000000    62.84000000    68.15000000
   C     36.65000000    62.38000000    68.83000000
   C     37.93000000    62.64000000    68.06000000
   O     38.96000000    62.03000000    68.35000000
   C     36.46000000    60.95000000    69.34000000
   H     34.91000000    63.57000000    68.59000000
   H     36.74000000    62.97000000    69.75000000
   H     37.21000000    60.76000000    70.11000000
   H     35.44000000    60.80000000    69.70000000
   H     36.73000000    60.28000000    68.53000000
   N     37.93000000    63.49000000    67.02000000
   C     39.06000000    63.78000000    66.16000000
   C     39.95000000    64.90000000    66.69000000
   O     39.49000000    65.88000000    67.28000000
   C     38.59000000    64.15000000    64.76000000
   H     37.07000000    63.97000000    66.83000000
   H     39.66000000    62.88000000    66.06000000
   H     38.17000000    65.15000000    64.65000000
   H     39.47000000    64.16000000    64.12000000
   H     37.85000000    63.37000000    64.60000000
   N     41.25000000    64.77000000    66.40000000
   C     42.22000000    65.84000000    66.44000000
   C     42.55000000    66.41000000    67.81000000
   O     43.20000000    67.45000000    67.90000000
   C     42.11000000    66.87000000    65.32000000
   C     42.02000000    66.13000000    63.99000000
   C     42.24000000    67.01000000    62.76000000
   O     43.01000000    66.66000000    61.84000000
   O     41.65000000    68.11000000    62.73000000
   H     41.63000000    63.87000000    66.13000000
   H     43.15000000    65.32000000    66.22000000
   H     43.01000000    67.47000000    65.20000000
   H     41.22000000    67.49000000    65.45000000
   H     40.99000000    65.79000000    63.92000000
   H     42.71000000    65.29000000    63.98000000
   N     42.19000000    65.69000000    68.88000000
   C     42.21000000    66.12000000    70.26000000
   H     41.96600000    67.18100000    70.31300000
   H     41.47600000    65.55000000    70.82900000
   H     43.20300000    65.95500000    70.67800000
   H     41.69000000    64.82000000    68.78000000
  Ca     41.15000000    69.27000000    60.44000000
   O     42.38000000    71.22000000    59.29000000
   H     43.11000000    71.84000000    59.20000000
   H     41.74000000    71.51000000    58.64000000

Ca 1.70



