%chk=Ng-295_loop3_18.0.chk
%nprocshared=48
%mem=10GB
%nosave
#b3lyp/svp scf=(tight,noincore) Test 
#IOP(5/87=12) Density=Current Pop=(MK,readradii) iop(6/33=2) iop(6/42=6)

Ng-295_loop3_18.0 

   0   1
   C     -4.43800000    37.15000000    49.13000000
   C     -4.09800000    37.44000000    50.58000000
   O     -4.72800000    38.28000000    51.23000000
   H     -5.25800000    37.79500000    48.81400000
   H     -3.56500000    37.34100000    48.50600000
   H     -4.73700000    36.10700000    49.02800000
   N     -3.06800000    36.80000000    51.14000000
   C     -2.26800000    37.19000000    52.28000000
   C     -1.33800000    38.31000000    51.84000000
   O     -0.67800000    38.16000000    50.81000000
   C     -1.53800000    36.07000000    53.01000000
   C     -0.67800000    36.59000000    54.15000000
   O     -1.04800000    36.54000000    55.35000000
   O      0.49200000    36.94000000    53.90000000
   H     -2.62800000    36.02000000    50.67000000
   H     -2.94800000    37.67000000    52.99000000
   H     -0.85800000    35.59000000    52.31000000
   H     -2.25800000    35.34000000    53.38000000
   N     -1.21800000    39.37000000    52.65000000
   C     -0.44800000    40.56000000    52.36000000
   C      1.01200000    40.33000000    52.01000000
   O      1.64200000    41.11000000    51.30000000
   C     -0.58800000    41.55000000    53.51000000
   C      0.13200000    42.86000000    53.21000000
   C     -0.48800000    44.03000000    53.95000000
   C     -0.48800000    44.06000000    55.48000000
   N      0.88200000    44.03000000    56.02000000
   H     -1.89800000    39.47000000    53.39000000
   H     -0.81800000    41.10000000    51.49000000
   H     -0.10800000    41.13000000    54.39000000
   H     -1.65800000    41.71000000    53.68000000
   H      0.04200000    42.98000000    52.13000000
   H      1.22200000    42.82000000    53.25000000
   H     -1.50800000    44.16000000    53.57000000
   H      0.10200000    44.89000000    53.63000000
   H     -1.15800000    43.29000000    55.83000000
   H     -0.88800000    45.03000000    55.79000000
   H      1.44200000    44.78000000    55.65000000
   H      0.93200000    44.18000000    57.02000000
   H      1.28200000    43.12000000    55.86000000
   N      1.60200000    39.27000000    52.56000000
   C      2.99200000    38.89000000    52.39000000
   C      3.22200000    37.50000000    51.82000000
   O      4.28200000    37.23000000    51.26000000
   C      3.72200000    39.24000000    53.68000000
   C      3.07200000    38.56000000    54.88000000
   O      3.18200000    37.33000000    55.07000000
   O      2.49200000    39.36000000    55.65000000
   H      1.02200000    38.63000000    53.09000000
   H      3.44200000    39.50000000    51.60000000
   H      3.90200000    40.31000000    53.80000000
   H      4.72200000    38.81000000    53.64000000
   N      2.23200000    36.61000000    51.75000000
   C      2.30200000    35.25000000    51.26000000
   C      2.71200000    34.22000000    52.31000000
   O      2.78200000    33.03000000    52.01000000
   H      1.38200000    36.86000000    52.24000000
   H      2.92200000    35.16000000    50.37000000
   H      1.31200000    34.95000000    50.91000000
   N      2.97200000    34.57000000    53.57000000
   C      2.99200000    33.73000000    54.75000000
   C      1.64200000    33.87000000    55.44000000
   O      1.33200000    34.94000000    55.96000000
   C      4.20200000    33.95000000    55.65000000
   C      4.08200000    33.18000000    56.95000000
   N      4.48200000    31.91000000    56.87000000
   O      3.68200000    33.68000000    58.00000000
   H      3.13200000    35.56000000    53.71000000
   H      3.06200000    32.70000000    54.39000000
   H      4.38200000    35.01000000    55.83000000
   H      5.05200000    33.58000000    55.09000000
   H      4.98200000    31.46000000    56.11000000
   H      4.39200000    31.44000000    57.76000000
   N      0.92200000    32.75000000    55.50000000
   C     -0.49800000    32.61000000    55.74000000
   C     -0.96800000    33.15000000    57.08000000
   O     -2.17800000    33.28000000    57.25000000
   H      1.37200000    31.87000000    55.27000000
   H     -0.87800000    31.60000000    55.56000000
   H     -1.04800000    33.20000000    55.00000000
   N     -0.07800000    33.41000000    58.04000000
   C     -0.32800000    33.69000000    59.44000000
   C     -0.49800000    35.17000000    59.75000000
   O      0.04200000    35.95000000    58.97000000
   C      0.75200000    33.01000000    60.27000000
   C      0.71200000    31.50000000    60.30000000
   C      1.43200000    30.65000000    59.45000000
   C     -0.08800000    31.00000000    61.34000000
   C      1.10200000    29.29000000    59.53000000
   C     -0.34800000    29.63000000    61.46000000
   C      0.24200000    28.77000000    60.52000000
   O     -0.02800000    27.43000000    60.59000000
   H      0.88200000    33.28000000    57.75000000
   H     -1.26800000    33.27000000    59.82000000
   H      0.62200000    33.33000000    61.30000000
   H      1.71200000    33.35000000    59.86000000
   H      1.93200000    31.03000000    58.57000000
   H     -0.59800000    31.66000000    62.03000000
   H      1.62200000    28.61000000    58.87000000
   H     -0.84800000    29.28000000    62.35000000
   H     -0.50800000    27.07000000    61.34000000
   N     -1.15800000    35.45000000    60.88000000
   C     -1.41800000    36.74000000    61.47000000
   C     -0.15800000    37.49000000    61.86000000
   O      0.86200000    37.42000000    61.17000000
   C     -2.51800000    37.58000000    60.82000000
   C     -3.91800000    36.98000000    60.99000000
   C     -2.31800000    37.83000000    59.33000000
   C     -5.16800000    37.71000000    60.51000000
   H     -1.65800000    34.63000000    61.21000000
   H     -1.80800000    36.48000000    62.46000000
   H     -2.59800000    38.54000000    61.31000000
   H     -4.13800000    36.82000000    62.04000000
   H     -3.94800000    35.94000000    60.67000000
   H     -2.51800000    36.87000000    58.85000000
   H     -3.03800000    38.56000000    58.96000000
   H     -1.33800000    38.23000000    59.06000000
   H     -6.08800000    37.15000000    60.66000000
   H     -5.26800000    38.65000000    61.07000000
   H     -5.13800000    38.02000000    59.47000000
   N     -0.27800000    38.25000000    62.95000000
   C      0.82200000    39.03000000    63.50000000
   C      1.18200000    38.91000000    64.97000000
   O      2.32200000    39.27000000    65.29000000
   C      0.61200000    40.49000000    63.11000000
   O     -0.61800000    40.89000000    63.66000000
   H     -1.19800000    38.31000000    63.36000000
   H      1.77200000    38.72000000    63.07000000
   H      0.55200000    40.78000000    62.06000000
   H      1.47200000    41.01000000    63.55000000
   H     -0.65800000    41.85000000    63.56000000
   N      0.28200000    38.43000000    65.83000000
   C      0.50200000    38.18000000    67.24000000
   C      1.34200000    39.20000000    68.00000000
   O      2.38200000    38.76000000    68.49000000
   C      0.91200000    36.72000000    67.35000000
   H     -0.51800000    38.03000000    65.37000000
   H     -0.46800000    38.20000000    67.73000000
   H      0.96200000    36.43000000    68.40000000
   H      0.18200000    36.07000000    66.88000000
   H      1.89200000    36.47000000    66.95000000
   N      1.11200000    40.52000000    67.99000000
   C      0.13200000    41.32000000    67.28000000
   C     -0.93800000    41.90000000    68.20000000
   O     -0.66800000    42.19000000    69.36000000
   C      0.91200000    42.45000000    66.62000000
   H      1.80200000    41.01000000    68.54000000
   H     -0.30800000    40.75000000    66.47000000
   H      0.29200000    43.32000000    66.38000000
   H      1.56200000    43.00000000    67.31000000
   H      1.51200000    42.13000000    65.77000000
   N     -2.16800000    42.19000000    67.76000000
   C     -2.75800000    42.00000000    66.45000000
   C     -4.10800000    41.32000000    66.55000000
   O     -4.33800000    40.31000000    65.88000000
   C     -2.93800000    43.32000000    65.72000000
   C     -3.08800000    43.21000000    64.20000000
   C     -1.99800000    44.00000000    63.49000000
   O     -0.94800000    43.42000000    63.17000000
   O     -2.21800000    45.22000000    63.31000000
   H     -2.67800000    42.68000000    68.48000000
   H     -2.10800000    41.33000000    65.89000000
   H     -2.01800000    43.89000000    65.86000000
   H     -3.76800000    43.95000000    66.05000000
   H     -4.07800000    43.56000000    63.91000000
   H     -2.94800000    42.19000000    63.84000000
   N     -4.96800000    41.75000000    67.48000000
   C     -6.21800000    41.10000000    67.80000000
   H     -6.99000000    41.43800000    67.10900000
   H     -6.10000000    40.02000000    67.71200000
   H     -6.50900000    41.35200000    68.82000000
   H     -4.77800000    42.64000000    67.92000000
  Ca      1.01000000    37.31000000    56.73000000
   O      3.08000000    36.16000000    58.02000000
   H      3.36000000    36.68000000    58.77000000
   H      3.44000000    35.29000000    58.18000000

Ca 1.70



