%chk=Ng-295_loop3_13.0.chk
%nprocshared=48
%mem=10GB
%nosave
#b3lyp/svp scf=(tight,noincore) Test 
#IOP(5/87=12) Density=Current Pop=(MK,readradii) iop(6/33=2) iop(6/42=6)

Ng-295_loop3_13.0 

   0   1
   C     13.88900000    73.51000000    40.80000000
   C     14.56900000    72.16000000    40.59000000
   O     14.63900000    71.34000000    41.51000000
   H     12.92100000    73.35800000    41.27700000
   H     14.51300000    74.13700000    41.43700000
   H     13.74600000    73.99900000    39.83600000
   N     15.23900000    72.07000000    39.44000000
   C     16.30900000    71.12000000    39.23000000
   C     17.64900000    71.41000000    39.89000000
   O     18.27900000    72.43000000    39.62000000
   C     16.43900000    70.91000000    37.73000000
   C     17.41900000    69.84000000    37.25000000
   O     18.17900000    70.10000000    36.30000000
   O     17.38900000    68.73000000    37.83000000
   H     15.06900000    72.76000000    38.72000000
   H     15.93900000    70.15000000    39.56000000
   H     16.71900000    71.88000000    37.32000000
   H     15.45900000    70.62000000    37.36000000
   N     18.16900000    70.42000000    40.63000000
   C     19.45900000    70.47000000    41.28000000
   C     20.66900000    70.56000000    40.35000000
   O     21.64900000    71.14000000    40.80000000
   C     19.68900000    69.29000000    42.22000000
   C     19.79900000    67.98000000    41.45000000
   C     19.65900000    66.88000000    42.50000000
   C     19.03900000    65.61000000    41.94000000
   N     19.80900000    65.05000000    40.81000000
   H     17.46900000    69.75000000    40.89000000
   H     19.39900000    71.44000000    41.77000000
   H     18.80900000    69.36000000    42.87000000
   H     20.53900000    69.41000000    42.90000000
   H     20.78900000    67.89000000    41.00000000
   H     19.01900000    67.89000000    40.69000000
   H     18.91900000    67.18000000    43.26000000
   H     20.59900000    66.68000000    43.02000000
   H     17.98900000    65.76000000    41.68000000
   H     18.88900000    64.81000000    42.67000000
   H     20.68900000    64.75000000    41.20000000
   H     19.34900000    64.24000000    40.40000000
   H     19.96900000    65.70000000    40.06000000
   N     20.62900000    69.99000000    39.14000000
   C     21.83900000    69.86000000    38.36000000
   C     21.99900000    70.64000000    37.06000000
   O     23.07900000    70.57000000    36.49000000
   C     22.23900000    68.40000000    38.13000000
   C     21.03900000    67.79000000    37.42000000
   O     20.78900000    68.12000000    36.24000000
   O     20.25900000    66.98000000    37.95000000
   H     19.71900000    69.68000000    38.84000000
   H     22.69900000    70.20000000    38.94000000
   H     22.31900000    67.95000000    39.12000000
   H     23.03900000    68.31000000    37.39000000
   N     20.93900000    71.32000000    36.63000000
   C     20.97900000    72.22000000    35.49000000
   C     20.78900000    71.56000000    34.14000000
   O     20.77900000    72.21000000    33.09000000
   H     20.05900000    71.06000000    37.05000000
   H     21.99900000    72.59000000    35.52000000
   H     20.17900000    72.96000000    35.56000000
   N     20.54900000    70.25000000    34.12000000
   C     20.19900000    69.46000000    32.95000000
   C     18.76900000    68.96000000    33.04000000
   O     18.45900000    68.24000000    33.98000000
   C     21.16900000    68.29000000    32.85000000
   C     21.14900000    67.55000000    31.52000000
   N     22.19900000    67.64000000    30.70000000
   O     20.14900000    66.92000000    31.19000000
   H     20.52900000    69.75000000    35.00000000
   H     20.25900000    69.99000000    32.00000000
   H     20.96900000    67.49000000    33.56000000
   H     22.15900000    68.71000000    33.02000000
   H     22.98900000    68.11000000    31.12000000
   H     22.13900000    67.08000000    29.86000000
   N     17.91900000    69.11000000    32.02000000
   C     16.56900000    68.57000000    32.03000000
   C     16.36900000    67.06000000    32.00000000
   O     15.22900000    66.62000000    31.93000000
   H     18.26900000    69.44000000    31.13000000
   H     16.01900000    68.89000000    31.14000000
   H     16.09900000    69.11000000    32.85000000
   N     17.38900000    66.21000000    32.08000000
   C     17.27900000    64.76000000    32.14000000
   C     16.94900000    64.34000000    33.56000000
   O     17.35900000    65.00000000    34.52000000
   C     18.56900000    64.14000000    31.61000000
   C     18.63900000    62.64000000    31.77000000
   C     19.44900000    62.14000000    32.80000000
   C     18.07900000    61.78000000    30.82000000
   C     19.60900000    60.76000000    32.93000000
   C     18.30900000    60.40000000    30.90000000
   C     19.07900000    59.88000000    31.96000000
   O     19.23900000    58.56000000    32.26000000
   H     18.30900000    66.62000000    31.98000000
   H     16.46900000    64.41000000    31.50000000
   H     19.35900000    64.73000000    32.07000000
   H     18.51900000    64.42000000    30.55000000
   H     19.86900000    62.78000000    33.56000000
   H     17.46900000    62.17000000    30.02000000
   H     20.25900000    60.34000000    33.69000000
   H     17.84900000    59.68000000    30.24000000
   H     18.77900000    57.97000000    31.66000000
   N     16.17900000    63.27000000    33.73000000
   C     15.78900000    62.48000000    34.88000000
   C     16.96900000    61.70000000    35.45000000
   O     18.03900000    62.27000000    35.64000000
   C     14.88900000    63.28000000    35.82000000
   C     15.06900000    62.84000000    37.27000000
   C     13.45900000    63.15000000    35.33000000
   C     14.05900000    63.45000000    38.23000000
   H     15.76900000    62.94000000    32.86000000
   H     15.15900000    61.76000000    34.35000000
   H     15.15900000    64.33000000    35.79000000
   H     16.10900000    63.11000000    37.49000000
   H     14.87900000    61.77000000    37.26000000
   H     13.32900000    63.29000000    34.26000000
   H     12.98900000    62.17000000    35.48000000
   H     12.97900000    63.98000000    35.85000000
   H     13.07900000    63.05000000    37.96000000
   H     14.32900000    63.08000000    39.22000000
   H     14.17900000    64.53000000    38.23000000
   N     16.71900000    60.42000000    35.73000000
   C     17.68900000    59.51000000    36.30000000
   C     17.40900000    58.04000000    36.02000000
   O     18.32900000    57.26000000    36.22000000
   C     17.59900000    59.73000000    37.81000000
   O     16.26900000    59.79000000    38.29000000
   H     15.74900000    60.15000000    35.78000000
   H     18.70900000    59.73000000    35.99000000
   H     18.05900000    60.66000000    38.12000000
   H     18.17900000    58.90000000    38.21000000
   H     16.29900000    60.12000000    39.19000000
   N     16.17900000    57.67000000    35.67000000
   C     15.91900000    56.32000000    35.22000000
   C     16.12900000    55.25000000    36.28000000
   O     16.90900000    54.33000000    36.05000000
   C     16.54900000    56.00000000    33.87000000
   H     15.47900000    58.36000000    35.42000000
   H     14.87900000    56.18000000    34.90000000
   H     16.49900000    56.78000000    33.11000000
   H     17.58900000    55.67000000    33.92000000
   H     16.02900000    55.13000000    33.46000000
   N     15.35900000    55.12000000    37.36000000
   C     14.78900000    56.24000000    38.08000000
   C     13.42900000    55.88000000    38.65000000
   O     13.11900000    54.70000000    38.78000000
   C     15.76900000    56.75000000    39.13000000
   H     15.29900000    54.22000000    37.83000000
   H     14.58900000    56.99000000    37.31000000
   H     15.80900000    56.02000000    39.94000000
   H     16.77900000    56.76000000    38.73000000
   H     15.45900000    57.71000000    39.56000000
   N     12.43900000    56.76000000    38.81000000
   C     12.51900000    58.17000000    38.49000000
   C     11.46900000    58.62000000    37.49000000
   O     11.84900000    59.29000000    36.53000000
   C     12.48900000    58.90000000    39.83000000
   C     12.63900000    60.41000000    39.67000000
   C     12.48900000    61.08000000    41.03000000
   O     11.36900000    61.39000000    41.50000000
   O     13.44900000    61.33000000    41.78000000
   H     11.61900000    56.43000000    39.30000000
   H     13.49900000    58.43000000    38.08000000
   H     13.31900000    58.54000000    40.45000000
   H     11.63900000    58.57000000    40.42000000
   H     11.81900000    60.79000000    39.05000000
   H     13.51900000    60.65000000    39.08000000
   N     10.21900000    58.18000000    37.59000000
   C      9.08900000    58.42000000    36.72000000
   H      8.28500000    58.88500000    37.29000000
   H      9.38900000    59.08300000    35.90800000
   H      8.74000000    57.47300000    36.30700000
   H      9.99900000    57.54000000    38.34000000
  Ca     18.29000000    66.92000000    36.16000000
   O     16.60000000    66.24000000    38.01000000
   H     16.65000000    67.11000000    38.42000000
   H     16.32000000    65.66000000    38.72000000

Ca 1.70



