%chk=Ng-293_loop3_0.0.chk
%nprocshared=48
%mem=10GB
%nosave
#b3lyp/svp scf=(tight,noincore) Test 
#IOP(5/87=12) Density=Current Pop=(MK,readradii) iop(6/33=2) iop(6/42=6)

Ng-293_loop3_0.0 

   0   1
   C     51.03000000    24.06000000     4.81000000
   C     50.57000000    25.48000000     4.52000000
   O     50.31000000    25.85000000     3.37000000
   H     51.97200000    24.08900000     5.35800000
   H     50.27700000    23.54900000     5.41000000
   H     51.17200000    23.52500000     3.87100000
   N     50.37000000    26.22000000     5.61000000
   C     49.72000000    27.51000000     5.61000000
   C     48.21000000    27.42000000     5.70000000
   O     47.65000000    26.79000000     6.60000000
   C     50.20000000    28.56000000     6.61000000
   C     50.50000000    28.03000000     8.01000000
   O     50.82000000    28.94000000     8.80000000
   O     50.53000000    26.83000000     8.35000000
   H     50.51000000    25.84000000     6.54000000
   H     49.86000000    27.94000000     4.62000000
   H     49.41000000    29.30000000     6.73000000
   H     51.10000000    29.07000000     6.27000000
   N     47.53000000    28.29000000     4.95000000
   C     46.11000000    28.60000000     5.01000000
   C     45.57000000    29.15000000     6.32000000
   O     44.37000000    29.41000000     6.42000000
   C     45.24000000    27.51000000     4.39000000
   C     45.78000000    26.68000000     3.23000000
   C     44.87000000    25.48000000     2.97000000
   C     45.46000000    24.57000000     1.90000000
   N     44.49000000    23.57000000     1.43000000
   H     48.03000000    28.63000000     4.15000000
   H     45.95000000    29.41000000     4.30000000
   H     44.24000000    27.89000000     4.18000000
   H     45.13000000    26.77000000     5.18000000
   H     46.71000000    26.18000000     3.48000000
   H     45.86000000    27.24000000     2.30000000
   H     43.90000000    25.80000000     2.59000000
   H     44.70000000    24.80000000     3.80000000
   H     46.28000000    24.22000000     2.53000000
   H     45.93000000    25.20000000     1.14000000
   H     44.85000000    22.82000000     0.87000000
   H     43.97000000    23.18000000     2.20000000
   H     43.88000000    24.02000000     0.76000000
   N     46.43000000    29.35000000     7.32000000
   C     46.05000000    29.84000000     8.63000000
   C     47.09000000    30.77000000     9.26000000
   O     48.11000000    31.04000000     8.65000000
   C     45.97000000    28.56000000     9.45000000
   C     44.90000000    28.62000000    10.53000000
   O     44.31000000    29.67000000    10.86000000
   O     44.51000000    27.56000000    11.07000000
   H     47.41000000    29.19000000     7.16000000
   H     45.12000000    30.39000000     8.54000000
   H     46.96000000    28.23000000     9.77000000
   H     45.54000000    27.80000000     8.79000000
   N     46.78000000    31.27000000    10.46000000
   C     47.64000000    32.20000000    11.16000000
   C     47.82000000    31.84000000    12.63000000
   O     46.84000000    31.85000000    13.37000000
   H     45.95000000    30.99000000    10.97000000
   H     47.27000000    33.22000000    11.21000000
   H     48.61000000    32.26000000    10.66000000
   N     49.05000000    31.48000000    13.01000000
   C     49.44000000    31.10000000    14.35000000
   C     50.29000000    32.19000000    15.00000000
   O     50.36000000    32.28000000    16.23000000
   C     50.28000000    29.83000000    14.23000000
   C     49.40000000    28.70000000    13.71000000
   N     49.63000000    28.23000000    12.48000000
   O     48.41000000    28.29000000    14.30000000
   H     49.81000000    31.51000000    12.34000000
   H     48.54000000    30.98000000    14.96000000
   H     50.78000000    29.59000000    15.17000000
   H     51.02000000    29.99000000    13.44000000
   H     50.32000000    28.61000000    11.85000000
   H     48.88000000    27.68000000    12.10000000
   N     50.98000000    33.04000000    14.24000000
   C     51.89000000    34.06000000    14.73000000
   C     53.05000000    33.36000000    15.42000000
   O     53.45000000    32.32000000    14.90000000
   H     50.74000000    33.07000000    13.26000000
   H     51.33000000    34.64000000    15.46000000
   H     52.29000000    34.72000000    13.96000000
   N     53.57000000    33.77000000    16.58000000
   C     54.54000000    33.07000000    17.40000000
   C     54.09000000    31.80000000    18.11000000
   O     54.72000000    31.40000000    19.09000000
   C     55.89000000    32.96000000    16.70000000
   C     56.36000000    34.13000000    15.87000000
   C     56.80000000    33.83000000    14.58000000
   C     56.47000000    35.37000000    16.50000000
   C     57.49000000    34.85000000    13.91000000
   C     57.06000000    36.41000000    15.77000000
   C     57.53000000    36.14000000    14.47000000
   O     58.03000000    37.20000000    13.78000000
   H     53.33000000    34.67000000    16.96000000
   H     54.65000000    33.77000000    18.24000000
   H     55.96000000    32.07000000    16.06000000
   H     56.61000000    32.82000000    17.50000000
   H     56.85000000    32.79000000    14.30000000
   H     56.13000000    35.42000000    17.53000000
   H     57.77000000    34.68000000    12.88000000
   H     57.19000000    37.35000000    16.29000000
   H     57.95000000    38.07000000    14.19000000
   N     53.07000000    31.12000000    17.59000000
   C     52.40000000    29.93000000    18.08000000
   C     51.69000000    30.17000000    19.41000000
   O     50.46000000    30.07000000    19.45000000
   C     53.30000000    28.70000000    18.23000000
   C     54.23000000    28.59000000    17.03000000
   C     52.50000000    27.41000000    18.43000000
   C     55.20000000    27.42000000    16.99000000
   H     52.65000000    31.52000000    16.76000000
   H     51.68000000    29.66000000    17.32000000
   H     53.86000000    28.80000000    19.15000000
   H     54.91000000    29.43000000    16.84000000
   H     53.64000000    28.53000000    16.12000000
   H     53.14000000    26.54000000    18.60000000
   H     51.88000000    27.38000000    19.32000000
   H     51.97000000    27.34000000    17.48000000
   H     55.77000000    27.39000000    16.06000000
   H     55.83000000    27.59000000    17.87000000
   H     54.77000000    26.42000000    17.05000000
   N     52.38000000    30.53000000    20.49000000
   C     51.76000000    31.01000000    21.71000000
   C     50.81000000    30.08000000    22.45000000
   O     49.87000000    30.53000000    23.10000000
   C     52.83000000    31.40000000    22.73000000
   O     53.54000000    32.52000000    22.25000000
   H     53.38000000    30.55000000    20.43000000
   H     51.19000000    31.92000000    21.52000000
   H     53.55000000    30.60000000    22.95000000
   H     52.43000000    31.66000000    23.70000000
   H     53.98000000    32.97000000    22.98000000
   N     51.00000000    28.79000000    22.18000000
   C     50.05000000    27.73000000    22.45000000
   C     48.57000000    27.97000000    22.18000000
   O     47.71000000    27.83000000    23.05000000
   C     50.28000000    27.33000000    23.90000000
   H     51.85000000    28.63000000    21.67000000
   H     50.30000000    26.80000000    21.93000000
   H     49.64000000    26.49000000    24.19000000
   H     51.36000000    27.20000000    23.97000000
   H     49.94000000    28.17000000    24.51000000
   N     48.35000000    28.50000000    20.98000000
   C     47.06000000    28.85000000    20.43000000
   C     46.59000000    27.71000000    19.54000000
   O     47.39000000    27.15000000    18.79000000
   C     47.09000000    30.10000000    19.56000000
   H     49.12000000    28.70000000    20.35000000
   H     46.34000000    28.98000000    21.24000000
   H     46.08000000    30.21000000    19.14000000
   H     47.53000000    30.89000000    20.17000000
   H     47.72000000    29.84000000    18.71000000
   N     45.27000000    27.54000000    19.61000000
   C     44.50000000    26.55000000    18.90000000
   C     44.91000000    25.11000000    19.17000000
   O     45.29000000    24.28000000    18.35000000
   C     44.55000000    26.89000000    17.41000000
   C     43.65000000    28.08000000    17.09000000
   C     43.35000000    28.37000000    15.63000000
   O     44.18000000    28.12000000    14.73000000
   O     42.22000000    28.80000000    15.29000000
   H     44.77000000    28.17000000    20.23000000
   H     43.49000000    26.73000000    19.27000000
   H     44.15000000    26.04000000    16.86000000
   H     45.58000000    27.14000000    17.15000000
   H     44.08000000    29.00000000    17.50000000
   H     42.72000000    27.85000000    17.61000000
   N     44.80000000    24.73000000    20.45000000
   C     45.29000000    23.44000000    20.90000000
   H     46.22600000    23.57600000    21.44200000
   H     44.55300000    22.98000000    21.55900000
   H     45.46100000    22.79500000    20.03800000
   H     44.47000000    25.45000000    21.08000000
  Ca     42.78000000    28.48000000    12.67000000
   O     42.51000000    25.90000000    13.34000000
   H     41.88000000    25.73000000    14.04000000
   H     43.10000000    25.15000000    13.36000000

Ca 1.70



