%chk=Ng-293_loop3_51.0.chk
%nprocshared=48
%mem=10GB
%nosave
#b3lyp/svp scf=(tight,noincore) Test 
#IOP(5/87=12) Density=Current Pop=(MK,readradii) iop(6/33=2) iop(6/42=6)

Ng-293_loop3_51.0 

   0   1
   C     54.61000000    30.54000000    13.63000000
   C     53.70000000    31.59000000    14.25000000
   O     53.61000000    32.63000000    13.61000000
   H     55.56000000    30.52300000    14.16300000
   H     54.13700000    29.56100000    13.70100000
   H     54.78600000    30.78400000    12.58200000
   N     53.14000000    31.38000000    15.44000000
   C     52.33000000    32.38000000    16.11000000
   C     50.97000000    32.76000000    15.53000000
   O     50.09000000    31.94000000    15.26000000
   C     52.27000000    32.18000000    17.62000000
   C     53.64000000    32.32000000    18.28000000
   O     54.35000000    33.28000000    17.92000000
   O     54.04000000    31.48000000    19.12000000
   H     52.94000000    30.49000000    15.87000000
   H     53.03000000    33.21000000    16.02000000
   H     51.96000000    31.15000000    17.80000000
   H     51.60000000    32.88000000    18.13000000
   N     50.73000000    34.05000000    15.32000000
   C     49.42000000    34.61000000    15.02000000
   C     48.33000000    34.41000000    16.06000000
   O     47.13000000    34.39000000    15.83000000
   C     49.00000000    34.47000000    13.56000000
   C     49.94000000    35.27000000    12.66000000
   C     49.49000000    35.24000000    11.20000000
   C     50.52000000    35.96000000    10.33000000
   N     50.25000000    36.06000000     8.88000000
   H     51.47000000    34.70000000    15.51000000
   H     49.68000000    35.65000000    15.18000000
   H     48.07000000    34.99000000    13.33000000
   H     48.83000000    33.42000000    13.31000000
   H     50.93000000    34.84000000    12.83000000
   H     50.10000000    36.27000000    13.06000000
   H     48.55000000    35.79000000    11.12000000
   H     49.33000000    34.21000000    10.90000000
   H     51.52000000    35.60000000    10.56000000
   H     50.59000000    36.98000000    10.71000000
   H     49.93000000    35.14000000     8.62000000
   H     49.50000000    36.66000000     8.58000000
   H     51.06000000    36.31000000     8.33000000
   N     48.69000000    34.28000000    17.34000000
   C     47.90000000    34.01000000    18.53000000
   C     48.73000000    34.42000000    19.74000000
   O     49.91000000    34.12000000    19.87000000
   C     47.64000000    32.51000000    18.63000000
   C     46.86000000    32.06000000    19.85000000
   O     46.14000000    32.90000000    20.43000000
   O     46.89000000    30.86000000    20.23000000
   H     49.69000000    34.29000000    17.45000000
   H     46.97000000    34.58000000    18.60000000
   H     48.61000000    32.01000000    18.56000000
   H     47.07000000    32.14000000    17.78000000
   N     48.09000000    35.14000000    20.67000000
   C     48.63000000    35.49000000    21.96000000
   C     48.75000000    34.29000000    22.89000000
   O     47.75000000    33.58000000    23.03000000
   H     47.10000000    35.33000000    20.57000000
   H     47.88000000    36.13000000    22.43000000
   H     49.52000000    36.13000000    21.89000000
   N     49.92000000    33.99000000    23.45000000
   C     50.20000000    32.96000000    24.43000000
   C     51.17000000    33.43000000    25.51000000
   O     51.07000000    32.99000000    26.65000000
   C     50.71000000    31.68000000    23.78000000
   C     49.76000000    31.25000000    22.66000000
   N     50.05000000    31.40000000    21.37000000
   O     48.73000000    30.67000000    22.98000000
   H     50.66000000    34.65000000    23.26000000
   H     49.25000000    32.75000000    24.92000000
   H     50.68000000    30.91000000    24.54000000
   H     51.74000000    31.78000000    23.44000000
   H     50.86000000    31.94000000    21.11000000
   H     49.36000000    31.10000000    20.69000000
   N     52.06000000    34.37000000    25.19000000
   C     53.08000000    34.80000000    26.12000000
   C     53.85000000    33.68000000    26.80000000
   O     54.22000000    32.73000000    26.12000000
   H     52.19000000    34.64000000    24.22000000
   H     52.64000000    35.36000000    26.95000000
   H     53.83000000    35.46000000    25.68000000
   N     54.03000000    33.78000000    28.12000000
   C     54.62000000    32.74000000    28.94000000
   C     53.94000000    31.38000000    28.99000000
   O     54.37000000    30.58000000    29.82000000
   C     56.12000000    32.60000000    28.70000000
   C     56.87000000    33.91000000    28.80000000
   C     57.73000000    34.43000000    27.83000000
   C     56.72000000    34.67000000    29.97000000
   C     58.22000000    35.74000000    27.92000000
   C     57.13000000    36.01000000    30.08000000
   C     57.85000000    36.57000000    29.00000000
   O     58.13000000    37.90000000    28.90000000
   H     53.77000000    34.63000000    28.60000000
   H     54.50000000    33.15000000    29.94000000
   H     56.31000000    32.17000000    27.72000000
   H     56.59000000    31.92000000    29.40000000
   H     57.95000000    33.82000000    26.96000000
   H     56.26000000    34.20000000    30.82000000
   H     58.89000000    36.03000000    27.13000000
   H     57.00000000    36.58000000    30.99000000
   H     57.79000000    38.42000000    29.63000000
   N     52.98000000    31.14000000    28.09000000
   C     52.14000000    29.97000000    27.95000000
   C     51.17000000    29.71000000    29.09000000
   O     49.98000000    29.49000000    28.86000000
   C     53.07000000    28.80000000    27.64000000
   C     54.02000000    28.98000000    26.46000000
   C     52.27000000    27.49000000    27.62000000
   C     55.22000000    28.05000000    26.51000000
   H     52.81000000    31.87000000    27.42000000
   H     51.57000000    30.07000000    27.03000000
   H     53.75000000    28.74000000    28.49000000
   H     54.37000000    30.01000000    26.44000000
   H     53.36000000    28.83000000    25.60000000
   H     52.80000000    26.55000000    27.47000000
   H     51.66000000    27.34000000    28.51000000
   H     51.55000000    27.49000000    26.80000000
   H     55.75000000    28.15000000    25.56000000
   H     55.99000000    28.29000000    27.25000000
   H     54.95000000    27.00000000    26.60000000
   N     51.59000000    29.80000000    30.35000000
   C     50.73000000    30.26000000    31.43000000
   C     49.86000000    29.13000000    31.96000000
   O     48.93000000    29.37000000    32.72000000
   C     51.67000000    30.80000000    32.51000000
   O     52.44000000    31.87000000    32.01000000
   H     52.56000000    30.06000000    30.43000000
   H     50.07000000    30.97000000    30.93000000
   H     52.38000000    30.04000000    32.84000000
   H     51.15000000    31.16000000    33.39000000
   H     51.80000000    32.52000000    31.69000000
   N     50.09000000    27.90000000    31.48000000
   C     49.19000000    26.78000000    31.65000000
   C     47.80000000    26.97000000    31.05000000
   O     46.82000000    26.44000000    31.57000000
   C     49.28000000    26.32000000    33.10000000
   H     50.92000000    27.79000000    30.93000000
   H     49.61000000    25.96000000    31.06000000
   H     48.89000000    25.31000000    33.23000000
   H     50.32000000    26.27000000    33.45000000
   H     48.83000000    26.91000000    33.89000000
   N     47.68000000    27.91000000    30.12000000
   C     46.48000000    28.16000000    29.34000000
   C     46.36000000    27.24000000    28.13000000
   O     47.41000000    27.02000000    27.53000000
   C     46.30000000    29.63000000    29.00000000
   H     48.53000000    28.25000000    29.70000000
   H     45.68000000    28.02000000    30.06000000
   H     46.05000000    30.14000000    29.93000000
   H     47.23000000    30.06000000    28.64000000
   H     45.51000000    29.69000000    28.25000000
   N     45.12000000    26.86000000    27.80000000
   C     44.67000000    26.16000000    26.62000000
   C     45.38000000    24.83000000    26.43000000
   O     45.84000000    24.56000000    25.33000000
   C     44.65000000    27.10000000    25.42000000
   C     43.86000000    28.39000000    25.57000000
   C     44.13000000    29.37000000    24.45000000
   O     44.75000000    30.42000000    24.72000000
   O     43.83000000    29.02000000    23.28000000
   H     44.36000000    27.17000000    28.39000000
   H     43.62000000    25.92000000    26.80000000
   H     44.17000000    26.56000000    24.60000000
   H     45.67000000    27.40000000    25.18000000
   H     44.17000000    28.87000000    26.50000000
   H     42.79000000    28.18000000    25.50000000
   N     45.44000000    23.95000000    27.44000000
   C     46.24000000    22.74000000    27.47000000
   H     47.18200000    22.94000000    27.98100000
   H     45.69800000    21.95800000    28.00200000
   H     46.44300000    22.41200000    26.45000000
   H     44.90000000    24.16000000    28.26000000
  Ca     46.05000000    31.45000000    22.77000000
   O     44.13000000    33.24000000    23.00000000
   H     44.31000000    34.12000000    23.31000000
   H     43.50000000    33.36000000    22.29000000

Ca 1.70



