%chk=Ng-31_loop3_1.0.chk
%nprocshared=48
%mem=10GB
%nosave
#b3lyp/svp scf=(tight,noincore) Test 
#IOP(5/87=12) Density=Current Pop=(MK,readradii) iop(6/33=2) iop(6/42=6)

Ng-31_loop3_1.0 

   0   1
   C      1.62700000    52.27000000    22.65000000
   C      2.44700000    53.41000000    22.07000000
   O      1.98700000    54.07000000    21.15000000
   H      0.66200000    52.22400000    22.14500000
   H      2.15800000    51.32900000    22.50400000
   H      1.47200000    52.43900000    23.71600000
   N      3.70700000    53.66000000    22.43000000
   C      4.69700000    54.57000000    21.87000000
   C      5.61700000    53.91000000    20.84000000
   O      5.58700000    52.70000000    20.65000000
   C      5.53700000    55.24000000    22.95000000
   C      6.43700000    54.35000000    23.79000000
   O      6.01700000    53.62000000    24.72000000
   O      7.65700000    54.37000000    23.52000000
   H      3.97700000    53.09000000    23.21000000
   H      4.25700000    55.37000000    21.27000000
   H      4.91700000    55.74000000    23.70000000
   H      6.10700000    56.04000000    22.48000000
   N      6.41700000    54.72000000    20.15000000
   C      7.47700000    54.33000000    19.25000000
   C      6.89700000    53.89000000    17.91000000
   O      7.56700000    53.60000000    16.93000000
   C      8.47700000    55.48000000    19.20000000
   C      9.04700000    55.88000000    20.56000000
   C     10.20700000    56.86000000    20.43000000
   C     10.46700000    57.55000000    21.77000000
   N     11.15700000    58.84000000    21.63000000
   H      6.42700000    55.70000000    20.42000000
   H      7.97700000    53.42000000    19.59000000
   H      7.98700000    56.34000000    18.74000000
   H      9.23700000    55.20000000    18.48000000
   H      9.27700000    55.03000000    21.20000000
   H      8.30700000    56.40000000    21.17000000
   H      9.95700000    57.62000000    19.69000000
   H     11.15700000    56.39000000    20.17000000
   H     11.08700000    56.86000000    22.33000000
   H      9.55700000    57.65000000    22.36000000
   H     11.63700000    59.08000000    22.49000000
   H     11.81700000    58.76000000    20.87000000
   H     10.48700000    59.57000000    21.43000000
   N      5.55700000    53.93000000    17.84000000
   C      4.72700000    53.28000000    16.86000000
   C      4.79700000    53.82000000    15.44000000
   O      4.31700000    53.20000000    14.49000000
   C      3.28700000    53.30000000    17.36000000
   C      2.66700000    54.66000000    17.66000000
   O      1.46700000    54.77000000    17.33000000
   O      3.29700000    55.46000000    18.38000000
   H      5.08700000    54.42000000    18.59000000
   H      4.97700000    52.22000000    16.87000000
   H      3.28700000    52.81000000    18.33000000
   H      2.70700000    52.66000000    16.69000000
   N      5.40700000    54.98000000    15.17000000
   C      5.30700000    55.63000000    13.88000000
   C      3.93700000    56.26000000    13.67000000
   O      3.28700000    56.64000000    14.65000000
   H      5.98700000    55.40000000    15.89000000
   H      5.45700000    54.94000000    13.05000000
   H      6.10700000    56.33000000    13.68000000
   N      3.51700000    56.69000000    12.48000000
   C      4.08700000    56.70000000    11.14000000
   C      3.03700000    56.25000000    10.13000000
   O      1.96700000    56.85000000    10.09000000
   C      4.53700000    58.12000000    10.81000000
   C      5.00700000    58.35000000     9.38000000
   N      6.25700000    57.98000000     9.13000000
   O      4.23700000    58.69000000     8.49000000
   H      2.62700000    57.17000000    12.48000000
   H      5.03700000    56.17000000    11.18000000
   H      5.26700000    58.54000000    11.51000000
   H      3.62700000    58.71000000    10.95000000
   H      6.93700000    57.55000000     9.74000000
   H      6.49700000    58.05000000     8.15000000
   N      3.28700000    55.27000000     9.27000000
   C      4.45700000    54.42000000     9.15000000
   C      4.39700000    53.13000000     9.96000000
   O      4.04700000    53.18000000    11.14000000
   H      2.53700000    55.16000000     8.60000000
   H      5.34700000    54.96000000     9.48000000
   H      4.55700000    54.23000000     8.08000000
   N      4.64700000    52.02000000     9.27000000
   C      4.46700000    50.68000000     9.79000000
   C      5.62700000    49.82000000     9.30000000
   O      5.63700000    49.30000000     8.18000000
   C      3.03700000    50.29000000     9.45000000
   C      1.96700000    51.31000000     9.76000000
   C      1.27700000    51.27000000    10.98000000
   C      1.69700000    52.35000000     8.86000000
   C      0.33700000    52.26000000    11.28000000
   C      0.77700000    53.37000000     9.12000000
   C      0.11700000    53.32000000    10.37000000
   O     -0.72300000    54.31000000    10.77000000
   H      4.97700000    52.18000000     8.32000000
   H      4.43700000    50.80000000    10.87000000
   H      2.80700000    49.34000000     9.93000000
   H      2.90700000    50.16000000     8.38000000
   H      1.40700000    50.43000000    11.65000000
   H      2.18700000    52.41000000     7.90000000
   H     -0.14300000    52.18000000    12.25000000
   H      0.52700000    54.11000000     8.38000000
   H     -0.94300000    54.99000000    10.12000000
   N      6.60700000    49.61000000    10.18000000
   C      7.89700000    49.05000000     9.81000000
   C      7.93700000    47.55000000    10.05000000
   O      9.00700000    46.97000000     9.85000000
   C      8.94700000    49.97000000    10.43000000
   C      8.79700000    51.41000000     9.96000000
   C      8.91700000    49.90000000    11.95000000
   C      9.02700000    51.62000000     8.46000000
   H      6.53700000    50.00000000    11.11000000
   H      8.04700000    49.09000000     8.73000000
   H      9.89700000    49.56000000    10.07000000
   H      9.50700000    52.08000000    10.44000000
   H      7.85700000    51.86000000    10.26000000
   H      9.89700000    50.17000000    12.35000000
   H      8.23700000    50.59000000    12.44000000
   H      8.64700000    48.88000000    12.23000000
   H      8.12700000    51.43000000     7.87000000
   H      9.26700000    52.67000000     8.30000000
   H      9.86700000    51.05000000     8.06000000
   N      6.89700000    46.97000000    10.65000000
   C      6.92700000    45.54000000    10.88000000
   C      7.55700000    45.18000000    12.22000000
   O      7.76700000    43.98000000    12.43000000
   C      5.55700000    44.90000000    10.65000000
   O      4.50700000    45.41000000    11.43000000
   H      6.01700000    47.45000000    10.69000000
   H      7.60700000    45.09000000    10.15000000
   H      5.63700000    43.83000000    10.85000000
   H      5.31700000    44.94000000     9.59000000
   H      4.69700000    46.30000000    11.74000000
   N      7.89700000    46.18000000    13.03000000
   C      8.25700000    45.98000000    14.42000000
   C      7.05700000    46.18000000    15.33000000
   O      6.86700000    47.15000000    16.06000000
   C      9.47700000    46.82000000    14.78000000
   H      7.58700000    47.11000000    12.78000000
   H      8.53700000    44.94000000    14.57000000
   H      9.63700000    47.10000000    15.82000000
   H     10.38700000    46.34000000    14.42000000
   H      9.45700000    47.70000000    14.13000000
   N      6.10700000    45.24000000    15.20000000
   C      4.95700000    45.06000000    16.06000000
   C      3.89700000    46.14000000    16.19000000
   O      3.02700000    46.04000000    17.05000000
   C      5.51700000    44.70000000    17.43000000
   H      6.24700000    44.59000000    14.45000000
   H      4.41700000    44.18000000    15.71000000
   H      6.22700000    43.87000000    17.35000000
   H      5.99700000    45.54000000    17.93000000
   H      4.71700000    44.17000000    17.95000000
   N      3.90700000    47.14000000    15.30000000
   C      2.77700000    48.05000000    15.30000000
   C      1.42700000    47.62000000    14.74000000
   O      0.44700000    47.77000000    15.46000000
   C      3.27700000    49.39000000    14.78000000
   C      3.48700000    49.46000000    13.27000000
   C      4.80700000    48.86000000    12.80000000
   O      4.69700000    47.78000000    12.16000000
   O      5.84700000    49.52000000    12.99000000
   H      4.72700000    47.29000000    14.73000000
   H      2.48700000    48.23000000    16.34000000
   H      4.27700000    49.50000000    15.21000000
   H      2.67700000    50.22000000    15.13000000
   H      3.52700000    50.49000000    12.92000000
   H      2.66700000    48.93000000    12.79000000
   N      1.44700000    46.96000000    13.58000000
   C      0.23700000    46.48000000    12.95000000
   H     -0.53000000    47.25300000    13.00000000
   H      0.44100000    46.23900000    11.90700000
   H     -0.11400000    45.58700000    13.46800000
   H      2.34700000    46.72000000    13.18000000
  Ca      1.44000000    57.51000000    18.27000000
   O      3.56000000    58.71000000    17.43000000
   H      4.19000000    58.52000000    16.74000000
   H      3.70000000    59.63000000    17.64000000

Ca 1.70



