%chk=Ng-31_loop3_43.0.chk
%nprocshared=48
%mem=10GB
%nosave
#b3lyp/svp scf=(tight,noincore) Test 
#IOP(5/87=12) Density=Current Pop=(MK,readradii) iop(6/33=2) iop(6/42=6)

Ng-31_loop3_43.0 

   0   1
   C     -0.29600000    90.26000000    14.73000000
   C     -0.22600000    89.04000000    15.63000000
   O     -1.24600000    88.63000000    16.18000000
   H     -0.76600000    91.08200000    15.27000000
   H      0.71100000    90.55000000    14.43100000
   H     -0.88500000    90.02500000    13.84300000
   N      0.94400000    88.40000000    15.74000000
   C      1.13400000    87.14000000    16.44000000
   C      1.83400000    87.27000000    17.78000000
   O      1.84400000    86.31000000    18.54000000
   C      1.82400000    86.19000000    15.46000000
   C      3.09400000    86.66000000    14.76000000
   O      3.52400000    87.83000000    14.87000000
   O      3.66400000    85.84000000    14.01000000
   H      1.77400000    88.84000000    15.38000000
   H      0.15400000    86.72000000    16.67000000
   H      1.03400000    85.85000000    14.79000000
   H      2.08400000    85.31000000    16.05000000
   N      2.38400000    88.46000000    18.06000000
   C      3.01400000    88.75000000    19.33000000
   C      4.32400000    88.00000000    19.53000000
   O      5.30400000    88.30000000    18.84000000
   C      3.18400000    90.25000000    19.53000000
   C      1.95400000    91.15000000    19.63000000
   C      2.10400000    92.62000000    20.00000000
   C      0.81400000    93.38000000    19.69000000
   N     -0.42600000    92.83000000    20.26000000
   H      2.34400000    89.21000000    17.39000000
   H      2.39400000    88.39000000    20.15000000
   H      3.68400000    90.64000000    18.65000000
   H      3.69400000    90.47000000    20.47000000
   H      1.24400000    90.61000000    20.26000000
   H      1.34400000    91.08000000    18.73000000
   H      2.92400000    93.03000000    19.42000000
   H      2.31400000    92.66000000    21.07000000
   H      0.53400000    93.48000000    18.65000000
   H      0.96400000    94.34000000    20.20000000
   H     -0.15600000    92.54000000    21.18000000
   H     -1.16600000    93.52000000    20.34000000
   H     -0.76600000    92.01000000    19.78000000
   N      4.39400000    87.05000000    20.46000000
   C      5.46400000    86.08000000    20.60000000
   C      5.19400000    84.72000000    19.96000000
   O      6.05400000    83.84000000    19.93000000
   C      5.58400000    85.79000000    22.10000000
   C      4.30400000    85.35000000    22.80000000
   O      4.28400000    84.23000000    23.37000000
   O      3.24400000    85.97000000    22.60000000
   H      3.60400000    86.88000000    21.07000000
   H      6.43400000    86.40000000    20.23000000
   H      5.85400000    86.77000000    22.48000000
   H      6.45400000    85.17000000    22.32000000
   N      3.98400000    84.50000000    19.44000000
   C      3.41400000    83.33000000    18.82000000
   C      4.10400000    83.06000000    17.49000000
   O      4.96400000    83.78000000    16.98000000
   H      3.38400000    85.31000000    19.50000000
   H      2.35400000    83.52000000    18.64000000
   H      3.49400000    82.42000000    19.42000000
   N      3.66400000    82.06000000    16.72000000
   C      2.62400000    81.09000000    16.97000000
   C      1.90400000    80.80000000    15.66000000
   O      2.41400000    80.21000000    14.71000000
   C      3.36400000    79.84000000    17.43000000
   C      4.15400000    79.93000000    18.74000000
   N      3.44400000    79.89000000    19.87000000
   O      5.37400000    80.06000000    18.68000000
   H      4.09400000    82.06000000    15.81000000
   H      2.02400000    81.36000000    17.84000000
   H      4.00400000    79.40000000    16.67000000
   H      2.57400000    79.11000000    17.57000000
   H      2.46400000    79.65000000    19.83000000
   H      3.83400000    80.01000000    20.79000000
   N      0.69400000    81.33000000    15.46000000
   C      0.03400000    82.38000000    16.21000000
   C     -0.60600000    82.00000000    17.54000000
   O     -0.68600000    82.86000000    18.42000000
   H      0.37400000    81.18000000    14.51000000
   H     -0.72600000    82.86000000    15.60000000
   H      0.80400000    83.13000000    16.33000000
   N     -0.80600000    80.72000000    17.85000000
   C     -1.50600000    80.22000000    19.01000000
   C     -0.49600000    80.06000000    20.14000000
   O      0.65400000    79.65000000    19.99000000
   C     -2.26600000    78.94000000    18.64000000
   C     -3.02600000    78.90000000    17.34000000
   C     -3.90600000    79.92000000    16.95000000
   C     -3.07600000    77.70000000    16.62000000
   C     -4.74600000    79.81000000    15.83000000
   C     -3.91600000    77.50000000    15.52000000
   C     -4.75600000    78.58000000    15.15000000
   O     -5.49600000    78.49000000    14.01000000
   H     -0.73600000    80.05000000    17.09000000
   H     -2.25600000    80.97000000    19.26000000
   H     -2.94600000    78.88000000    19.49000000
   H     -1.50600000    78.17000000    18.49000000
   H     -3.87600000    80.83000000    17.53000000
   H     -2.40600000    76.90000000    16.89000000
   H     -5.31600000    80.71000000    15.63000000
   H     -3.95600000    76.60000000    14.94000000
   H     -5.50600000    77.61000000    13.64000000
   N     -1.06600000    80.42000000    21.29000000
   C     -0.49600000    80.94000000    22.52000000
   C     -0.78600000    80.08000000    23.74000000
   O     -0.10600000    80.11000000    24.76000000
   C     -0.88600000    82.40000000    22.78000000
   C     -0.47600000    83.43000000    21.73000000
   C     -2.38600000    82.65000000    22.90000000
   C      0.93400000    83.24000000    21.18000000
   H     -2.06600000    80.50000000    21.17000000
   H      0.58400000    80.96000000    22.39000000
   H     -0.37600000    82.71000000    23.69000000
   H     -0.44600000    84.39000000    22.24000000
   H     -1.12600000    83.25000000    20.87000000
   H     -2.58600000    83.71000000    23.06000000
   H     -2.91600000    82.37000000    22.00000000
   H     -2.90600000    82.12000000    23.69000000
   H      1.23400000    84.13000000    20.62000000
   H      1.66400000    83.12000000    21.98000000
   H      0.95400000    82.45000000    20.43000000
   N     -1.78600000    79.21000000    23.58000000
   C     -2.21600000    78.27000000    24.58000000
   C     -3.25600000    78.99000000    25.43000000
   O     -4.03600000    79.76000000    24.87000000
   C     -2.84600000    77.01000000    23.99000000
   O     -2.06600000    76.45000000    22.95000000
   H     -2.34600000    79.27000000    22.74000000
   H     -1.46600000    77.95000000    25.31000000
   H     -3.79600000    77.29000000    23.53000000
   H     -3.06600000    76.22000000    24.71000000
   H     -2.67600000    75.95000000    22.40000000
   N     -3.28600000    78.72000000    26.74000000
   C     -4.22600000    79.24000000    27.71000000
   C     -4.01600000    80.62000000    28.32000000
   O     -2.95600000    81.21000000    28.15000000
   C     -4.24600000    78.20000000    28.83000000
   H     -2.57600000    78.08000000    27.06000000
   H     -5.20600000    79.18000000    27.23000000
   H     -3.30600000    77.92000000    29.29000000
   H     -4.97600000    78.47000000    29.60000000
   H     -4.60600000    77.24000000    28.44000000
   N     -5.00600000    81.12000000    29.06000000
   C     -4.83600000    82.28000000    29.91000000
   C     -4.59600000    83.63000000    29.25000000
   O     -4.40600000    84.66000000    29.89000000
   C     -3.93600000    81.96000000    31.10000000
   H     -5.80600000    80.52000000    29.22000000
   H     -5.86600000    82.40000000    30.26000000
   H     -4.24600000    81.01000000    31.55000000
   H     -2.87600000    81.91000000    30.83000000
   H     -4.17600000    82.73000000    31.84000000
   N     -4.75600000    83.75000000    27.93000000
   C     -4.67600000    85.02000000    27.23000000
   C     -5.85600000    85.43000000    26.36000000
   O     -6.16600000    86.62000000    26.31000000
   C     -3.37600000    84.96000000    26.43000000
   C     -2.95600000    86.36000000    25.99000000
   C     -1.52600000    86.31000000    25.47000000
   O     -1.36600000    86.36000000    24.24000000
   O     -0.54600000    86.26000000    26.25000000
   H     -5.18600000    82.98000000    27.44000000
   H     -4.57600000    85.82000000    27.97000000
   H     -3.48600000    84.19000000    25.67000000
   H     -2.58600000    84.62000000    27.10000000
   H     -2.93600000    86.96000000    26.90000000
   H     -3.67600000    86.58000000    25.20000000
   N     -6.68600000    84.49000000    25.91000000
   C     -7.78600000    84.87000000    25.05000000
   H     -8.60600000    85.25300000    25.65800000
   H     -7.45600000    85.64400000    24.35700000
   H     -8.12600000    84.00000000    24.48800000
   H     -6.35600000    83.53000000    25.88000000
  Ca      1.17000000    86.87000000    23.86000000
   O      3.00000000    88.78000000    23.84000000
   H      3.95000000    88.81000000    23.74000000
   H      2.76000000    89.64000000    24.16000000

Ca 1.70



