%chk=Ng-31_loop3_10.0.chk
%nprocshared=48
%mem=10GB
%nosave
#b3lyp/svp scf=(tight,noincore) Test 
#IOP(5/87=12) Density=Current Pop=(MK,readradii) iop(6/33=2) iop(6/42=6)

Ng-31_loop3_10.0 

   0   1
   C     -1.74000000    42.40000000   101.83000000
   C     -0.32000000    42.91000000   101.63000000
   O      0.18000000    42.80000000   100.51000000
   H     -2.40700000    42.90100000   101.12900000
   H     -1.76900000    41.32500000   101.65300000
   H     -2.06200000    42.61000000   102.85000000
   N      0.27000000    43.45000000   102.70000000
   C      1.59000000    44.05000000   102.71000000
   C      2.59000000    43.16000000   103.44000000
   O      2.35000000    42.47000000   104.42000000
   C      1.61000000    45.42000000   103.38000000
   C      0.67000000    45.50000000   104.58000000
   O      1.11000000    45.33000000   105.74000000
   O     -0.57000000    45.61000000   104.48000000
   H     -0.17000000    43.48000000   103.61000000
   H      1.90000000    44.25000000   101.69000000
   H      1.35000000    46.20000000   102.66000000
   H      2.62000000    45.72000000   103.64000000
   N      3.84000000    43.34000000   103.00000000
   C      5.09000000    43.07000000   103.68000000
   C      6.21000000    42.39000000   102.90000000
   O      6.94000000    41.59000000   103.46000000
   C      5.66000000    44.37000000   104.23000000
   C      4.87000000    45.05000000   105.35000000
   C      5.14000000    46.54000000   105.45000000
   C      4.52000000    47.17000000   106.70000000
   N      3.08000000    47.28000000   106.43000000
   H      3.95000000    43.79000000   102.10000000
   H      4.84000000    42.46000000   104.54000000
   H      5.88000000    45.08000000   103.44000000
   H      6.68000000    44.25000000   104.61000000
   H      5.08000000    44.52000000   106.28000000
   H      3.80000000    44.87000000   105.19000000
   H      4.76000000    47.08000000   104.57000000
   H      6.21000000    46.63000000   105.60000000
   H      5.00000000    48.14000000   106.79000000
   H      4.81000000    46.57000000   107.57000000
   H      2.65000000    46.37000000   106.39000000
   H      2.62000000    47.86000000   107.13000000
   H      3.01000000    47.72000000   105.52000000
   N      6.29000000    42.62000000   101.59000000
   C      7.14000000    41.84000000   100.72000000
   C      7.56000000    42.61000000    99.48000000
   O      8.74000000    42.72000000    99.15000000
   C      6.60000000    40.42000000   100.57000000
   C      5.10000000    40.25000000   100.39000000
   O      4.54000000    40.51000000    99.30000000
   O      4.52000000    39.75000000   101.38000000
   H      5.57000000    43.21000000   101.18000000
   H      8.05000000    41.83000000   101.32000000
   H      6.81000000    39.85000000   101.48000000
   H      6.95000000    39.90000000    99.68000000
   N      6.56000000    42.90000000    98.64000000
   C      6.71000000    43.66000000    97.41000000
   C      5.51000000    43.51000000    96.48000000
   O      4.53000000    42.87000000    96.87000000
   H      5.64000000    42.67000000    98.98000000
   H      7.61000000    43.35000000    96.87000000
   H      6.74000000    44.72000000    97.65000000
   N      5.40000000    44.19000000    95.34000000
   C      6.46000000    44.97000000    94.74000000
   C      6.35000000    44.79000000    93.23000000
   O      5.65000000    45.52000000    92.53000000
   C      6.46000000    46.45000000    95.09000000
   C      7.71000000    47.09000000    94.50000000
   N      7.72000000    48.36000000    94.08000000
   O      8.76000000    46.46000000    94.45000000
   H      4.62000000    43.93000000    94.75000000
   H      7.42000000    44.52000000    94.99000000
   H      6.50000000    46.57000000    96.18000000
   H      5.56000000    46.92000000    94.67000000
   H      6.91000000    48.90000000    94.33000000
   H      8.57000000    48.80000000    93.75000000
   N      7.11000000    43.93000000    92.55000000
   C      8.00000000    42.92000000    93.08000000
   C      7.26000000    41.61000000    93.33000000
   O      6.56000000    41.53000000    94.33000000
   H      6.90000000    43.90000000    91.56000000
   H      8.56000000    43.19000000    93.97000000
   H      8.70000000    42.69000000    92.27000000
   N      7.65000000    40.54000000    92.63000000
   C      7.02000000    39.25000000    92.85000000
   C      8.04000000    38.13000000    92.75000000
   O      9.07000000    38.25000000    92.09000000
   C      5.88000000    39.05000000    91.85000000
   C      4.84000000    40.15000000    91.89000000
   C      3.72000000    40.10000000    92.72000000
   C      4.85000000    41.22000000    90.99000000
   C      2.69000000    41.05000000    92.74000000
   C      3.78000000    42.11000000    90.82000000
   C      2.73000000    42.07000000    91.76000000
   O      1.76000000    43.03000000    91.69000000
   H      8.34000000    40.58000000    91.89000000
   H      6.57000000    39.16000000    93.84000000
   H      5.42000000    38.07000000    91.91000000
   H      6.33000000    39.03000000    90.86000000
   H      3.56000000    39.23000000    93.34000000
   H      5.71000000    41.30000000    90.34000000
   H      1.85000000    41.03000000    93.41000000
   H      3.88000000    43.01000000    90.24000000
   H      1.80000000    43.42000000    90.81000000
   N      7.77000000    37.00000000    93.40000000
   C      8.54000000    35.78000000    93.21000000
   C      7.91000000    35.05000000    92.04000000
   O      8.42000000    34.02000000    91.59000000
   C      8.74000000    35.01000000    94.51000000
   C      7.52000000    34.25000000    95.00000000
   C      9.96000000    34.09000000    94.48000000
   C      7.70000000    33.50000000    96.32000000
   H      6.96000000    36.91000000    94.00000000
   H      9.50000000    36.13000000    92.85000000
   H      8.96000000    35.74000000    95.30000000
   H      7.23000000    33.58000000    94.19000000
   H      6.71000000    34.97000000    95.13000000
   H      9.59000000    33.26000000    93.88000000
   H     10.82000000    34.56000000    94.00000000
   H     10.21000000    33.67000000    95.45000000
   H      8.53000000    33.84000000    96.94000000
   H      6.79000000    33.61000000    96.92000000
   H      7.85000000    32.43000000    96.20000000
   N      6.65000000    35.32000000    91.68000000
   C      5.87000000    34.59000000    90.70000000
   C      5.31000000    33.22000000    91.05000000
   O      5.07000000    32.45000000    90.12000000
   C      4.73000000    35.47000000    90.18000000
   O      3.75000000    35.69000000    91.16000000
   H      6.27000000    36.12000000    92.17000000
   H      6.53000000    34.45000000    89.85000000
   H      4.25000000    35.00000000    89.32000000
   H      5.19000000    36.39000000    89.82000000
   H      4.12000000    36.02000000    91.98000000
   N      5.23000000    32.85000000    92.33000000
   C      4.71000000    31.58000000    92.82000000
   C      3.72000000    31.84000000    93.94000000
   O      4.21000000    32.30000000    94.97000000
   C      5.82000000    30.67000000    93.34000000
   H      5.51000000    33.50000000    93.05000000
   H      4.27000000    31.17000000    91.91000000
   H      5.36000000    29.90000000    93.96000000
   H      6.35000000    30.17000000    92.53000000
   H      6.62000000    31.19000000    93.86000000
   N      2.44000000    31.50000000    93.80000000
   C      1.48000000    31.47000000    94.88000000
   C      1.29000000    32.78000000    95.64000000
   O      1.16000000    32.79000000    96.86000000
   C      1.66000000    30.23000000    95.74000000
   H      2.14000000    30.96000000    93.00000000
   H      0.56000000    31.23000000    94.34000000
   H      0.79000000    30.15000000    96.39000000
   H      1.70000000    29.38000000    95.06000000
   H      2.54000000    30.31000000    96.38000000
   N      1.45000000    33.90000000    94.92000000
   C      1.17000000    35.24000000    95.40000000
   C     -0.31000000    35.49000000    95.17000000
   O     -1.04000000    35.83000000    96.10000000
   C      2.15000000    36.21000000    94.74000000
   C      3.53000000    36.23000000    95.38000000
   C      4.71000000    36.71000000    94.56000000
   O      5.48000000    37.56000000    95.05000000
   O      4.78000000    36.31000000    93.37000000
   H      1.68000000    33.88000000    93.94000000
   H      1.29000000    35.34000000    96.48000000
   H      1.93000000    37.28000000    94.66000000
   H      2.20000000    35.91000000    93.69000000
   H      3.70000000    35.19000000    95.66000000
   H      3.46000000    36.85000000    96.28000000
   N     -0.79000000    35.15000000    93.97000000
   C     -2.08000000    35.56000000    93.47000000
   H     -2.77700000    35.65700000    94.30200000
   H     -1.98500000    36.52000000    92.96200000
   H     -2.45300000    34.81300000    92.76900000
   H     -0.11000000    34.94000000    93.26000000
  Ca      2.78000000    41.03000000    97.53000000
   O      0.25000000    41.57000000    97.98000000
   H     -0.06000000    41.82000000    98.85000000
   H     -0.45000000    41.84000000    97.39000000

Ca 1.70



