%chk=Ng-31_loop3_15.0.chk
%nprocshared=48
%mem=10GB
%nosave
#b3lyp/svp scf=(tight,noincore) Test 
#IOP(5/87=12) Density=Current Pop=(MK,readradii) iop(6/33=2) iop(6/42=6)

Ng-31_loop3_15.0 

   0   1
   C     83.06000000    72.64000000    33.98000000
   C     82.89000000    71.72000000    35.18000000
   O     81.84000000    71.57000000    35.80000000
   H     84.10700000    72.65300000    33.67800000
   H     82.44900000    72.27700000    33.15400000
   H     82.74700000    73.64900000    34.24800000
   N     83.99000000    71.19000000    35.71000000
   C     83.98000000    70.36000000    36.90000000
   C     84.54000000    70.99000000    38.17000000
   O     84.00000000    70.61000000    39.21000000
   C     84.79000000    69.09000000    36.67000000
   C     86.10000000    69.14000000    35.89000000
   O     86.36000000    70.04000000    35.07000000
   O     87.00000000    68.31000000    36.14000000
   H     84.86000000    71.44000000    35.27000000
   H     82.97000000    70.01000000    37.12000000
   H     84.16000000    68.42000000    36.09000000
   H     85.06000000    68.49000000    37.55000000
   N     85.53000000    71.88000000    38.09000000
   C     85.98000000    72.68000000    39.21000000
   C     86.61000000    71.81000000    40.29000000
   O     87.21000000    70.77000000    40.01000000
   C     86.91000000    73.80000000    38.76000000
   C     86.24000000    74.87000000    37.91000000
   C     87.16000000    76.01000000    37.50000000
   C     87.29000000    77.12000000    38.54000000
   N     85.98000000    77.75000000    38.73000000
   H     85.86000000    72.07000000    37.16000000
   H     85.12000000    73.16000000    39.69000000
   H     87.83000000    73.39000000    38.34000000
   H     87.37000000    74.26000000    39.63000000
   H     85.38000000    75.31000000    38.42000000
   H     85.80000000    74.33000000    37.07000000
   H     86.75000000    76.43000000    36.58000000
   H     88.14000000    75.65000000    37.18000000
   H     87.95000000    77.89000000    38.13000000
   H     87.80000000    76.79000000    39.44000000
   H     85.50000000    77.20000000    39.43000000
   H     86.11000000    78.70000000    39.03000000
   H     85.47000000    77.72000000    37.86000000
   N     86.17000000    71.96000000    41.54000000
   C     86.41000000    71.07000000    42.67000000
   C     85.58000000    69.81000000    42.87000000
   O     85.60000000    69.14000000    43.90000000
   C     86.44000000    71.91000000    43.94000000
   C     85.22000000    72.77000000    44.22000000
   O     84.27000000    72.24000000    44.84000000
   O     85.06000000    73.90000000    43.70000000
   H     85.65000000    72.81000000    41.69000000
   H     87.45000000    70.78000000    42.55000000
   H     87.27000000    72.59000000    43.80000000
   H     86.70000000    71.28000000    44.80000000
   N     84.71000000    69.53000000    41.90000000
   C     83.79000000    68.41000000    41.89000000
   C     84.43000000    67.03000000    41.78000000
   O     85.65000000    66.90000000    41.73000000
   H     84.73000000    70.15000000    41.10000000
   H     83.13000000    68.51000000    41.03000000
   H     83.26000000    68.47000000    42.84000000
   N     83.67000000    65.94000000    41.68000000
   C     82.25000000    65.86000000    41.41000000
   C     82.13000000    65.17000000    40.06000000
   O     81.64000000    64.05000000    39.95000000
   C     81.53000000    65.30000000    42.64000000
   C     81.86000000    65.99000000    43.96000000
   N     82.97000000    65.67000000    44.62000000
   O     81.26000000    66.97000000    44.39000000
   H     84.17000000    65.10000000    41.46000000
   H     81.77000000    66.83000000    41.25000000
   H     81.69000000    64.23000000    42.72000000
   H     80.45000000    65.29000000    42.51000000
   H     83.34000000    64.74000000    44.52000000
   H     83.33000000    66.26000000    45.35000000
   N     82.23000000    65.82000000    38.90000000
   C     82.36000000    67.23000000    38.60000000
   C     81.12000000    68.10000000    38.74000000
   O     81.18000000    69.26000000    39.14000000
   H     82.29000000    65.19000000    38.11000000
   H     82.58000000    67.36000000    37.53000000
   H     83.21000000    67.64000000    39.15000000
   N     79.92000000    67.53000000    38.75000000
   C     78.70000000    68.13000000    39.25000000
   C     78.70000000    68.19000000    40.77000000
   O     79.01000000    67.24000000    41.48000000
   C     77.53000000    67.29000000    38.75000000
   C     77.21000000    67.31000000    37.28000000
   C     77.11000000    68.53000000    36.59000000
   C     76.76000000    66.10000000    36.75000000
   C     76.70000000    68.51000000    35.25000000
   C     76.40000000    66.05000000    35.39000000
   C     76.35000000    67.27000000    34.69000000
   O     75.94000000    67.24000000    33.39000000
   H     79.94000000    66.52000000    38.66000000
   H     78.60000000    69.11000000    38.77000000
   H     76.63000000    67.69000000    39.23000000
   H     77.63000000    66.27000000    39.12000000
   H     77.15000000    69.50000000    37.06000000
   H     76.80000000    65.25000000    37.41000000
   H     76.72000000    69.42000000    34.66000000
   H     76.17000000    65.10000000    34.92000000
   H     75.85000000    66.34000000    33.08000000
   N     78.46000000    69.39000000    41.32000000
   C     78.79000000    69.75000000    42.68000000
   C     77.74000000    69.36000000    43.71000000
   O     78.12000000    69.28000000    44.87000000
   C     79.20000000    71.22000000    42.76000000
   C     80.38000000    71.60000000    41.86000000
   C     78.07000000    72.20000000    42.47000000
   C     81.75000000    70.97000000    42.10000000
   H     78.10000000    70.10000000    40.70000000
   H     79.67000000    69.17000000    42.95000000
   H     79.45000000    71.39000000    43.81000000
   H     80.54000000    72.66000000    42.02000000
   H     80.02000000    71.39000000    40.85000000
   H     77.40000000    72.25000000    43.34000000
   H     78.51000000    73.17000000    42.22000000
   H     77.47000000    71.96000000    41.59000000
   H     81.73000000    69.89000000    41.98000000
   H     82.39000000    71.32000000    41.29000000
   H     82.20000000    71.14000000    43.08000000
   N     76.47000000    69.10000000    43.36000000
   C     75.35000000    69.05000000    44.27000000
   C     74.89000000    70.45000000    44.64000000
   O     74.84000000    71.39000000    43.85000000
   C     74.27000000    68.16000000    43.65000000
   O     74.68000000    66.92000000    43.13000000
   H     76.20000000    69.23000000    42.40000000
   H     75.70000000    68.60000000    45.20000000
   H     73.91000000    68.85000000    42.89000000
   H     73.39000000    68.02000000    44.28000000
   H     74.46000000    66.33000000    43.85000000
   N     74.40000000    70.53000000    45.88000000
   C     73.80000000    71.75000000    46.38000000
   C     74.79000000    72.74000000    46.98000000
   O     75.90000000    72.41000000    47.39000000
   C     72.74000000    71.41000000    47.42000000
   H     74.68000000    69.83000000    46.55000000
   H     73.27000000    72.20000000    45.54000000
   H     71.87000000    72.06000000    47.28000000
   H     72.43000000    70.38000000    47.26000000
   H     73.08000000    71.60000000    48.43000000
   N     74.29000000    73.97000000    47.09000000
   C     74.88000000    75.09000000    47.80000000
   C     76.26000000    75.59000000    47.39000000
   O     77.03000000    76.18000000    48.15000000
   C     74.60000000    74.91000000    49.29000000
   H     73.41000000    74.22000000    46.68000000
   H     74.29000000    75.95000000    47.49000000
   H     74.89000000    75.84000000    49.78000000
   H     73.60000000    74.53000000    49.50000000
   H     75.25000000    74.10000000    49.61000000
   N     76.47000000    75.42000000    46.08000000
   C     77.68000000    75.79000000    45.38000000
   C     77.62000000    76.33000000    43.96000000
   O     78.59000000    76.73000000    43.33000000
   C     78.42000000    74.46000000    45.25000000
   C     79.25000000    74.12000000    46.48000000
   C     80.22000000    72.97000000    46.24000000
   O     81.12000000    73.08000000    45.38000000
   O     80.38000000    72.10000000    47.12000000
   H     75.81000000    74.83000000    45.59000000
   H     78.21000000    76.54000000    45.97000000
   H     79.05000000    74.57000000    44.36000000
   H     77.80000000    73.62000000    44.91000000
   H     78.48000000    73.86000000    47.20000000
   H     79.79000000    75.01000000    46.80000000
   N     76.40000000    76.36000000    43.42000000
   C     76.07000000    77.12000000    42.22000000
   H     75.23400000    77.78600000    42.43100000
   H     76.93400000    77.70900000    41.91300000
   H     75.79400000    76.43400000    41.41900000
   H     75.64000000    75.99000000    43.97000000
  Ca     82.80000000    71.39000000    46.72000000
   O     85.12000000    71.66000000    47.80000000
   H     85.60000000    72.48000000    47.90000000
   H     85.80000000    70.98000000    47.90000000

Ca 1.70



