%chk=Ng-31_loop3_44.0.chk
%nprocshared=48
%mem=10GB
%nosave
#b3lyp/svp scf=(tight,noincore) Test 
#IOP(5/87=12) Density=Current Pop=(MK,readradii) iop(6/33=2) iop(6/42=6)

Ng-31_loop3_44.0 

   0   1
   C      4.73300000    58.96000000    20.75000000
   C      6.12300000    58.40000000    20.47000000
   O      6.32300000    57.28000000    20.01000000
   H      4.02300000    58.13800000    20.84500000
   H      4.75100000    59.53300000    21.67700000
   H      4.42900000    59.60800000    19.92800000
   N      7.12300000    59.27000000    20.62000000
   C      8.48300000    58.99000000    20.20000000
   C      9.07300000    57.79000000    20.94000000
   O      9.01300000    56.69000000    20.41000000
   C      9.34300000    60.24000000    20.28000000
   C      9.41300000    61.18000000    21.47000000
   O      8.92300000    60.78000000    22.55000000
   O      9.82300000    62.35000000    21.34000000
   H      7.00300000    60.15000000    21.12000000
   H      8.61300000    58.68000000    19.16000000
   H      9.02300000    60.80000000    19.39000000
   H     10.34300000    59.86000000    20.11000000
   N      9.70300000    57.99000000    22.10000000
   C     10.35300000    56.96000000    22.89000000
   C     11.78300000    56.74000000    22.41000000
   O     12.75300000    57.25000000    22.97000000
   C     10.16300000    57.34000000    24.35000000
   C     10.39300000    56.24000000    25.40000000
   C     10.18300000    56.89000000    26.76000000
   C     10.58300000    55.88000000    27.84000000
   N     10.61300000    56.40000000    29.22000000
   H      9.68300000    58.95000000    22.40000000
   H      9.83300000    56.01000000    22.72000000
   H      9.12300000    57.61000000    24.49000000
   H     10.77300000    58.20000000    24.62000000
   H     11.40300000    55.89000000    25.23000000
   H      9.64300000    55.46000000    25.29000000
   H      9.13300000    57.16000000    26.80000000
   H     10.79300000    57.80000000    26.78000000
   H     11.65300000    55.70000000    27.69000000
   H      9.94300000    55.00000000    27.77000000
   H     11.21300000    55.90000000    29.85000000
   H     10.96300000    57.35000000    29.25000000
   H      9.71300000    56.46000000    29.67000000
   N     11.90300000    56.18000000    21.20000000
   C     13.03300000    56.15000000    20.30000000
   C     12.69300000    56.24000000    18.82000000
   O     13.61300000    56.30000000    18.00000000
   C     13.78300000    54.83000000    20.46000000
   C     12.98300000    53.56000000    20.72000000
   O     11.87300000    53.49000000    20.15000000
   O     13.44300000    52.65000000    21.44000000
   H     11.05300000    55.72000000    20.91000000
   H     13.69300000    56.99000000    20.52000000
   H     14.53300000    54.89000000    21.25000000
   H     14.23300000    54.60000000    19.50000000
   N     11.42300000    56.25000000    18.41000000
   C     11.05300000    55.99000000    17.03000000
   C      9.54300000    55.82000000    16.92000000
   O      8.78300000    55.70000000    17.88000000
   H     10.64300000    56.46000000    19.01000000
   H     11.42300000    54.97000000    16.90000000
   H     11.52300000    56.58000000    16.24000000
   N      8.98300000    55.59000000    15.73000000
   C      9.50300000    55.72000000    14.39000000
   C      8.72300000    54.85000000    13.42000000
   O      7.68300000    55.31000000    12.95000000
   C      9.53300000    57.17000000    13.93000000
   C     10.35300000    57.40000000    12.67000000
   N      9.85300000    57.03000000    11.48000000
   O     11.48300000    57.87000000    12.74000000
   H      8.02300000    55.30000000    15.83000000
   H     10.56300000    55.45000000    14.40000000
   H      9.85300000    57.77000000    14.78000000
   H      8.52300000    57.57000000    13.82000000
   H      8.90300000    56.69000000    11.40000000
   H     10.38300000    57.12000000    10.63000000
   N      9.12300000    53.61000000    13.09000000
   C     10.05300000    52.72000000    13.75000000
   C      9.41300000    51.97000000    14.91000000
   O      9.13300000    52.59000000    15.94000000
   H      8.58300000    53.15000000    12.38000000
   H     10.91300000    53.25000000    14.15000000
   H     10.41300000    52.02000000    13.00000000
   N      9.15300000    50.68000000    14.70000000
   C      8.53300000    49.83000000    15.70000000
   C      9.37300000    48.57000000    15.92000000
   O     10.17300000    48.20000000    15.07000000
   C      7.15300000    49.38000000    15.25000000
   C      6.33300000    50.62000000    14.98000000
   C      5.81300000    51.12000000    16.18000000
   C      6.19300000    51.33000000    13.78000000
   C      5.05300000    52.29000000    16.11000000
   C      5.52300000    52.56000000    13.72000000
   C      4.96300000    53.04000000    14.92000000
   O      4.27300000    54.21000000    14.99000000
   H      9.15300000    50.36000000    13.74000000
   H      8.45300000    50.33000000    16.66000000
   H      6.65300000    48.73000000    15.97000000
   H      7.29300000    48.83000000    14.32000000
   H      5.90300000    50.50000000    17.06000000
   H      6.81300000    51.01000000    12.96000000
   H      4.49300000    52.61000000    16.98000000
   H      5.39300000    53.07000000    12.78000000
   H      4.04300000    54.64000000    14.16000000
   N      9.22300000    47.91000000    17.07000000
   C      9.86300000    46.66000000    17.42000000
   C      8.90300000    45.47000000    17.36000000
   O      9.35300000    44.37000000    17.04000000
   C     10.63300000    46.64000000    18.74000000
   C      9.84300000    46.91000000    20.02000000
   C     11.42300000    45.33000000    18.84000000
   C      9.12300000    45.85000000    20.85000000
   H      8.58300000    48.30000000    17.75000000
   H     10.58300000    46.50000000    16.62000000
   H     11.37300000    47.43000000    18.66000000
   H      9.10300000    47.67000000    19.78000000
   H     10.58300000    47.28000000    20.74000000
   H     10.89300000    44.51000000    19.32000000
   H     11.80300000    45.00000000    17.87000000
   H     12.29300000    45.49000000    19.46000000
   H      8.76300000    46.41000000    21.71000000
   H      8.22300000    45.57000000    20.30000000
   H      9.82300000    45.05000000    21.11000000
   N      7.59300000    45.69000000    17.44000000
   C      6.61300000    44.71000000    17.00000000
   C      5.69300000    44.13000000    18.07000000
   O      4.79300000    43.33000000    17.83000000
   C      5.85300000    45.20000000    15.77000000
   O      6.75300000    45.72000000    14.82000000
   H      7.27300000    46.63000000    17.61000000
   H      7.24300000    43.87000000    16.71000000
   H      5.17300000    45.92000000    16.23000000
   H      5.25300000    44.38000000    15.37000000
   H      6.25300000    46.40000000    14.36000000
   N      5.94300000    44.44000000    19.34000000
   C      5.07300000    43.96000000    20.40000000
   C      4.86300000    45.04000000    21.45000000
   O      5.78300000    45.79000000    21.80000000
   C      5.75300000    42.72000000    20.96000000
   H      6.43300000    45.28000000    19.62000000
   H      4.08300000    43.63000000    20.10000000
   H      6.74300000    42.97000000    21.36000000
   H      5.23300000    42.34000000    21.84000000
   H      5.94300000    41.97000000    20.19000000
   N      3.65300000    45.02000000    22.01000000
   C      3.12300000    45.80000000    23.11000000
   C      3.15300000    47.31000000    22.92000000
   O      2.79300000    47.94000000    23.91000000
   C      3.72300000    45.38000000    24.45000000
   H      3.00300000    44.46000000    21.48000000
   H      2.06300000    45.54000000    23.21000000
   H      4.65300000    45.95000000    24.48000000
   H      3.09300000    45.66000000    25.29000000
   H      3.97300000    44.33000000    24.30000000
   N      3.55300000    47.90000000    21.79000000
   C      3.62300000    49.34000000    21.59000000
   C      2.23300000    49.92000000    21.37000000
   O      1.85300000    51.02000000    21.77000000
   C      4.53300000    49.66000000    20.41000000
   C      5.94300000    49.11000000    20.60000000
   C      6.81300000    49.18000000    19.35000000
   O      6.90300000    48.24000000    18.53000000
   O      7.61300000    50.13000000    19.25000000
   H      4.02300000    47.29000000    21.14000000
   H      4.01300000    49.77000000    22.51000000
   H      4.48300000    50.74000000    20.35000000
   H      4.06300000    49.24000000    19.52000000
   H      5.96300000    48.08000000    20.97000000
   H      6.38300000    49.72000000    21.38000000
   N      1.40300000    49.15000000    20.67000000
   C     -0.01700000    49.39000000    20.46000000
   H     -0.54200000    49.31500000    21.41200000
   H     -0.16000000    50.38700000    20.04400000
   H     -0.41300000    48.64700000    19.76800000
   H      1.78300000    48.27000000    20.34000000
  Ca      7.07000000    54.78000000    19.80000000
   O      7.72000000    52.78000000    18.33000000
   H      8.24000000    52.67000000    17.53000000
   H      7.57000000    51.89000000    18.65000000

Ca 1.70



