%chk=Ng-31_loop3_42.0.chk
%nprocshared=48
%mem=10GB
%nosave
#b3lyp/svp scf=(tight,noincore) Test 
#IOP(5/87=12) Density=Current Pop=(MK,readradii) iop(6/33=2) iop(6/42=6)

Ng-31_loop3_42.0 

   0   1
   C     -3.22900000    68.84000000    24.77000000
   C     -1.79900000    68.32000000    24.85000000
   O     -1.58900000    67.12000000    25.02000000
   H     -3.87200000    68.23300000    25.40700000
   H     -3.25900000    69.87600000    25.10700000
   H     -3.58000000    68.78200000    23.74000000
   N     -0.84900000    69.24000000    24.70000000
   C      0.58100000    68.96000000    24.63000000
   C      1.20100000    68.61000000    25.97000000
   O      1.07100000    67.49000000    26.47000000
   C      1.31100000    70.01000000    23.80000000
   C      0.99100000    71.45000000    24.17000000
   O      1.58100000    71.97000000    25.15000000
   O      0.25100000    72.09000000    23.39000000
   H     -1.04900000    70.23000000    24.63000000
   H      0.66100000    68.14000000    23.92000000
   H      1.04100000    70.01000000    22.74000000
   H      2.35100000    69.71000000    23.98000000
   N      1.80100000    69.63000000    26.59000000
   C      2.75100000    69.37000000    27.65000000
   C      4.06100000    68.67000000    27.32000000
   O      4.96100000    69.11000000    26.62000000
   C      3.08100000    70.71000000    28.31000000
   C      3.80100000    70.57000000    29.65000000
   C      4.14100000    71.95000000    30.19000000
   C      5.01100000    71.92000000    31.44000000
   N      4.30100000    71.43000000    32.63000000
   H      1.77100000    70.59000000    26.28000000
   H      2.17100000    68.81000000    28.39000000
   H      2.18100000    71.32000000    28.44000000
   H      3.63100000    71.32000000    27.59000000
   H      4.70100000    69.96000000    29.56000000
   H      3.06100000    70.08000000    30.29000000
   H      3.20100000    72.46000000    30.41000000
   H      4.62100000    72.48000000    29.37000000
   H      5.29100000    72.95000000    31.63000000
   H      5.95100000    71.41000000    31.20000000
   H      4.87100000    71.49000000    33.46000000
   H      3.54100000    72.07000000    32.79000000
   H      3.93100000    70.50000000    32.47000000
   N      4.13100000    67.47000000    27.92000000
   C      5.28100000    66.61000000    27.81000000
   C      5.15100000    65.64000000    26.64000000
   O      6.01100000    64.77000000    26.53000000
   C      5.46100000    65.78000000    29.08000000
   C      4.34100000    64.86000000    29.54000000
   O      4.65100000    64.03000000    30.42000000
   O      3.16100000    65.00000000    29.14000000
   H      3.32100000    67.17000000    28.45000000
   H      6.19100000    67.18000000    27.58000000
   H      5.63100000    66.42000000    29.94000000
   H      6.41100000    65.24000000    29.01000000
   N      4.31100000    66.02000000    25.67000000
   C      4.41100000    65.34000000    24.40000000
   C      3.33100000    65.72000000    23.40000000
   O      2.27100000    66.16000000    23.85000000
   H      3.76100000    66.86000000    25.73000000
   H      4.17100000    64.30000000    24.59000000
   H      5.46100000    65.41000000    24.08000000
   N      3.53100000    65.73000000    22.08000000
   C      4.56100000    65.02000000    21.35000000
   C      4.05100000    64.13000000    20.23000000
   O      3.35100000    64.57000000    19.32000000
   C      5.57100000    66.04000000    20.82000000
   C      6.70100000    65.34000000    20.08000000
   N      6.63100000    65.44000000    18.76000000
   O      7.56100000    64.71000000    20.68000000
   H      2.89100000    66.27000000    21.53000000
   H      5.16100000    64.43000000    22.04000000
   H      6.07100000    66.52000000    21.67000000
   H      5.07100000    66.79000000    20.21000000
   H      6.09100000    66.16000000    18.29000000
   H      7.34100000    64.99000000    18.20000000
   N      4.57100000    62.90000000    20.12000000
   C      5.21100000    62.07000000    21.12000000
   C      4.19100000    61.31000000    21.95000000
   O      3.50100000    61.88000000    22.78000000
   H      4.46100000    62.51000000    19.20000000
   H      5.76100000    62.67000000    21.85000000
   H      5.89100000    61.42000000    20.57000000
   N      4.23100000    59.97000000    21.87000000
   C      3.55100000    59.01000000    22.70000000
   C      4.56100000    58.02000000    23.28000000
   O      5.41100000    57.52000000    22.56000000
   C      2.52100000    58.31000000    21.82000000
   C      1.45100000    59.24000000    21.29000000
   C      0.17100000    59.27000000    21.86000000
   C      1.73100000    60.07000000    20.20000000
   C     -0.81900000    60.12000000    21.35000000
   C      0.72100000    60.90000000    19.69000000
   C     -0.55900000    60.97000000    20.26000000
   O     -1.43900000    61.93000000    19.86000000
   H      4.88100000    59.52000000    21.24000000
   H      3.00100000    59.52000000    23.49000000
   H      2.00100000    57.59000000    22.45000000
   H      2.96100000    57.71000000    21.03000000
   H     -0.02900000    58.66000000    22.73000000
   H      2.68100000    60.12000000    19.69000000
   H     -1.75900000    60.16000000    21.90000000
   H      0.95100000    61.63000000    18.93000000
   H     -1.13900000    62.40000000    19.09000000
   N      4.38100000    57.67000000    24.55000000
   C      5.06100000    56.53000000    25.15000000
   C      4.34100000    55.19000000    25.02000000
   O      5.00100000    54.17000000    25.21000000
   C      5.39100000    56.82000000    26.61000000
   C      4.17100000    56.69000000    27.50000000
   C      6.50100000    55.89000000    27.09000000
   C      4.42100000    57.27000000    28.89000000
   H      3.66100000    58.11000000    25.09000000
   H      6.07100000    56.50000000    24.74000000
   H      5.77100000    57.83000000    26.74000000
   H      3.75100000    55.70000000    27.66000000
   H      3.38100000    57.29000000    27.04000000
   H      6.13100000    54.87000000    27.12000000
   H      7.33100000    55.96000000    26.38000000
   H      6.96100000    56.32000000    27.98000000
   H      5.11100000    56.68000000    29.49000000
   H      4.67100000    58.32000000    28.71000000
   H      3.48100000    57.17000000    29.44000000
   N      3.03100000    55.19000000    24.76000000
   C      2.27100000    53.97000000    24.59000000
   C      1.34100000    53.68000000    25.75000000
   O      0.74100000    52.63000000    25.95000000
   C      1.44100000    53.97000000    23.31000000
   O      2.23100000    54.05000000    22.14000000
   H      2.61100000    56.08000000    24.55000000
   H      2.97100000    53.13000000    24.57000000
   H      0.70100000    54.78000000    23.32000000
   H      0.92100000    53.03000000    23.17000000
   H      1.70100000    53.81000000    21.38000000
   N      1.08100000    54.73000000    26.54000000
   C      0.10100000    54.90000000    27.59000000
   C     -0.19900000    56.35000000    27.95000000
   O      0.53100000    57.29000000    27.63000000
   C      0.63100000    54.19000000    28.84000000
   H      1.47100000    55.59000000    26.17000000
   H     -0.81900000    54.45000000    27.21000000
   H      0.65100000    53.11000000    28.71000000
   H      1.61100000    54.60000000    29.09000000
   H      0.07100000    54.21000000    29.78000000
   N     -1.33900000    56.53000000    28.62000000
   C     -1.87900000    57.71000000    29.26000000
   C     -2.13900000    58.91000000    28.36000000
   O     -2.66900000    59.91000000    28.82000000
   C     -1.20900000    58.12000000    30.57000000
   H     -1.88900000    55.71000000    28.82000000
   H     -2.88900000    57.42000000    29.56000000
   H     -1.24900000    57.23000000    31.21000000
   H     -0.16900000    58.38000000    30.35000000
   H     -1.71900000    58.98000000    31.01000000
   N     -1.67900000    59.04000000    27.11000000
   C     -1.91900000    60.20000000    26.28000000
   C     -3.35900000    60.33000000    25.80000000
   O     -3.86900000    61.45000000    25.76000000
   C     -0.92900000    60.18000000    25.13000000
   C      0.53100000    60.24000000    25.59000000
   C      0.97100000    61.49000000    26.35000000
   O      0.38100000    62.57000000    26.14000000
   O      1.88100000    61.43000000    27.20000000
   H     -1.08900000    58.30000000    26.75000000
   H     -1.76900000    61.13000000    26.83000000
   H     -1.08900000    61.05000000    24.49000000
   H     -1.01900000    59.27000000    24.55000000
   H      1.24100000    60.22000000    24.77000000
   H      0.80100000    59.33000000    26.11000000
   N     -4.00900000    59.22000000    25.44000000
   C     -5.33900000    59.17000000    24.86000000
   H     -5.99800000    59.84600000    25.40400000
   H     -5.29200000    59.47300000    23.81400000
   H     -5.72700000    58.15400000    24.92700000
   H     -3.46900000    58.37000000    25.49000000
  Ca      0.13000000    65.14000000    25.21000000
   O     -2.15900000    63.95000000    24.77000000
   H     -2.79900000    63.30000000    25.06000000
   H     -2.21900000    63.94000000    23.82000000

Ca 1.70



