%chk=loop2.cluster207.chk
%nprocshared=20
%mem=10GB
%nosave
#b3lyp/svp scf=(tight,noincore,xqc) Test 
#IOP(5/87=12) Density=Current Pop=(MK,readradii) iop(6/33=2) iop(6/42=6)

loop2.cluster207 

   -2  1 
   C     41.78000000    40.86000000     2.36000000
   C     40.34000000    41.35000000     2.27000000
   O     40.05000000    42.36000000     2.90000000
   H     42.41000000    41.65500000     2.75900000
   H     41.82900000    39.99400000     3.02000000
   H     42.13200000    40.58200000     1.36700000
   N     39.37000000    40.85000000     1.50000000
   C     39.17000000    39.51000000     0.99000000
   C     37.73000000    39.05000000     1.16000000
   O     36.76000000    39.81000000     1.16000000
   C     39.73000000    39.27000000    -0.40000000
   C     39.15000000    40.23000000    -1.43000000
   O     39.51000000    40.09000000    -2.61000000
   O     38.23000000    41.01000000    -1.12000000
   H     38.57000000    41.46000000     1.44000000
   H     39.71000000    38.85000000     1.67000000
   H     39.49000000    38.25000000    -0.71000000
   H     40.81000000    39.33000000    -0.25000000
   N     37.57000000    37.73000000     1.29000000
   C     36.38000000    36.91000000     1.35000000
   C     35.43000000    37.11000000     0.18000000
   O     35.55000000    36.34000000    -0.77000000
   C     35.65000000    36.83000000     2.69000000
   H     38.44000000    37.22000000     1.21000000
   H     36.75000000    35.89000000     1.29000000
   H     36.15000000    36.19000000     3.42000000
   H     35.65000000    37.83000000     3.12000000
   H     34.62000000    36.53000000     2.49000000
   N     34.60000000    38.15000000     0.21000000
   C     33.60000000    38.29000000    -0.84000000
   C     34.18000000    38.96000000    -2.08000000
   O     34.81000000    40.02000000    -2.00000000
   C     32.41000000    39.10000000    -0.32000000
   C     32.60000000    40.43000000     0.38000000
   O     33.74000000    40.91000000     0.58000000
   O     31.59000000    41.06000000     0.76000000
   H     34.73000000    38.88000000     0.90000000
   H     33.31000000    37.31000000    -1.20000000
   H     31.95000000    38.45000000     0.41000000
   H     31.77000000    39.21000000    -1.20000000
   N     33.91000000    38.41000000    -3.26000000
   C     34.51000000    38.82000000    -4.51000000
   C     34.01000000    40.13000000    -5.10000000
   O     34.10000000    40.34000000    -6.31000000
   H     33.26000000    37.64000000    -3.34000000
   H     34.33000000    38.09000000    -5.30000000
   H     35.59000000    38.82000000    -4.34000000
   N     33.43000000    41.04000000    -4.31000000
   C     32.85000000    42.34000000    -4.56000000
   C     33.81000000    43.52000000    -4.63000000
   O     33.34000000    44.66000000    -4.69000000
   C     31.77000000    42.50000000    -3.50000000
   C     32.41000000    42.85000000    -2.16000000
   N     31.70000000    43.57000000    -1.30000000
   O     33.51000000    42.37000000    -1.88000000
   H     33.51000000    40.88000000    -3.31000000
   H     32.40000000    42.20000000    -5.55000000
   H     31.22000000    41.60000000    -3.25000000
   H     31.24000000    43.43000000    -3.70000000
   H     30.76000000    43.91000000    -1.48000000
   H     32.05000000    43.75000000    -0.37000000
   N     35.11000000    43.24000000    -4.58000000
   C     36.10000000    44.27000000    -4.38000000
   C     36.00000000    44.98000000    -3.04000000
   O     35.58000000    44.40000000    -2.05000000
   H     35.35000000    42.26000000    -4.51000000
   H     36.02000000    45.02000000    -5.17000000
   H     37.12000000    43.87000000    -4.45000000
   N     36.32000000    46.26000000    -2.84000000
   C     36.89000000    47.29000000    -3.69000000
   C     38.17000000    48.00000000    -3.26000000
   O     39.00000000    48.31000000    -4.11000000
   C     35.80000000    48.27000000    -4.11000000
   C     35.15000000    49.02000000    -2.95000000
   O     36.37000000    49.13000000    -5.08000000
   H     36.02000000    46.54000000    -1.92000000
   H     37.19000000    46.79000000    -4.61000000
   H     35.02000000    47.68000000    -4.59000000
   H     36.45000000    50.01000000    -4.72000000
   H     34.44000000    49.73000000    -3.38000000
   H     34.70000000    48.35000000    -2.22000000
   H     35.98000000    49.51000000    -2.45000000
   N     38.49000000    48.03000000    -1.96000000
   C     39.64000000    48.71000000    -1.41000000
   C     39.58000000    50.20000000    -1.72000000
   O     40.17000000    50.61000000    -2.72000000
   C     40.96000000    48.00000000    -1.65000000
   C     40.92000000    46.49000000    -1.42000000
   C     42.02000000    48.55000000    -0.70000000
   C     42.17000000    45.61000000    -1.45000000
   H     37.77000000    47.74000000    -1.31000000
   H     39.58000000    48.63000000    -0.32000000
   H     41.30000000    48.09000000    -2.68000000
   H     40.37000000    46.11000000    -2.28000000
   H     40.27000000    46.22000000    -0.58000000
   H     43.03000000    48.49000000    -1.11000000
   H     42.02000000    49.64000000    -0.74000000
   H     41.87000000    48.10000000     0.28000000
   H     42.92000000    45.95000000    -2.17000000
   H     42.72000000    45.65000000    -0.50000000
   H     41.83000000    44.58000000    -1.55000000
   N     38.80000000    50.98000000    -0.97000000
   C     38.04000000    50.55000000     0.19000000
   C     38.83000000    50.23000000     1.45000000
   O     38.43000000    49.46000000     2.31000000
   C     36.89000000    51.50000000     0.46000000
   C     37.21000000    52.90000000     0.96000000
   O     38.27000000    53.45000000     0.58000000
   O     36.45000000    53.57000000     1.69000000
   H     38.71000000    51.96000000    -1.19000000
   H     37.53000000    49.61000000    -0.06000000
   H     36.16000000    51.00000000     1.10000000
   H     36.37000000    51.65000000    -0.49000000
   N     39.96000000    50.93000000     1.58000000
   C     40.83000000    50.90000000     2.74000000
   C     40.13000000    51.18000000     4.07000000
   O     39.11000000    51.86000000     4.15000000
   C     42.08000000    51.72000000     2.44000000
   C     42.21000000    53.09000000     3.07000000
   C     41.83000000    54.23000000     2.35000000
   C     42.77000000    53.23000000     4.34000000
   C     42.05000000    55.51000000     2.88000000
   C     43.05000000    54.51000000     4.82000000
   C     42.73000000    55.67000000     4.10000000
   H     40.02000000    51.75000000     1.00000000
   H     41.28000000    49.91000000     2.73000000
   H     42.41000000    51.86000000     1.41000000
   H     42.91000000    51.13000000     2.81000000
   H     41.39000000    54.15000000     1.37000000
   H     42.98000000    52.33000000     4.91000000
   H     41.72000000    56.40000000     2.37000000
   H     43.53000000    54.59000000     5.78000000
   H     42.98000000    56.65000000     4.48000000
   N     40.56000000    50.54000000     5.16000000
   C     41.71000000    49.66000000     5.28000000
   C     41.23000000    48.25000000     4.97000000
   O     40.18000000    47.96000000     4.41000000
   C     42.12000000    49.83000000     6.75000000
   C     40.78000000    49.93000000     7.48000000
   C     40.06000000    50.83000000     6.48000000
   H     42.57000000    49.94000000     4.68000000
   H     42.65000000    49.01000000     7.22000000
   H     42.68000000    50.76000000     6.85000000
   H     40.26000000    48.98000000     7.51000000
   H     40.83000000    50.27000000     8.51000000
   H     39.00000000    50.57000000     6.51000000
   H     40.31000000    51.85000000     6.79000000
   N     42.11000000    47.29000000     5.25000000
   C     41.88000000    45.86000000     5.19000000
   C     43.10000000    44.96000000     5.08000000
   O     43.05000000    43.79000000     5.48000000
   C     40.94000000    45.42000000     6.31000000
   C     41.35000000    45.88000000     7.70000000
   C     40.35000000    45.50000000     8.78000000
   O     39.46000000    46.30000000     9.14000000
   O     40.50000000    44.40000000     9.36000000
   H     42.98000000    47.61000000     5.64000000
   H     41.43000000    45.74000000     4.20000000
   H     40.88000000    44.33000000     6.30000000
   H     39.96000000    45.89000000     6.20000000
   H     41.38000000    46.97000000     7.67000000
   H     42.32000000    45.43000000     7.91000000
   N     44.29000000    45.26000000     4.54000000
   C     44.73000000    46.46000000     3.88000000
   H     45.72800000    46.30400000     3.47000000
   H     44.04000000    46.70500000     3.07200000
   H     44.75700000    47.28100000     4.59700000
   H     44.97000000    44.52000000     4.58000000
  Ca     35.93000000    41.97000000    -0.63900000
   O     37.02000000    41.20000000    -3.55900000
   H     37.21000000    41.31000000    -4.48900000
   H     37.81000000    40.80000000    -3.18900000
   O     36.61000000    42.72000000     2.23000000
   H     35.78000000    43.19000000     2.26000000
   H     37.16000000    43.16000000     2.88000000
   O     38.10000000    44.02000000    -0.76900000
   H     38.22000000    44.91000000    -0.43900000
   H     38.86000000    43.87000000    -1.33900000
   O     34.64000000    44.06000000     0.80000000
   H     34.82000000    44.98000000     0.97000000
   H     33.80000000    43.90000000     1.23000000

Ca 1.00



