%chk=loop2.cluster123.chk
%nprocshared=20
%mem=10GB
%nosave
#b3lyp/svp scf=(tight,noincore,xqc) Test 
#IOP(5/87=12) Density=Current Pop=(MK,readradii) iop(6/33=2) iop(6/42=6)

loop2.cluster123 

   -2  1 
   C     19.94000000     4.73000000    64.89000000
   C     20.49000000     4.87000000    66.30000000
   O     20.85000000     6.00000000    66.61000000
   H     19.05700000     5.35900000    64.78100000
   H     20.69800000     5.04100000    64.17100000
   H     19.66900000     3.69000000    64.70700000
   N     20.63000000     3.84000000    67.14000000
   C     21.47000000     3.82000000    68.32000000
   C     20.85000000     4.58000000    69.48000000
   O     21.56000000     5.02000000    70.38000000
   C     21.66000000     2.34000000    68.67000000
   C     22.22000000     2.12000000    70.07000000
   O     23.41000000     2.38000000    70.32000000
   O     21.48000000     1.54000000    70.89000000
   H     20.32000000     2.95000000    66.79000000
   H     22.42000000     4.28000000    68.06000000
   H     22.29000000     1.89000000    67.91000000
   H     20.67000000     1.89000000    68.72000000
   N     19.53000000     4.79000000    69.36000000
   C     18.66000000     5.08000000    70.48000000
   C     17.23000000     4.60000000    70.23000000
   O     16.93000000     4.25000000    69.09000000
   C     18.65000000     6.56000000    70.84000000
   H     19.14000000     4.42000000    68.51000000
   H     18.92000000     4.65000000    71.44000000
   H     19.12000000     7.20000000    70.09000000
   H     17.65000000     7.00000000    70.94000000
   H     19.15000000     6.72000000    71.79000000
   N     16.30000000     4.39000000    71.16000000
   C     16.37000000     4.59000000    72.60000000
   C     15.87000000     3.33000000    73.28000000
   O     14.81000000     2.78000000    72.96000000
   C     15.49000000     5.76000000    73.02000000
   C     15.56000000     6.16000000    74.48000000
   O     16.56000000     5.84000000    75.17000000
   O     14.54000000     6.73000000    74.94000000
   H     15.56000000     3.81000000    70.79000000
   H     17.38000000     4.85000000    72.93000000
   H     14.46000000     5.47000000    72.79000000
   H     15.67000000     6.60000000    72.35000000
   N     16.64000000     2.91000000    74.29000000
   C     16.50000000     1.67000000    75.01000000
   C     17.17000000     0.47000000    74.35000000
   O     18.34000000     0.56000000    73.99000000
   H     17.34000000     3.56000000    74.61000000
   H     15.45000000     1.54000000    75.26000000
   H     17.12000000     1.76000000    75.91000000
   N     16.53000000    -0.69000000    74.24000000
   C     15.16000000    -1.06000000    74.58000000
   C     14.27000000    -0.40000000    73.54000000
   O     14.40000000    -0.76000000    72.38000000
   C     15.02000000    -2.58000000    74.60000000
   C     13.58000000    -2.93000000    74.92000000
   N     13.30000000    -3.14000000    76.21000000
   O     12.65000000    -2.99000000    74.11000000
   H     17.07000000    -1.46000000    73.87000000
   H     14.97000000    -0.76000000    75.61000000
   H     15.67000000    -2.93000000    75.40000000
   H     15.27000000    -3.04000000    73.64000000
   H     14.07000000    -3.12000000    76.85000000
   H     12.31000000    -3.28000000    76.39000000
   N     13.28000000     0.39000000    73.98000000
   C     12.27000000     0.97000000    73.13000000
   C     11.55000000     2.22000000    73.63000000
   O     10.34000000     2.23000000    73.39000000
   H     13.31000000     0.71000000    74.94000000
   H     11.58000000     0.16000000    72.90000000
   H     12.67000000     1.44000000    72.23000000
   N     12.09000000     3.19000000    74.36000000
   C     11.36000000     4.38000000    74.76000000
   C     11.47000000     5.46000000    73.70000000
   O     12.09000000     6.50000000    73.94000000
   C     11.69000000     4.92000000    76.15000000
   C     11.09000000     4.06000000    77.25000000
   O     13.07000000     4.94000000    76.44000000
   H     13.08000000     3.16000000    74.57000000
   H     10.29000000     4.16000000    74.81000000
   H     11.26000000     5.92000000    76.13000000
   H     13.49000000     5.61000000    75.90000000
   H     10.10000000     3.75000000    76.91000000
   H     11.67000000     3.15000000    77.42000000
   H     10.95000000     4.52000000    78.23000000
   N     11.00000000     5.22000000    72.48000000
   C     10.98000000     6.05000000    71.29000000
   C      9.72000000     6.90000000    71.41000000
   O      8.65000000     6.37000000    71.72000000
   C     11.21000000     5.21000000    70.04000000
   C     12.67000000     4.78000000    70.09000000
   C     10.29000000     3.99000000    70.04000000
   C     13.20000000     4.06000000    68.84000000
   H     10.69000000     4.26000000    72.42000000
   H     11.81000000     6.75000000    71.39000000
   H     11.10000000     5.79000000    69.12000000
   H     12.78000000     4.11000000    70.95000000
   H     13.25000000     5.68000000    70.27000000
   H      9.24000000     4.26000000    70.06000000
   H     10.32000000     3.61000000    69.01000000
   H     10.58000000     3.25000000    70.78000000
   H     12.58000000     3.19000000    68.64000000
   H     13.04000000     4.81000000    68.06000000
   H     14.26000000     3.85000000    68.99000000
   N      9.87000000     8.22000000    71.29000000
   C      8.84000000     9.21000000    71.52000000
   C      8.98000000    10.35000000    70.52000000
   O      9.98000000    11.06000000    70.43000000
   C      8.87000000     9.64000000    72.98000000
   C     10.25000000     9.57000000    73.61000000
   O     10.47000000     8.64000000    74.42000000
   O     11.15000000    10.39000000    73.35000000
   H     10.79000000     8.60000000    71.14000000
   H      7.86000000     8.74000000    71.41000000
   H      8.30000000     8.87000000    73.50000000
   H      8.37000000    10.60000000    73.11000000
   N      7.91000000    10.54000000    69.74000000
   C      7.78000000    11.71000000    68.90000000
   C      8.53000000    11.47000000    67.60000000
   O      8.31000000    10.40000000    67.04000000
   C      6.32000000    12.09000000    68.68000000
   C      6.11000000    13.38000000    67.92000000
   C      6.09000000    13.42000000    66.52000000
   C      5.93000000    14.56000000    68.66000000
   C      5.83000000    14.60000000    65.81000000
   C      5.75000000    15.74000000    67.93000000
   C      5.65000000    15.79000000    66.53000000
   H      7.10000000     9.95000000    69.91000000
   H      8.25000000    12.58000000    69.37000000
   H      5.99000000    12.16000000    69.72000000
   H      5.75000000    11.28000000    68.24000000
   H      6.31000000    12.49000000    66.02000000
   H      6.12000000    14.53000000    69.72000000
   H      5.71000000    14.49000000    64.74000000
   H      5.72000000    16.66000000    68.48000000
   H      5.55000000    16.73000000    66.02000000
   N      9.41000000    12.37000000    67.16000000
   C     10.35000000    12.15000000    66.08000000
   C     11.35000000    11.06000000    66.44000000
   O     11.89000000    10.61000000    65.43000000
   C     11.03000000    13.50000000    65.85000000
   C     10.16000000    14.57000000    66.50000000
   C      9.47000000    13.75000000    67.59000000
   H      9.80000000    11.90000000    65.17000000
   H     11.96000000    13.54000000    66.42000000
   H     11.19000000    13.56000000    64.78000000
   H     10.69000000    15.39000000    66.98000000
   H      9.47000000    14.96000000    65.74000000
   H     10.04000000    13.84000000    68.51000000
   H      8.44000000    14.05000000    67.78000000
   N     11.56000000    10.56000000    67.66000000
   C     12.54000000     9.51000000    67.90000000
   C     11.98000000     8.13000000    67.61000000
   O     12.69000000     7.12000000    67.51000000
   C     12.91000000     9.72000000    69.37000000
   C     13.90000000     8.66000000    69.86000000
   C     14.35000000     9.06000000    71.25000000
   O     15.49000000     9.55000000    71.41000000
   O     13.58000000     8.88000000    72.22000000
   H     11.01000000    10.93000000    68.42000000
   H     13.44000000     9.81000000    67.37000000
   H     12.03000000     9.71000000    70.00000000
   H     13.40000000    10.70000000    69.37000000
   H     14.73000000     8.70000000    69.16000000
   H     13.27000000     7.77000000    69.85000000
   N     10.68000000     8.11000000    67.33000000
   C     10.07000000     7.07000000    66.54000000
   H      9.14700000     7.44500000    66.09800000
   H     10.75400000     6.76600000    65.74800000
   H      9.84600000     6.21400000    67.17600000
   H     10.11000000     8.94000000    67.44000000
  Ca     13.00000000     8.96000000    74.63000000
   O     12.52000000     8.14000000    77.62000000
   H     12.06000000     7.61000000    78.28000000
   H     12.68000000     8.98000000    78.05000000
   O     13.37000000    12.06000000    74.73000000
   H     13.90000000    12.61000000    75.31000000
   H     12.48000000    12.13000000    75.09000000
   O     14.58000000     9.90000000    76.64000000
   H     15.12000000     9.21000000    77.02000000
   H     14.95000000    10.71000000    76.99000000
   O     15.67000000     9.60000000    74.06000000
   H     16.26000000     8.89000000    74.30000000
   H     15.52000000     9.49000000    73.12000000

Ca 1.00



