%chk=loop2.cluster59.chk
%nprocshared=20
%mem=10GB
%nosave
#b3lyp/svp scf=(tight,noincore,xqc) Test 
#IOP(5/87=12) Density=Current Pop=(MK,readradii) iop(6/33=2) iop(6/42=6)

loop2.cluster59 

   -2  1 
   C     61.31000000    29.80000000    11.11000000
   C     61.44000000    30.07000000     9.62000000
   O     60.70000000    29.44000000     8.86000000
   H     60.25500000    29.74800000    11.37900000
   H     61.79300000    28.85300000    11.35200000
   H     61.78700000    30.60500000    11.66900000
   N     62.49000000    30.83000000     9.31000000
   C     62.92000000    31.15000000     7.96000000
   C     63.62000000    29.93000000     7.38000000
   O     63.45000000    29.70000000     6.18000000
   C     63.92000000    32.29000000     8.06000000
   C     63.96000000    33.05000000     6.75000000
   O     63.21000000    34.04000000     6.62000000
   O     64.73000000    32.65000000     5.85000000
   H     63.15000000    31.03000000    10.05000000
   H     62.07000000    31.39000000     7.32000000
   H     64.92000000    31.89000000     8.25000000
   H     63.66000000    32.90000000     8.93000000
   N     64.32000000    29.03000000     8.08000000
   C     64.61000000    27.65000000     7.73000000
   C     63.53000000    26.84000000     7.03000000
   O     63.85000000    25.96000000     6.23000000
   C     65.95000000    27.76000000     7.01000000
   H     64.63000000    29.37000000     8.98000000
   H     64.84000000    27.17000000     8.68000000
   H     65.75000000    28.30000000     6.08000000
   H     66.73000000    28.23000000     7.61000000
   H     66.46000000    26.80000000     6.89000000
   N     62.26000000    27.12000000     7.34000000
   C     61.04000000    26.51000000     6.85000000
   C     60.81000000    26.44000000     5.35000000
   O     59.79000000    25.92000000     4.90000000
   C     60.77000000    25.16000000     7.52000000
   C     59.38000000    25.16000000     8.13000000
   O     59.04000000    25.62000000     9.25000000
   O     58.53000000    24.55000000     7.45000000
   H     62.21000000    27.79000000     8.09000000
   H     60.31000000    27.22000000     7.24000000
   H     61.51000000    24.87000000     8.27000000
   H     60.87000000    24.41000000     6.74000000
   N     61.85000000    26.78000000     4.58000000
   C     61.98000000    26.43000000     3.18000000
   C     61.37000000    27.30000000     2.10000000
   O     61.68000000    27.15000000     0.92000000
   H     62.65000000    27.11000000     5.09000000
   H     61.45000000    25.47000000     3.19000000
   H     63.05000000    26.43000000     2.98000000
   N     60.69000000    28.38000000     2.50000000
   C     60.26000000    29.43000000     1.60000000
   C     60.27000000    30.74000000     2.38000000
   O     60.71000000    30.68000000     3.53000000
   C     58.96000000    29.10000000     0.88000000
   C     57.70000000    29.10000000     1.74000000
   N     57.67000000    28.40000000     2.88000000
   O     56.81000000    29.95000000     1.67000000
   H     60.45000000    28.48000000     3.48000000
   H     60.99000000    29.48000000     0.79000000
   H     59.10000000    28.09000000     0.52000000
   H     58.87000000    29.80000000     0.05000000
   H     58.17000000    27.52000000     2.93000000
   H     57.00000000    28.61000000     3.61000000
   N     59.95000000    31.91000000     1.81000000
   C     60.35000000    33.21000000     2.31000000
   C     59.85000000    33.60000000     3.69000000
   O     60.67000000    33.91000000     4.55000000
   H     59.48000000    31.88000000     0.92000000
   H     59.99000000    33.93000000     1.58000000
   H     61.44000000    33.26000000     2.41000000
   N     58.57000000    33.34000000     4.00000000
   C     58.20000000    32.74000000     5.27000000
   C     57.56000000    33.64000000     6.32000000
   O     56.85000000    34.58000000     6.00000000
   C     57.54000000    31.38000000     5.13000000
   C     58.15000000    30.35000000     6.08000000
   O     56.14000000    31.29000000     5.28000000
   H     58.18000000    32.98000000     3.15000000
   H     59.17000000    32.53000000     5.73000000
   H     57.84000000    31.03000000     4.14000000
   H     55.76000000    31.66000000     4.47000000
   H     59.23000000    30.30000000     5.90000000
   H     57.97000000    30.65000000     7.11000000
   H     57.78000000    29.36000000     5.84000000
   N     57.74000000    33.19000000     7.57000000
   C     56.86000000    33.48000000     8.69000000
   C     56.14000000    32.22000000     9.14000000
   O     56.86000000    31.22000000     9.03000000
   C     57.47000000    34.32000000     9.81000000
   C     57.45000000    35.78000000     9.39000000
   C     56.91000000    34.18000000    11.22000000
   C     58.20000000    36.75000000    10.29000000
   H     58.47000000    32.51000000     7.71000000
   H     56.07000000    34.09000000     8.26000000
   H     58.49000000    33.93000000     9.89000000
   H     56.43000000    36.17000000     9.43000000
   H     57.95000000    35.82000000     8.42000000
   H     57.39000000    34.85000000    11.93000000
   H     55.84000000    34.39000000    11.15000000
   H     56.98000000    33.13000000    11.53000000
   H     57.81000000    36.83000000    11.30000000
   H     59.19000000    36.32000000    10.47000000
   H     58.29000000    37.71000000     9.77000000
   N     54.96000000    32.22000000     9.76000000
   C     54.19000000    31.02000000    10.02000000
   C     52.83000000    31.51000000    10.52000000
   O     52.32000000    32.54000000    10.09000000
   C     54.96000000    30.23000000    11.08000000
   C     55.48000000    28.89000000    10.58000000
   O     56.05000000    28.08000000    11.34000000
   O     55.38000000    28.63000000     9.36000000
   H     54.42000000    33.06000000     9.86000000
   H     54.05000000    30.33000000     9.20000000
   H     54.46000000    30.04000000    12.03000000
   H     55.79000000    30.84000000    11.41000000
   N     52.16000000    30.78000000    11.41000000
   C     50.73000000    30.78000000    11.63000000
   C     50.24000000    29.40000000    12.05000000
   O     49.35000000    28.81000000    11.44000000
   C     50.38000000    32.04000000    12.42000000
   C     48.90000000    32.25000000    12.62000000
   C     48.10000000    32.82000000    11.62000000
   C     48.47000000    32.19000000    13.95000000
   C     46.79000000    33.17000000    11.96000000
   C     47.14000000    32.51000000    14.26000000
   C     46.28000000    32.95000000    13.25000000
   H     52.64000000    29.92000000    11.66000000
   H     50.36000000    30.85000000    10.61000000
   H     50.72000000    32.90000000    11.86000000
   H     50.86000000    31.96000000    13.40000000
   H     48.50000000    32.98000000    10.63000000
   H     49.14000000    31.83000000    14.71000000
   H     46.15000000    33.57000000    11.18000000
   H     46.87000000    32.35000000    15.29000000
   H     45.26000000    33.21000000    13.49000000
   N     50.92000000    28.77000000    13.02000000
   C     50.84000000    29.30000000    14.36000000
   C     52.10000000    30.00000000    14.86000000
   O     52.03000000    30.94000000    15.65000000
   C     50.52000000    28.13000000    15.29000000
   C     49.96000000    27.08000000    14.34000000
   C     50.86000000    27.33000000    13.13000000
   H     49.98000000    29.96000000    14.43000000
   H     51.44000000    27.78000000    15.75000000
   H     49.86000000    28.55000000    16.06000000
   H     50.07000000    26.06000000    14.72000000
   H     48.98000000    27.46000000    14.07000000
   H     51.83000000    26.87000000    13.33000000
   H     50.49000000    26.81000000    12.25000000
   N     53.32000000    29.57000000    14.55000000
   C     54.53000000    29.94000000    15.26000000
   C     54.92000000    31.41000000    15.20000000
   O     55.78000000    31.89000000    15.93000000
   C     55.71000000    29.00000000    15.02000000
   C     55.47000000    27.60000000    15.56000000
   C     56.14000000    27.36000000    16.90000000
   O     55.41000000    27.22000000    17.91000000
   O     57.34000000    27.05000000    17.04000000
   H     53.35000000    28.86000000    13.83000000
   H     54.35000000    29.78000000    16.33000000
   H     56.55000000    29.56000000    15.44000000
   H     55.89000000    28.87000000    13.96000000
   H     56.00000000    26.94000000    14.88000000
   H     54.42000000    27.29000000    15.56000000
   N     54.24000000    32.20000000    14.36000000
   C     54.35000000    33.65000000    14.45000000
   H     55.24200000    33.98000000    13.91800000
   H     53.47000000    34.11000000    14.00200000
   H     54.42200000    33.94500000    15.49700000
   H     53.52000000    31.90000000    13.72000000
  Ca     56.61000000    26.33000000     9.35000000
   O     54.17000000    25.80000000    10.10000000
   H     53.68000000    24.99000000    10.26000000
   H     53.51000000    26.49000000    10.12000000
   O     58.21000000    28.50000000     8.87000000
   H     59.10000000    28.79000000     8.68000000
   H     57.68000000    29.29000000     8.82000000
   O     56.25000000    23.51000000     9.25000000
   H     55.82000000    23.39000000    10.09000000
   H     56.88000000    22.79000000     9.19000000
   O     56.32000000    26.95000000     6.72000000
   H     55.81000000    27.45000000     6.09000000
   H     56.69000000    26.24000000     6.21000000
   O     57.04000000    24.90000000    11.61000000
   H     57.83000000    24.35000000    11.63000000
   H     56.44000000    24.49000000    12.23000000

Ca 1.00



