%chk=loop2.cluster204.chk
%nprocshared=20
%mem=10GB
%nosave
#b3lyp/svp scf=(tight,noincore,xqc) Test 
#IOP(5/87=12) Density=Current Pop=(MK,readradii) iop(6/33=2) iop(6/42=6)

loop2.cluster204 

   -2  1 
   C     69.61000000    39.29000000    32.95000000
   C     68.48000000    39.04000000    31.97000000
   O     67.36000000    38.73000000    32.39000000
   H     70.43700000    39.77600000    32.43300000
   H     69.25700000    39.93400000    33.75600000
   H     69.94900000    38.34100000    33.36500000
   N     68.71000000    39.06000000    30.66000000
   C     67.70000000    39.15000000    29.63000000
   C     67.21000000    40.58000000    29.40000000
   O     67.68000000    41.27000000    28.50000000
   C     68.32000000    38.60000000    28.34000000
   C     69.59000000    39.25000000    27.80000000
   O     70.65000000    39.13000000    28.46000000
   O     69.52000000    39.76000000    26.66000000
   H     69.64000000    39.28000000    30.30000000
   H     66.83000000    38.56000000    29.88000000
   H     67.57000000    38.75000000    27.57000000
   H     68.32000000    37.52000000    28.45000000
   N     66.37000000    41.10000000    30.30000000
   C     65.83000000    42.44000000    30.20000000
   C     65.53000000    43.12000000    31.52000000
   O     65.48000000    42.50000000    32.58000000
   C     64.64000000    42.35000000    29.25000000
   H     65.93000000    40.52000000    31.01000000
   H     66.53000000    43.07000000    29.64000000
   H     64.17000000    43.34000000    29.20000000
   H     64.72000000    41.80000000    28.32000000
   H     63.97000000    41.64000000    29.73000000
   N     65.49000000    44.45000000    31.59000000
   C     65.75000000    45.44000000    30.57000000
   C     67.24000000    45.50000000    30.23000000
   O     68.05000000    44.83000000    30.86000000
   C     65.22000000    46.80000000    31.00000000
   C     63.73000000    46.89000000    31.32000000
   O     63.35000000    46.87000000    32.52000000
   O     62.89000000    46.92000000    30.40000000
   H     65.46000000    44.86000000    32.52000000
   H     65.34000000    45.17000000    29.59000000
   H     65.37000000    47.48000000    30.15000000
   H     65.79000000    47.14000000    31.86000000
   N     67.62000000    46.28000000    29.22000000
   C     69.02000000    46.43000000    28.85000000
   C     69.61000000    45.21000000    28.17000000
   O     68.77000000    44.51000000    27.59000000
   H     67.02000000    46.70000000    28.53000000
   H     69.69000000    46.79000000    29.63000000
   H     69.15000000    47.23000000    28.12000000
   N     70.91000000    44.94000000    28.09000000
   C     71.94000000    45.73000000    28.74000000
   C     71.91000000    45.72000000    30.27000000
   O     72.55000000    46.57000000    30.89000000
   C     73.24000000    45.17000000    28.17000000
   C     73.49000000    45.53000000    26.71000000
   N     74.76000000    45.46000000    26.33000000
   O     72.61000000    45.90000000    25.92000000
   H     71.15000000    44.08000000    27.62000000
   H     71.93000000    46.79000000    28.49000000
   H     73.24000000    44.08000000    28.29000000
   H     74.04000000    45.56000000    28.79000000
   H     75.50000000    45.10000000    26.92000000
   H     74.82000000    45.31000000    25.34000000
   N     71.38000000    44.68000000    30.91000000
   C     71.55000000    44.37000000    32.31000000
   C     70.83000000    45.27000000    33.32000000
   O     71.19000000    45.27000000    34.49000000
   H     70.85000000    44.03000000    30.34000000
   H     72.62000000    44.50000000    32.45000000
   H     71.41000000    43.30000000    32.48000000
   N     69.83000000    46.01000000    32.83000000
   C     69.17000000    47.04000000    33.61000000
   C     68.05000000    46.48000000    34.48000000
   O     67.01000000    45.99000000    34.05000000
   C     68.63000000    48.07000000    32.63000000
   C     68.13000000    49.34000000    33.31000000
   O     69.62000000    48.49000000    31.72000000
   H     69.46000000    45.78000000    31.92000000
   H     69.90000000    47.53000000    34.26000000
   H     67.83000000    47.62000000    32.04000000
   H     69.12000000    49.01000000    31.09000000
   H     67.97000000    50.00000000    32.46000000
   H     67.24000000    49.22000000    33.93000000
   H     68.95000000    49.77000000    33.88000000
   N     68.27000000    46.54000000    35.80000000
   C     67.37000000    46.08000000    36.83000000
   C     66.59000000    47.17000000    37.55000000
   O     66.93000000    48.34000000    37.67000000
   C     67.93000000    45.16000000    37.91000000
   C     68.55000000    43.93000000    37.26000000
   C     68.82000000    45.81000000    38.96000000
   C     67.84000000    43.21000000    36.11000000
   H     69.19000000    46.87000000    36.07000000
   H     66.58000000    45.49000000    36.35000000
   H     67.07000000    44.72000000    38.43000000
   H     68.72000000    43.19000000    38.05000000
   H     69.56000000    44.24000000    36.98000000
   H     69.29000000    45.04000000    39.58000000
   H     69.64000000    46.28000000    38.42000000
   H     68.30000000    46.48000000    39.65000000
   H     68.13000000    42.16000000    36.09000000
   H     66.77000000    43.18000000    36.28000000
   H     68.02000000    43.74000000    35.17000000
   N     65.39000000    46.79000000    38.00000000
   C     64.53000000    47.55000000    38.88000000
   C     63.97000000    46.69000000    40.00000000
   O     63.75000000    45.50000000    39.80000000
   C     63.43000000    48.26000000    38.09000000
   C     62.75000000    47.22000000    37.22000000
   O     63.05000000    47.01000000    36.02000000
   O     61.66000000    46.82000000    37.68000000
   H     65.10000000    45.83000000    37.87000000
   H     65.14000000    48.31000000    39.37000000
   H     63.78000000    49.16000000    37.58000000
   H     62.66000000    48.67000000    38.74000000
   N     63.86000000    47.23000000    41.21000000
   C     63.37000000    46.55000000    42.40000000
   C     64.12000000    45.26000000    42.69000000
   O     65.35000000    45.25000000    42.68000000
   C     63.20000000    47.46000000    43.62000000
   C     62.76000000    46.75000000    44.88000000
   C     63.72000000    46.12000000    45.67000000
   C     61.39000000    46.56000000    45.14000000
   C     63.34000000    45.31000000    46.74000000
   C     61.02000000    45.80000000    46.25000000
   C     61.98000000    45.13000000    47.02000000
   H     64.21000000    48.13000000    41.51000000
   H     62.35000000    46.25000000    42.17000000
   H     62.58000000    48.33000000    43.41000000
   H     64.11000000    48.02000000    43.82000000
   H     64.76000000    46.32000000    45.42000000
   H     60.69000000    46.96000000    44.42000000
   H     64.07000000    44.79000000    47.35000000
   H     59.97000000    45.72000000    46.49000000
   H     61.68000000    44.60000000    47.91000000
   N     63.45000000    44.12000000    42.91000000
   C     64.08000000    42.85000000    43.22000000
   C     64.87000000    42.10000000    42.15000000
   O     65.43000000    41.06000000    42.47000000
   C     62.99000000    41.90000000    43.71000000
   C     61.73000000    42.75000000    43.84000000
   C     62.01000000    43.93000000    42.91000000
   H     64.83000000    42.99000000    43.99000000
   H     62.86000000    41.05000000    43.04000000
   H     63.27000000    41.52000000    44.69000000
   H     60.92000000    42.11000000    43.51000000
   H     61.48000000    42.97000000    44.88000000
   H     61.57000000    43.67000000    41.95000000
   H     61.50000000    44.85000000    43.23000000
   N     64.92000000    42.57000000    40.91000000
   C     65.37000000    41.82000000    39.75000000
   C     66.86000000    41.54000000    39.90000000
   O     67.35000000    40.70000000    39.15000000
   C     64.95000000    42.63000000    38.53000000
   C     63.50000000    42.61000000    38.07000000
   C     63.21000000    43.15000000    36.68000000
   O     62.22000000    43.90000000    36.53000000
   O     63.87000000    42.66000000    35.73000000
   H     64.63000000    43.52000000    40.70000000
   H     64.78000000    40.91000000    39.83000000
   H     65.44000000    42.19000000    37.65000000
   H     65.36000000    43.64000000    38.66000000
   H     62.93000000    43.15000000    38.83000000
   H     63.18000000    41.57000000    38.14000000
   N     67.62000000    42.17000000    40.81000000
   C     68.98000000    41.76000000    41.10000000
   H     69.61400000    42.64200000    41.18900000
   H     69.00000000    41.20300000    42.03700000
   H     69.35000000    41.12800000    40.29200000
   H     67.14000000    42.65000000    41.55000000
  Ca     61.84000000    45.42000000    34.45000000
   O     60.95000000    45.99000000    31.95000000
   H     61.67000000    46.38000000    31.45000000
   H     60.51000000    46.73000000    32.37000000
   O     59.76000000    45.99000000    36.04000000
   H     60.42000000    46.21000000    36.70000000
   H     58.93000000    45.97000000    36.52000000
   O     62.30000000    43.16000000    33.31000000
   H     63.11000000    43.24000000    33.82000000
   H     62.27000000    42.24000000    33.04000000
   O     64.52000000    44.88000000    34.36000000
   H     65.32000000    45.40000000    34.40000000
   H     64.68000000    44.14000000    34.94000000
   O     59.34000000    43.96000000    34.05000000
   H     59.02000000    43.77000000    34.94000000
   H     58.57000000    44.28000000    33.58000000

Ca 1.00



