%chk=loop2.cluster8.chk
%nprocshared=20
%mem=10GB
%nosave
#b3lyp/svp scf=(tight,noincore,xqc) Test 
#IOP(5/87=12) Density=Current Pop=(MK,readradii) iop(6/33=2) iop(6/42=6)

loop2.cluster8 

   -2  1 
   C     52.63000000    42.68000000    17.12000000
   C     53.98000000    42.16000000    16.65000000
   O     54.87000000    42.97000000    16.41000000
   H     51.87800000    41.90000000    16.99800000
   H     52.69400000    42.96000000    18.17100000
   H     52.34900000    43.55100000    16.52800000
   N     54.13000000    40.84000000    16.52000000
   C     55.35000000    40.25000000    15.99000000
   C     55.36000000    40.47000000    14.49000000
   O     54.70000000    39.74000000    13.75000000
   C     55.33000000    38.79000000    16.46000000
   C     56.51000000    37.93000000    16.04000000
   O     57.68000000    38.29000000    16.29000000
   O     56.30000000    36.88000000    15.40000000
   H     53.52000000    40.14000000    16.91000000
   H     56.28000000    40.60000000    16.42000000
   H     54.41000000    38.31000000    16.13000000
   H     55.27000000    38.72000000    17.54000000
   N     56.20000000    41.45000000    14.11000000
   C     56.34000000    41.88000000    12.74000000
   C     57.33000000    41.18000000    11.82000000
   O     57.26000000    41.28000000    10.59000000
   C     56.51000000    43.40000000    12.70000000
   H     56.75000000    41.87000000    14.84000000
   H     55.42000000    41.64000000    12.21000000
   H     56.72000000    43.77000000    11.70000000
   H     55.53000000    43.77000000    12.98000000
   H     57.33000000    43.66000000    13.37000000
   N     58.35000000    40.50000000    12.34000000
   C     59.21000000    39.62000000    11.57000000
   C     58.46000000    38.30000000    11.39000000
   O     58.94000000    37.40000000    10.72000000
   C     60.62000000    39.43000000    12.10000000
   C     60.65000000    39.15000000    13.60000000
   O     59.68000000    38.60000000    14.17000000
   O     61.63000000    39.60000000    14.24000000
   H     58.36000000    40.44000000    13.35000000
   H     59.27000000    39.93000000    10.53000000
   H     61.22000000    40.32000000    11.92000000
   H     61.08000000    38.57000000    11.61000000
   N     57.43000000    38.04000000    12.19000000
   C     56.85000000    36.72000000    12.38000000
   C     57.68000000    35.60000000    12.99000000
   O     57.42000000    34.42000000    12.75000000
   H     57.27000000    38.76000000    12.89000000
   H     56.42000000    36.46000000    11.41000000
   H     56.00000000    36.84000000    13.04000000
   N     58.77000000    35.93000000    13.70000000
   C     59.67000000    35.00000000    14.34000000
   C     59.27000000    34.35000000    15.66000000
   O     59.99000000    33.52000000    16.20000000
   C     61.15000000    35.39000000    14.37000000
   C     61.55000000    36.37000000    15.46000000
   N     62.85000000    36.67000000    15.59000000
   O     60.71000000    36.83000000    16.22000000
   H     58.92000000    36.93000000    13.80000000
   H     59.68000000    34.23000000    13.57000000
   H     61.37000000    35.85000000    13.41000000
   H     61.83000000    34.54000000    14.35000000
   H     63.55000000    36.19000000    15.04000000
   H     62.98000000    37.43000000    16.25000000
   N     58.20000000    34.93000000    16.22000000
   C     57.56000000    34.33000000    17.37000000
   C     58.05000000    34.77000000    18.74000000
   O     57.60000000    34.30000000    19.78000000
   H     57.80000000    35.74000000    15.77000000
   H     57.61000000    33.24000000    17.36000000
   H     56.53000000    34.70000000    17.31000000
   N     58.82000000    35.86000000    18.79000000
   C     59.42000000    36.52000000    19.93000000
   C     59.41000000    38.04000000    19.84000000
   O     59.79000000    38.56000000    18.79000000
   C     60.84000000    36.15000000    20.35000000
   C     60.97000000    34.71000000    20.84000000
   O     61.80000000    36.46000000    19.37000000
   H     58.99000000    36.34000000    17.92000000
   H     58.77000000    36.17000000    20.73000000
   H     61.12000000    36.88000000    21.11000000
   H     61.62000000    35.83000000    18.67000000
   H     60.31000000    34.72000000    21.71000000
   H     60.70000000    34.07000000    20.01000000
   H     62.01000000    34.49000000    21.09000000
   N     59.02000000    38.74000000    20.91000000
   C     58.97000000    40.18000000    20.83000000
   C     60.40000000    40.66000000    21.05000000
   O     60.87000000    40.53000000    22.18000000
   C     57.96000000    40.66000000    21.87000000
   C     56.61000000    40.02000000    21.57000000
   C     57.91000000    42.19000000    21.90000000
   C     55.52000000    40.51000000    22.52000000
   H     59.18000000    38.34000000    21.82000000
   H     58.68000000    40.53000000    19.84000000
   H     58.25000000    40.24000000    22.83000000
   H     56.70000000    38.95000000    21.75000000
   H     56.40000000    40.18000000    20.52000000
   H     57.55000000    42.46000000    22.90000000
   H     58.87000000    42.67000000    21.72000000
   H     57.28000000    42.62000000    21.12000000
   H     54.72000000    39.77000000    22.50000000
   H     55.86000000    40.55000000    23.55000000
   H     55.16000000    41.52000000    22.31000000
   N     61.01000000    41.26000000    20.02000000
   C     62.26000000    41.97000000    20.19000000
   C     62.14000000    43.49000000    20.24000000
   O     61.15000000    44.09000000    19.84000000
   C     63.31000000    41.57000000    19.16000000
   C     62.94000000    41.55000000    17.69000000
   O     63.73000000    42.02000000    16.84000000
   O     61.87000000    41.07000000    17.24000000
   H     60.48000000    41.25000000    19.16000000
   H     62.75000000    41.74000000    21.13000000
   H     63.59000000    40.54000000    19.40000000
   H     64.23000000    42.14000000    19.26000000
   N     63.07000000    44.21000000    20.86000000
   C     63.09000000    45.64000000    21.11000000
   C     62.78000000    46.43000000    19.84000000
   O     62.03000000    47.40000000    19.93000000
   C     64.35000000    46.05000000    21.86000000
   C     64.12000000    47.38000000    22.52000000
   C     64.79000000    48.49000000    21.99000000
   C     63.29000000    47.52000000    23.64000000
   C     64.79000000    49.68000000    22.73000000
   C     63.21000000    48.75000000    24.30000000
   C     64.03000000    49.81000000    23.90000000
   H     63.79000000    43.70000000    21.36000000
   H     62.20000000    45.84000000    21.71000000
   H     65.20000000    46.16000000    21.18000000
   H     64.63000000    45.26000000    22.56000000
   H     65.31000000    48.37000000    21.06000000
   H     62.69000000    46.69000000    23.98000000
   H     65.37000000    50.54000000    22.41000000
   H     62.57000000    48.84000000    25.17000000
   H     64.08000000    50.66000000    24.56000000
   N     63.24000000    46.23000000    18.61000000
   C     62.88000000    47.00000000    17.43000000
   C     61.39000000    46.93000000    17.16000000
   O     60.88000000    47.83000000    16.49000000
   C     63.81000000    46.45000000    16.35000000
   C     64.94000000    45.73000000    17.09000000
   C     64.21000000    45.20000000    18.32000000
   H     63.04000000    48.07000000    17.61000000
   H     63.31000000    45.60000000    15.90000000
   H     64.27000000    47.13000000    15.63000000
   H     65.39000000    44.97000000    16.46000000
   H     65.71000000    46.42000000    17.44000000
   H     63.78000000    44.22000000    18.11000000
   H     64.89000000    45.09000000    19.17000000
   N     60.71000000    45.87000000    17.61000000
   C     59.26000000    45.80000000    17.57000000
   C     58.62000000    46.44000000    18.79000000
   O     57.53000000    47.00000000    18.66000000
   C     58.83000000    44.34000000    17.41000000
   C     59.35000000    43.66000000    16.15000000
   C     58.89000000    42.21000000    16.15000000
   O     58.98000000    41.55000000    15.09000000
   O     58.60000000    41.53000000    17.16000000
   H     61.18000000    45.14000000    18.12000000
   H     58.88000000    46.12000000    16.60000000
   H     57.74000000    44.31000000    17.32000000
   H     59.17000000    43.77000000    18.27000000
   H     60.42000000    43.80000000    15.98000000
   H     58.88000000    44.21000000    15.34000000
   N     59.30000000    46.37000000    19.94000000
   C     58.76000000    47.00000000    21.13000000
   H     57.74300000    46.64500000    21.29900000
   H     59.38100000    46.74600000    21.98900000
   H     58.74900000    48.08200000    20.99600000
   H     60.28000000    46.11000000    19.91000000
  Ca     60.07000000    39.50000000    16.42000000
   O     62.44000000    38.62000000    17.69000000
   H     63.22000000    39.16000000    17.75000000
   H     62.55000000    37.96000000    18.37000000

Ca 1.00



