%chk=loop2.cluster176.chk
%nprocshared=20
%mem=10GB
%nosave
#b3lyp/svp scf=(tight,noincore,xqc) Test 
#IOP(5/87=12) Density=Current Pop=(MK,readradii) iop(6/33=2) iop(6/42=6)

loop2.cluster176 

   -2  1 
   C      6.90000000    69.92000000    11.52000000
   C      6.08000000    70.16000000    10.26000000
   O      6.45000000    71.10000000     9.56000000
   H      7.79500000    70.54100000    11.49400000
   H      6.30500000    70.17800000    12.39600000
   H      7.18800000    68.87000000    11.57200000
   N      5.00000000    69.42000000    10.03000000
   C      4.15000000    69.54000000     8.86000000
   C      3.40000000    70.86000000     8.78000000
   O      2.86000000    71.39000000     9.75000000
   C      3.23000000    68.33000000     8.72000000
   C      2.70000000    68.06000000     7.31000000
   O      2.63000000    69.00000000     6.50000000
   O      2.39000000    66.92000000     6.91000000
   H      4.88000000    68.64000000    10.66000000
   H      4.76000000    69.54000000     7.96000000
   H      2.40000000    68.41000000     9.42000000
   H      3.82000000    67.45000000     8.97000000
   N      3.58000000    71.58000000     7.67000000
   C      3.09000000    72.88000000     7.25000000
   C      2.16000000    72.91000000     6.05000000
   O      1.97000000    73.94000000     5.40000000
   C      4.30000000    73.76000000     6.95000000
   H      4.21000000    71.09000000     7.04000000
   H      2.48000000    73.36000000     8.01000000
   H      3.97000000    74.80000000     6.82000000
   H      4.89000000    73.74000000     7.86000000
   H      4.98000000    73.30000000     6.23000000
   N      1.50000000    71.78000000     5.79000000
   C      0.24000000    71.71000000     5.08000000
   C     -0.77000000    70.73000000     5.65000000
   O     -1.91000000    70.70000000     5.17000000
   C      0.67000000    71.32000000     3.67000000
   C      1.63000000    70.14000000     3.59000000
   O      2.73000000    70.29000000     3.00000000
   O      1.34000000    68.99000000     3.98000000
   H      1.82000000    70.97000000     6.31000000
   H     -0.21000000    72.70000000     5.00000000
   H      1.13000000    72.20000000     3.22000000
   H     -0.22000000    71.13000000     3.07000000
   N     -0.36000000    69.72000000     6.42000000
   C     -1.28000000    68.75000000     6.98000000
   C     -1.44000000    67.46000000     6.18000000
   O     -2.34000000    66.69000000     6.49000000
   H      0.57000000    69.84000000     6.79000000
   H     -2.25000000    69.25000000     7.06000000
   H     -1.00000000    68.57000000     8.02000000
   N     -0.63000000    67.27000000     5.14000000
   C     -0.86000000    66.19000000     4.20000000
   C     -0.40000000    64.85000000     4.76000000
   O     -0.64000000    63.85000000     4.09000000
   C     -0.26000000    66.51000000     2.83000000
   C      1.22000000    66.20000000     2.70000000
   N      1.67000000    65.84000000     1.49000000
   O      2.03000000    66.16000000     3.62000000
   H     -0.01000000    68.03000000     4.88000000
   H     -1.94000000    66.10000000     4.07000000
   H     -0.40000000    67.56000000     2.58000000
   H     -0.79000000    65.91000000     2.09000000
   H      1.05000000    65.52000000     0.75000000
   H      2.65000000    65.85000000     1.27000000
   N      0.29000000    64.85000000     5.91000000
   C      0.84000000    63.68000000     6.57000000
   C      2.09000000    63.13000000     5.91000000
   O      2.23000000    61.91000000     5.81000000
   H      0.66000000    65.76000000     6.13000000
   H      0.16000000    62.83000000     6.57000000
   H      0.92000000    63.97000000     7.62000000
   N      3.01000000    63.95000000     5.40000000
   C      4.17000000    63.57000000     4.62000000
   C      5.22000000    64.66000000     4.70000000
   O      4.82000000    65.82000000     4.65000000
   C      3.75000000    63.43000000     3.16000000
   C      4.86000000    62.88000000     2.28000000
   O      2.73000000    62.47000000     2.99000000
   H      2.70000000    64.92000000     5.44000000
   H      4.51000000    62.61000000     5.02000000
   H      3.47000000    64.39000000     2.73000000
   H      2.28000000    62.38000000     3.83000000
   H      5.77000000    63.48000000     2.26000000
   H      5.09000000    61.92000000     2.74000000
   H      4.50000000    62.71000000     1.26000000
   N      6.49000000    64.31000000     4.96000000
   C      7.51000000    65.31000000     5.17000000
   C      8.03000000    65.92000000     3.88000000
   O      8.55000000    65.20000000     3.02000000
   C      8.70000000    64.67000000     5.88000000
   C      8.37000000    63.78000000     7.07000000
   C      9.67000000    65.79000000     6.25000000
   C      9.56000000    63.12000000     7.76000000
   H      6.81000000    63.36000000     4.95000000
   H      7.18000000    66.16000000     5.77000000
   H      9.28000000    64.07000000     5.18000000
   H      7.81000000    62.91000000     6.72000000
   H      7.86000000    64.44000000     7.78000000
   H     10.63000000    65.46000000     6.65000000
   H      9.99000000    66.28000000     5.33000000
   H      9.21000000    66.35000000     7.06000000
   H      9.32000000    62.35000000     8.49000000
   H     10.12000000    62.51000000     7.04000000
   H     10.24000000    63.85000000     8.18000000
   N      8.01000000    67.24000000     3.75000000
   C      8.79000000    67.88000000     2.71000000
   C     10.17000000    68.34000000     3.17000000
   O     10.52000000    68.40000000     4.34000000
   C      8.11000000    69.17000000     2.26000000
   C      6.63000000    69.03000000     1.96000000
   O      5.74000000    69.19000000     2.82000000
   O      6.25000000    68.71000000     0.81000000
   H      7.43000000    67.72000000     4.42000000
   H      9.01000000    67.23000000     1.86000000
   H      8.58000000    69.45000000     1.32000000
   H      8.32000000    69.97000000     2.97000000
   N     10.99000000    68.83000000     2.24000000
   C     12.33000000    69.34000000     2.46000000
   C     12.47000000    70.49000000     3.45000000
   O     13.18000000    70.25000000     4.42000000
   C     13.23000000    69.45000000     1.23000000
   C     14.70000000    69.34000000     1.56000000
   C     15.43000000    70.53000000     1.61000000
   C     15.22000000    68.08000000     1.88000000
   C     16.73000000    70.48000000     2.14000000
   C     16.57000000    68.05000000     2.23000000
   C     17.30000000    69.23000000     2.39000000
   H     10.82000000    68.61000000     1.27000000
   H     12.87000000    68.52000000     2.93000000
   H     13.05000000    70.41000000     0.75000000
   H     13.03000000    68.70000000     0.46000000
   H     14.93000000    71.48000000     1.50000000
   H     14.64000000    67.17000000     1.78000000
   H     17.31000000    71.38000000     2.24000000
   H     16.97000000    67.08000000     2.50000000
   H     18.34000000    69.22000000     2.67000000
   N     11.78000000    71.62000000     3.28000000
   C     11.73000000    72.62000000     4.33000000
   C     11.12000000    72.18000000     5.66000000
   O     11.50000000    72.71000000     6.70000000
   C     10.97000000    73.79000000     3.72000000
   C     11.47000000    73.75000000     2.28000000
   C     11.32000000    72.24000000     2.06000000
   H     12.74000000    72.97000000     4.52000000
   H      9.89000000    73.74000000     3.86000000
   H     11.30000000    74.71000000     4.20000000
   H     10.86000000    74.41000000     1.66000000
   H     12.51000000    74.05000000     2.15000000
   H     10.27000000    71.96000000     1.98000000
   H     11.90000000    71.95000000     1.18000000
   N     10.28000000    71.14000000     5.67000000
   C      9.74000000    70.55000000     6.88000000
   C     10.80000000    69.65000000     7.51000000
   O     11.10000000    69.66000000     8.70000000
   C      8.47000000    69.75000000     6.58000000
   C      7.27000000    70.54000000     6.07000000
   C      6.03000000    69.71000000     5.77000000
   O      4.95000000    70.31000000     5.55000000
   O      6.03000000    68.47000000     5.68000000
   H     10.10000000    70.77000000     4.75000000
   H      9.51000000    71.30000000     7.64000000
   H      8.09000000    69.32000000     7.51000000
   H      8.73000000    68.95000000     5.89000000
   H      7.52000000    71.11000000     5.18000000
   H      7.09000000    71.26000000     6.87000000
   N     11.63000000    68.94000000     6.75000000
   C     12.75000000    68.11000000     7.14000000
   H     13.58100000    68.74400000     7.44900000
   H     12.45600000    67.46800000     7.97000000
   H     13.05800000    67.49400000     6.29500000
   H     11.31000000    68.74000000     5.81000000
  Ca      3.76000000    68.14000000     4.34000000
   O      4.50000000    66.99000000     1.95000000
   H      4.97000000    67.80000000     1.74000000
   H      4.93000000    66.32000000     1.42000000

Ca 1.00



