%chk=loop2.cluster114.chk
%nprocshared=20
%mem=10GB
%nosave
#b3lyp/svp scf=(tight,noincore,xqc) Test 
#IOP(5/87=12) Density=Current Pop=(MK,readradii) iop(6/33=2) iop(6/42=6)

loop2.cluster114 

   -2  1 
   C     19.73000000    -0.80000000    52.26000000
   C     19.74000000     0.23000000    53.38000000
   O     19.89000000     1.41000000    53.05000000
   H     20.07100000    -0.33400000    51.33500000
   H     20.39500000    -1.62400000    52.51700000
   H     18.71700000    -1.17900000    52.12300000
   N     19.78000000    -0.20000000    54.64000000
   C     19.74000000     0.80000000    55.69000000
   C     18.46000000     1.62000000    55.81000000
   O     18.52000000     2.58000000    56.57000000
   C     20.18000000     0.26000000    57.04000000
   C     21.47000000    -0.54000000    57.10000000
   O     21.58000000    -1.33000000    58.06000000
   O     22.40000000    -0.31000000    56.29000000
   H     19.66000000    -1.18000000    54.88000000
   H     20.54000000     1.52000000    55.53000000
   H     19.38000000    -0.43000000    57.33000000
   H     20.09000000     1.03000000    57.80000000
   N     17.41000000     1.33000000    55.04000000
   C     16.10000000     1.94000000    55.17000000
   C     14.98000000     0.91000000    55.12000000
   O     14.94000000     0.08000000    54.22000000
   C     15.85000000     2.89000000    54.01000000
   H     17.49000000     0.47000000    54.53000000
   H     16.03000000     2.49000000    56.11000000
   H     14.85000000     2.82000000    53.58000000
   H     15.93000000     3.90000000    54.42000000
   H     16.44000000     2.67000000    53.12000000
   N     14.00000000     0.92000000    56.04000000
   C     13.92000000     1.81000000    57.18000000
   C     13.16000000     1.15000000    58.33000000
   O     12.43000000     0.20000000    58.06000000
   C     13.27000000     3.11000000    56.73000000
   C     13.41000000     4.38000000    57.56000000
   O     14.04000000     4.27000000    58.63000000
   O     12.92000000     5.45000000    57.14000000
   H     13.46000000     0.08000000    56.17000000
   H     14.89000000     2.05000000    57.61000000
   H     12.18000000     3.05000000    56.72000000
   H     13.53000000     3.33000000    55.70000000
   N     13.18000000     1.74000000    59.53000000
   C     12.49000000     1.29000000    60.72000000
   C     13.21000000     0.26000000    61.58000000
   O     14.43000000     0.27000000    61.64000000
   H     13.70000000     2.59000000    59.66000000
   H     11.50000000     0.93000000    60.44000000
   H     12.49000000     2.17000000    61.37000000
   N     12.54000000    -0.68000000    62.25000000
   C     11.17000000    -1.14000000    62.10000000
   C     11.02000000    -1.87000000    60.77000000
   O     11.88000000    -2.62000000    60.32000000
   C     10.93000000    -2.13000000    63.23000000
   C      9.47000000    -2.27000000    63.67000000
   N      9.09000000    -1.65000000    64.79000000
   O      8.64000000    -2.92000000    63.04000000
   H     13.12000000    -1.32000000    62.77000000
   H     10.41000000    -0.36000000    62.13000000
   H     11.47000000    -1.83000000    64.13000000
   H     11.40000000    -3.09000000    63.02000000
   H      9.74000000    -1.05000000    65.28000000
   H      8.12000000    -1.72000000    65.05000000
   N      9.91000000    -1.50000000    60.14000000
   C      9.55000000    -1.50000000    58.73000000
   C      8.87000000    -0.18000000    58.37000000
   O      7.67000000    -0.20000000    58.10000000
   H      9.24000000    -1.07000000    60.76000000
   H      8.89000000    -2.34000000    58.49000000
   H     10.46000000    -1.50000000    58.14000000
   N      9.59000000     0.94000000    58.46000000
   C      9.12000000     2.30000000    58.52000000
   C      9.23000000     2.96000000    57.15000000
   O      9.82000000     4.01000000    56.94000000
   C      9.69000000     3.18000000    59.63000000
   C      9.03000000     4.51000000    59.95000000
   O      9.64000000     2.46000000    60.84000000
   H     10.57000000     0.79000000    58.66000000
   H      8.06000000     2.25000000    58.77000000
   H     10.76000000     3.35000000    59.44000000
   H      9.98000000     3.02000000    61.54000000
   H      9.67000000     4.99000000    60.69000000
   H      9.07000000     5.16000000    59.07000000
   H      8.04000000     4.45000000    60.40000000
   N      8.76000000     2.23000000    56.13000000
   C      9.06000000     2.36000000    54.72000000
   C      7.99000000     3.13000000    53.96000000
   O      6.81000000     2.81000000    53.99000000
   C      9.49000000     1.07000000    54.03000000
   C     10.84000000     0.63000000    54.59000000
   C      8.50000000    -0.08000000    54.17000000
   C     11.50000000    -0.56000000    53.89000000
   H      8.12000000     1.48000000    56.36000000
   H      9.96000000     2.97000000    54.68000000
   H      9.60000000     1.34000000    52.98000000
   H     10.70000000     0.23000000    55.60000000
   H     11.57000000     1.44000000    54.67000000
   H      8.77000000    -0.98000000    53.62000000
   H      8.31000000    -0.34000000    55.21000000
   H      7.55000000     0.30000000    53.78000000
   H     12.50000000    -0.65000000    54.31000000
   H     10.90000000    -1.46000000    53.96000000
   H     11.54000000    -0.44000000    52.81000000
   N      8.35000000     4.21000000    53.26000000
   C      7.43000000     5.12000000    52.59000000
   C      7.85000000     5.22000000    51.13000000
   O      9.00000000     5.56000000    50.85000000
   C      7.42000000     6.43000000    53.37000000
   C      7.24000000     6.30000000    54.87000000
   O      6.09000000     6.33000000    55.36000000
   O      8.24000000     6.21000000    55.61000000
   H      9.30000000     4.55000000    53.35000000
   H      6.47000000     4.63000000    52.70000000
   H      6.61000000     7.06000000    52.99000000
   H      8.34000000     6.93000000    53.08000000
   N      6.87000000     4.96000000    50.27000000
   C      6.99000000     5.18000000    48.84000000
   C      8.16000000     4.47000000    48.18000000
   O      8.18000000     3.25000000    48.11000000
   C      5.66000000     4.88000000    48.16000000
   C      5.52000000     5.28000000    46.71000000
   C      5.08000000     4.24000000    45.88000000
   C      5.81000000     6.57000000    46.26000000
   C      4.92000000     4.48000000    44.51000000
   C      5.72000000     6.75000000    44.87000000
   C      5.24000000     5.75000000    44.02000000
   H      5.98000000     4.61000000    50.61000000
   H      7.11000000     6.26000000    48.74000000
   H      4.89000000     5.54000000    48.55000000
   H      5.37000000     3.83000000    48.27000000
   H      4.84000000     3.24000000    46.22000000
   H      6.32000000     7.24000000    46.94000000
   H      4.47000000     3.82000000    43.78000000
   H      6.01000000     7.74000000    44.56000000
   H      5.09000000     5.91000000    42.96000000
   N      9.18000000     5.24000000    47.78000000
   C     10.48000000     4.74000000    47.37000000
   C     11.14000000     3.62000000    48.17000000
   O     11.76000000     2.71000000    47.64000000
   C     11.40000000     5.96000000    47.33000000
   C     10.51000000     7.20000000    47.30000000
   C      9.12000000     6.68000000    47.65000000
   H     10.42000000     4.30000000    46.38000000
   H     11.99000000     6.04000000    48.24000000
   H     12.13000000     5.95000000    46.51000000
   H     10.77000000     7.94000000    48.06000000
   H     10.60000000     7.63000000    46.30000000
   H      8.99000000     6.96000000    48.69000000
   H      8.42000000     7.11000000    46.93000000
   N     11.08000000     3.70000000    49.50000000
   C     11.88000000     2.86000000    50.36000000
   C     11.45000000     1.40000000    50.24000000
   O     12.25000000     0.50000000    50.51000000
   C     11.59000000     3.36000000    51.77000000
   C     12.28000000     4.70000000    52.06000000
   C     11.94000000     5.33000000    53.40000000
   O     12.46000000     6.38000000    53.83000000
   O     11.05000000     4.85000000    54.13000000
   H     10.69000000     4.57000000    49.83000000
   H     12.96000000     2.91000000    50.25000000
   H     11.93000000     2.65000000    52.52000000
   H     10.50000000     3.34000000    51.89000000
   H     12.12000000     5.45000000    51.28000000
   H     13.36000000     4.58000000    52.02000000
   N     10.17000000     1.16000000    49.96000000
   C      9.66000000    -0.19000000    49.80000000
   H      8.70700000    -0.15800000    49.27200000
   H     10.37300000    -0.78300000    49.22600000
   H      9.51600000    -0.64300000    50.78100000
   H      9.64000000     2.01000000    49.87000000
  Ca     10.89000000     6.61000000    56.05000000
   O     11.10000000     7.01000000    58.68000000
   H     10.57000000     6.99000000    59.47000000
   H     11.95000000     7.36000000    58.97000000
   O      9.26000000     8.50000000    57.09000000
   H      8.34000000     8.26000000    57.16000000
   H      9.47000000     8.88000000    57.94000000
   O     12.58000000     8.56000000    56.26000000
   H     13.38000000     8.61000000    56.78000000
   H     12.32000000     9.47000000    56.13000000
   O     10.10000000     8.45000000    53.97000000
   H      9.91000000     9.38000000    54.04000000
   H     10.53000000     8.35000000    53.12000000

Ca 1.00



