%chk=loop2.cluster171.chk
%nprocshared=20
%mem=10GB
%nosave
#b3lyp/svp scf=(tight,noincore,xqc) Test 
#IOP(5/87=12) Density=Current Pop=(MK,readradii) iop(6/33=2) iop(6/42=6)

loop2.cluster171 

   -2  1 
   C     60.73000000    46.59000000    12.13000000
   C     61.67000000    45.49000000    11.67000000
   O     61.28000000    44.44000000    11.17000000
   H     59.79000000    46.14900000    12.46100000
   H     61.18500000    47.13600000    12.95600000
   H     60.53900000    47.27400000    11.30400000
   N     62.97000000    45.66000000    11.93000000
   C     64.09000000    44.81000000    11.59000000
   C     64.34000000    44.89000000    10.09000000
   O     65.42000000    45.30000000     9.68000000
   C     65.31000000    45.09000000    12.47000000
   C     65.74000000    46.55000000    12.51000000
   O     66.76000000    46.83000000    13.18000000
   O     65.27000000    47.44000000    11.76000000
   H     63.18000000    46.58000000    12.30000000
   H     63.78000000    43.81000000    11.89000000
   H     66.15000000    44.54000000    12.05000000
   H     65.05000000    44.68000000    13.44000000
   N     63.34000000    44.53000000     9.28000000
   C     63.34000000    44.63000000     7.84000000
   C     61.97000000    44.50000000     7.18000000
   O     61.00000000    44.23000000     7.88000000
   C     64.27000000    43.48000000     7.44000000
   H     62.49000000    44.19000000     9.71000000
   H     63.76000000    45.60000000     7.58000000
   H     63.93000000    42.62000000     8.01000000
   H     64.19000000    43.24000000     6.38000000
   H     65.29000000    43.81000000     7.62000000
   N     61.70000000    44.79000000     5.91000000
   C     62.51000000    45.65000000     5.06000000
   C     62.59000000    47.08000000     5.59000000
   O     61.57000000    47.65000000     5.97000000
   C     61.96000000    45.61000000     3.63000000
   C     60.47000000    45.89000000     3.49000000
   O     60.14000000    47.05000000     3.17000000
   O     59.68000000    45.02000000     3.91000000
   H     60.76000000    44.67000000     5.58000000
   H     63.55000000    45.35000000     5.01000000
   H     62.20000000    44.60000000     3.32000000
   H     62.46000000    46.32000000     2.97000000
   N     63.78000000    47.67000000     5.49000000
   C     64.10000000    49.00000000     5.97000000
   C     64.72000000    49.86000000     4.88000000
   O     65.91000000    50.06000000     4.68000000
   H     64.57000000    47.16000000     5.12000000
   H     64.79000000    48.92000000     6.82000000
   H     63.21000000    49.50000000     6.36000000
   N     63.87000000    50.40000000     4.01000000
   C     62.43000000    50.40000000     4.12000000
   C     61.91000000    51.20000000     5.31000000
   O     62.52000000    52.18000000     5.72000000
   C     61.90000000    51.01000000     2.82000000
   C     62.09000000    50.05000000     1.65000000
   N     61.63000000    48.80000000     1.69000000
   O     62.75000000    50.43000000     0.69000000
   H     64.29000000    50.50000000     3.09000000
   H     62.10000000    49.39000000     4.35000000
   H     62.34000000    51.96000000     2.56000000
   H     60.85000000    51.25000000     3.00000000
   H     61.05000000    48.47000000     2.45000000
   H     62.06000000    48.20000000     1.00000000
   N     60.75000000    50.76000000     5.80000000
   C     60.27000000    51.23000000     7.09000000
   C     58.84000000    50.89000000     7.50000000
   O     58.39000000    51.25000000     8.58000000
   H     60.29000000    49.96000000     5.40000000
   H     60.39000000    52.31000000     7.13000000
   H     60.92000000    50.90000000     7.90000000
   N     58.05000000    50.32000000     6.59000000
   C     56.61000000    50.22000000     6.70000000
   C     56.06000000    48.86000000     6.28000000
   O     56.47000000    48.18000000     5.34000000
   C     55.88000000    51.27000000     5.86000000
   C     56.03000000    52.71000000     6.34000000
   O     56.30000000    51.25000000     4.52000000
   H     58.36000000    50.07000000     5.67000000
   H     56.44000000    50.35000000     7.77000000
   H     54.79000000    51.22000000     5.91000000
   H     57.08000000    51.80000000     4.40000000
   H     55.76000000    53.27000000     5.45000000
   H     55.23000000    52.77000000     7.08000000
   H     57.02000000    52.95000000     6.74000000
   N     54.99000000    48.46000000     6.96000000
   C     54.28000000    47.20000000     6.87000000
   C     53.23000000    47.23000000     5.77000000
   O     52.42000000    48.15000000     5.71000000
   C     53.67000000    46.83000000     8.22000000
   C     54.49000000    45.98000000     9.19000000
   C     53.08000000    47.99000000     9.01000000
   C     55.85000000    46.60000000     9.47000000
   H     54.63000000    49.02000000     7.72000000
   H     55.03000000    46.46000000     6.56000000
   H     52.80000000    46.21000000     8.01000000
   H     54.60000000    44.95000000     8.84000000
   H     53.93000000    45.91000000    10.12000000
   H     52.50000000    47.62000000     9.85000000
   H     53.94000000    48.57000000     9.35000000
   H     52.50000000    48.60000000     8.32000000
   H     55.71000000    47.52000000    10.03000000
   H     56.45000000    46.02000000    10.17000000
   H     56.43000000    46.85000000     8.58000000
   N     53.30000000    46.20000000     4.93000000
   C     52.37000000    45.94000000     3.85000000
   C     51.95000000    44.48000000     3.85000000
   O     52.68000000    43.61000000     4.31000000
   C     52.95000000    46.27000000     2.48000000
   C     54.34000000    45.76000000     2.13000000
   O     55.23000000    45.84000000     3.00000000
   O     54.51000000    45.51000000     0.92000000
   H     54.11000000    45.60000000     4.95000000
   H     51.45000000    46.50000000     4.03000000
   H     53.04000000    47.36000000     2.44000000
   H     52.20000000    45.94000000     1.75000000
   N     50.73000000    44.13000000     3.42000000
   C     50.33000000    42.74000000     3.43000000
   C     50.54000000    41.96000000     4.72000000
   O     50.20000000    42.38000000     5.82000000
   C     48.84000000    42.78000000     3.11000000
   C     48.04000000    41.51000000     3.32000000
   C     47.38000000    41.18000000     4.50000000
   C     47.97000000    40.59000000     2.27000000
   C     46.73000000    39.94000000     4.61000000
   C     47.23000000    39.40000000     2.35000000
   C     46.66000000    39.01000000     3.57000000
   H     50.15000000    44.92000000     3.17000000
   H     50.79000000    42.28000000     2.56000000
   H     48.74000000    43.08000000     2.07000000
   H     48.37000000    43.50000000     3.78000000
   H     47.33000000    41.82000000     5.36000000
   H     48.48000000    40.82000000     1.35000000
   H     46.35000000    39.68000000     5.59000000
   H     46.99000000    38.79000000     1.49000000
   H     46.11000000    38.09000000     3.71000000
   N     51.11000000    40.76000000     4.62000000
   C     51.31000000    39.81000000     5.70000000
   C     52.43000000    40.12000000     6.69000000
   O     52.58000000    39.45000000     7.71000000
   C     51.68000000    38.46000000     5.08000000
   C     50.89000000    38.49000000     3.78000000
   C     51.28000000    39.93000000     3.44000000
   H     50.34000000    39.68000000     6.17000000
   H     52.75000000    38.43000000     4.91000000
   H     51.35000000    37.65000000     5.73000000
   H     51.27000000    37.71000000     3.13000000
   H     49.80000000    38.37000000     3.79000000
   H     52.34000000    39.91000000     3.22000000
   H     50.73000000    40.36000000     2.60000000
   N     53.18000000    41.18000000     6.40000000
   C     54.12000000    41.76000000     7.35000000
   C     53.51000000    42.43000000     8.58000000
   O     54.08000000    42.31000000     9.66000000
   C     55.03000000    42.81000000     6.72000000
   C     55.73000000    42.44000000     5.41000000
   C     56.58000000    43.62000000     4.98000000
   O     56.83000000    44.60000000     5.72000000
   O     56.96000000    43.71000000     3.79000000
   H     53.14000000    41.66000000     5.51000000
   H     54.85000000    41.01000000     7.63000000
   H     55.81000000    43.14000000     7.39000000
   H     54.44000000    43.72000000     6.63000000
   H     54.96000000    42.19000000     4.69000000
   H     56.30000000    41.51000000     5.48000000
   N     52.32000000    42.99000000     8.38000000
   C     51.48000000    43.53000000     9.43000000
   H     50.50700000    43.03900000     9.40500000
   H     51.95000000    43.35500000    10.39800000
   H     51.35000000    44.60100000     9.27700000
   H     51.90000000    42.84000000     7.47000000
  Ca     57.52000000    46.28000000     3.94000000
   O     57.92000000    45.40000000     1.48000000
   H     57.48000000    45.28000000     0.64000000
   H     58.53000000    44.66000000     1.53000000
   O     59.05000000    46.95000000     5.97000000
   H     59.97000000    47.22000000     6.02000000
   H     58.86000000    46.58000000     6.83000000
   O     57.11000000    48.21000000     2.06000000
   H     57.03000000    47.73000000     1.23000000
   H     56.54000000    48.97000000     1.96000000

Ca 1.00



