%chk=loop2.cluster208.chk
%nprocshared=20
%mem=10GB
%nosave
#b3lyp/svp scf=(tight,noincore,xqc) Test 
#IOP(5/87=12) Density=Current Pop=(MK,readradii) iop(6/33=2) iop(6/42=6)

loop2.cluster208 

   -2  1 
   C     63.75000000    59.24000000    12.96000000
   C     62.86000000    60.00000000    13.93000000
   O     63.37000000    60.70000000    14.81000000
   H     64.71500000    59.04700000    13.42800000
   H     63.27800000    58.29300000    12.69800000
   H     63.89700000    59.83500000    12.05800000
   N     61.54000000    59.86000000    13.82000000
   C     60.64000000    60.14000000    14.93000000
   C     61.07000000    59.36000000    16.17000000
   O     61.32000000    58.16000000    16.21000000
   C     59.26000000    59.61000000    14.58000000
   C     58.21000000    59.84000000    15.65000000
   O     57.08000000    59.34000000    15.47000000
   O     58.46000000    60.51000000    16.67000000
   H     61.11000000    59.38000000    13.04000000
   H     60.61000000    61.21000000    15.13000000
   H     59.27000000    58.52000000    14.46000000
   H     58.96000000    60.13000000    13.66000000
   N     61.16000000    60.09000000    17.28000000
   C     61.71000000    59.63000000    18.54000000
   C     60.61000000    59.14000000    19.47000000
   O     60.92000000    58.33000000    20.35000000
   C     62.49000000    60.75000000    19.24000000
   H     60.89000000    61.06000000    17.18000000
   H     62.42000000    58.82000000    18.41000000
   H     63.41000000    60.90000000    18.69000000
   H     62.01000000    61.72000000    19.28000000
   H     62.72000000    60.54000000    20.29000000
   N     59.36000000    59.47000000    19.15000000
   C     58.18000000    58.81000000    19.67000000
   C     57.89000000    57.54000000    18.87000000
   O     57.25000000    56.65000000    19.43000000
   C     56.96000000    59.72000000    19.60000000
   C     57.16000000    61.15000000    20.06000000
   O     57.78000000    61.97000000    19.35000000
   O     56.65000000    61.53000000    21.14000000
   H     59.26000000    59.87000000    18.22000000
   H     58.47000000    58.59000000    20.70000000
   H     56.08000000    59.23000000    20.03000000
   H     56.79000000    59.73000000    18.52000000
   N     58.17000000    57.47000000    17.57000000
   C     57.81000000    56.35000000    16.73000000
   C     56.32000000    56.20000000    16.44000000
   O     55.82000000    55.15000000    16.04000000
   H     58.76000000    58.22000000    17.23000000
   H     58.21000000    55.47000000    17.23000000
   H     58.32000000    56.47000000    15.77000000
   N     55.55000000    57.28000000    16.59000000
   C     54.13000000    57.33000000    16.28000000
   C     53.83000000    57.68000000    14.83000000
   O     52.70000000    57.47000000    14.38000000
   C     53.43000000    58.18000000    17.33000000
   C     53.27000000    59.68000000    17.09000000
   N     52.68000000    60.37000000    18.08000000
   O     53.60000000    60.32000000    16.10000000
   H     55.96000000    58.14000000    16.93000000
   H     53.79000000    56.31000000    16.47000000
   H     53.91000000    57.99000000    18.28000000
   H     52.44000000    57.74000000    17.39000000
   H     52.44000000    59.92000000    18.95000000
   H     52.58000000    61.35000000    17.87000000
   N     54.83000000    58.17000000    14.09000000
   C     54.80000000    58.64000000    12.72000000
   C     54.78000000    60.13000000    12.40000000
   O     54.39000000    60.48000000    11.29000000
   H     55.70000000    58.35000000    14.57000000
   H     53.88000000    58.25000000    12.28000000
   H     55.73000000    58.30000000    12.27000000
   N     55.27000000    60.93000000    13.35000000
   C     55.13000000    62.37000000    13.32000000
   C     56.47000000    62.99000000    13.68000000
   O     57.20000000    62.58000000    14.58000000
   C     53.93000000    62.94000000    14.07000000
   C     53.69000000    64.38000000    13.64000000
   O     52.72000000    62.22000000    14.00000000
   H     55.77000000    60.56000000    14.15000000
   H     54.93000000    62.67000000    12.29000000
   H     54.18000000    62.96000000    15.13000000
   H     52.91000000    61.48000000    14.59000000
   H     52.77000000    64.85000000    13.99000000
   H     54.55000000    65.01000000    13.90000000
   H     53.60000000    64.41000000    12.56000000
   N     56.75000000    64.10000000    13.00000000
   C     58.02000000    64.79000000    13.06000000
   C     57.95000000    66.12000000    13.78000000
   O     57.19000000    66.98000000    13.35000000
   C     58.60000000    65.08000000    11.67000000
   C     59.01000000    63.79000000    10.97000000
   C     59.84000000    65.96000000    11.58000000
   C     60.27000000    63.04000000    11.38000000
   H     56.14000000    64.36000000    12.23000000
   H     58.72000000    64.21000000    13.66000000
   H     57.79000000    65.48000000    11.06000000
   H     59.13000000    63.94000000     9.90000000
   H     58.26000000    63.00000000    11.06000000
   H     60.54000000    65.61000000    12.35000000
   H     60.22000000    65.97000000    10.56000000
   H     59.53000000    66.98000000    11.84000000
   H     60.29000000    62.88000000    12.46000000
   H     60.32000000    62.03000000    10.97000000
   H     61.21000000    63.55000000    11.15000000
   N     58.85000000    66.26000000    14.76000000
   C     59.15000000    67.49000000    15.47000000
   C     60.31000000    68.26000000    14.85000000
   O     61.00000000    67.77000000    13.96000000
   C     59.52000000    67.25000000    16.93000000
   C     58.45000000    66.44000000    17.64000000
   O     58.70000000    65.27000000    17.98000000
   O     57.30000000    66.94000000    17.65000000
   H     59.52000000    65.53000000    14.94000000
   H     58.32000000    68.19000000    15.39000000
   H     59.57000000    68.25000000    17.35000000
   H     60.43000000    66.66000000    17.01000000
   N     60.62000000    69.45000000    15.38000000
   C     61.70000000    70.25000000    14.86000000
   C     63.04000000    69.55000000    15.03000000
   O     63.73000000    69.44000000    14.02000000
   C     61.63000000    71.68000000    15.39000000
   C     62.62000000    72.64000000    14.77000000
   C     62.60000000    72.74000000    13.38000000
   C     63.66000000    73.19000000    15.52000000
   C     63.66000000    73.43000000    12.76000000
   C     64.69000000    73.93000000    14.92000000
   C     64.65000000    74.06000000    13.52000000
   H     59.91000000    69.90000000    15.94000000
   H     61.53000000    70.40000000    13.79000000
   H     61.88000000    71.58000000    16.45000000
   H     60.63000000    72.01000000    15.10000000
   H     61.94000000    72.14000000    12.77000000
   H     63.48000000    73.23000000    16.58000000
   H     63.74000000    73.44000000    11.69000000
   H     65.43000000    74.43000000    15.53000000
   H     65.44000000    74.56000000    12.98000000
   N     63.50000000    68.99000000    16.16000000
   C     64.69000000    68.17000000    16.21000000
   C     64.68000000    66.93000000    15.32000000
   O     65.73000000    66.38000000    14.99000000
   C     64.77000000    67.64000000    17.64000000
   C     64.12000000    68.78000000    18.41000000
   C     62.96000000    69.16000000    17.49000000
   H     65.56000000    68.80000000    16.03000000
   H     64.28000000    66.68000000    17.80000000
   H     65.79000000    67.54000000    18.01000000
   H     63.83000000    68.52000000    19.43000000
   H     64.83000000    69.61000000    18.48000000
   H     62.09000000    68.51000000    17.60000000
   H     62.59000000    70.17000000    17.66000000
   N     63.52000000    66.41000000    14.93000000
   C     63.47000000    65.24000000    14.08000000
   C     63.53000000    65.59000000    12.60000000
   O     64.24000000    64.90000000    11.87000000
   C     62.20000000    64.47000000    14.43000000
   C     62.23000000    63.88000000    15.84000000
   C     60.84000000    63.36000000    16.19000000
   O     59.82000000    63.53000000    15.49000000
   O     60.58000000    62.90000000    17.32000000
   H     62.62000000    66.82000000    15.14000000
   H     64.36000000    64.62000000    14.19000000
   H     62.04000000    63.64000000    13.74000000
   H     61.43000000    65.24000000    14.37000000
   H     62.50000000    64.65000000    16.55000000
   H     62.87000000    63.00000000    15.78000000
   N     62.98000000    66.75000000    12.24000000
   C     63.31000000    67.51000000    11.05000000
   H     64.34000000    67.30000000    10.76000000
   H     62.63900000    67.22600000    10.23900000
   H     63.20100000    68.57500000    11.25600000
   H     62.27000000    67.20000000    12.80000000
  Ca     57.96000000    62.96000000    17.10000000
   O     55.83000000    64.02000000    18.69000000
   H     54.91000000    64.24000000    18.87000000
   H     56.19000000    63.79000000    19.54000000
   O     55.99000000    65.04000000    16.12000000
   H     56.59000000    65.75000000    16.32000000
   H     55.19000000    65.25000000    16.60000000
   O     55.78000000    61.41000000    17.13000000
   H     54.90000000    61.31000000    16.79000000
   H     56.31000000    60.78000000    16.64000000

Ca 1.00



