%chk=loop2.cluster133.chk
%nprocshared=20
%mem=10GB
%nosave
#b3lyp/svp scf=(tight,noincore,xqc) Test 
#IOP(5/87=12) Density=Current Pop=(MK,readradii) iop(6/33=2) iop(6/42=6)

loop2.cluster133 

   -2  1 
   C     53.45000000    46.16000000    16.27000000
   C     54.35000000    46.64000000    15.14000000
   O     54.22000000    46.22000000    13.99000000
   H     52.48200000    45.86800000    15.86300000
   H     53.91000000    45.30300000    16.76200000
   H     53.31300000    46.96400000    16.99300000
   N     55.16000000    47.67000000    15.41000000
   C     55.93000000    48.38000000    14.41000000
   C     55.18000000    49.56000000    13.80000000
   O     55.54000000    50.71000000    14.07000000
   C     57.27000000    48.76000000    15.02000000
   C     58.27000000    49.02000000    13.90000000
   O     58.11000000    48.68000000    12.71000000
   O     59.37000000    49.44000000    14.33000000
   H     55.18000000    47.99000000    16.37000000
   H     56.07000000    47.64000000    13.61000000
   H     57.62000000    47.85000000    15.52000000
   H     57.23000000    49.64000000    15.66000000
   N     54.15000000    49.31000000    12.99000000
   C     53.28000000    50.26000000    12.35000000
   C     52.09000000    49.45000000    11.85000000
   O     52.15000000    48.22000000    11.80000000
   C     53.93000000    50.92000000    11.14000000
   H     54.05000000    48.32000000    12.78000000
   H     52.87000000    50.98000000    13.06000000
   H     54.67000000    51.60000000    11.55000000
   H     54.52000000    50.17000000    10.62000000
   H     53.29000000    51.47000000    10.44000000
   N     50.92000000    50.05000000    11.62000000
   C     50.49000000    51.43000000    11.65000000
   C     49.98000000    51.87000000    13.02000000
   O     49.41000000    51.03000000    13.71000000
   C     49.37000000    51.64000000    10.63000000
   C     48.23000000    50.63000000    10.74000000
   O     48.39000000    49.42000000    10.48000000
   O     47.14000000    51.01000000    11.21000000
   H     50.21000000    49.39000000    11.32000000
   H     51.31000000    52.06000000    11.31000000
   H     49.88000000    51.65000000     9.67000000
   H     49.02000000    52.65000000    10.82000000
   N     50.25000000    53.14000000    13.36000000
   C     49.70000000    53.78000000    14.54000000
   C     49.85000000    55.29000000    14.62000000
   O     50.75000000    55.80000000    13.96000000
   H     50.75000000    53.74000000    12.72000000
   H     50.16000000    53.36000000    15.43000000
   H     48.63000000    53.63000000    14.59000000
   N     49.09000000    56.10000000    15.37000000
   C     47.93000000    55.79000000    16.17000000
   C     48.24000000    54.74000000    17.23000000
   O     49.31000000    54.78000000    17.84000000
   C     47.33000000    57.06000000    16.77000000
   C     46.86000000    58.05000000    15.72000000
   N     47.57000000    59.17000000    15.58000000
   O     46.05000000    57.75000000    14.84000000
   H     49.52000000    56.98000000    15.64000000
   H     47.23000000    55.31000000    15.49000000
   H     48.02000000    57.64000000    17.39000000
   H     46.51000000    56.80000000    17.43000000
   H     48.34000000    59.41000000    16.18000000
   H     47.40000000    59.75000000    14.77000000
   N     47.36000000    53.79000000    17.55000000
   C     47.70000000    52.78000000    18.53000000
   C     46.88000000    51.51000000    18.69000000
   O     47.02000000    50.79000000    19.68000000
   H     46.46000000    53.82000000    17.10000000
   H     47.78000000    53.26000000    19.50000000
   H     48.67000000    52.41000000    18.20000000
   N     46.07000000    51.12000000    17.70000000
   C     45.24000000    49.93000000    17.70000000
   C     45.89000000    48.84000000    16.86000000
   O     46.86000000    49.01000000    16.12000000
   C     43.81000000    50.28000000    17.32000000
   C     43.21000000    51.20000000    18.38000000
   O     43.81000000    50.92000000    16.06000000
   H     46.21000000    51.65000000    16.85000000
   H     45.17000000    49.52000000    18.71000000
   H     43.22000000    49.36000000    17.34000000
   H     43.29000000    50.26000000    15.59000000
   H     43.89000000    52.01000000    18.64000000
   H     42.34000000    51.66000000    17.91000000
   H     42.80000000    50.60000000    19.19000000
   N     45.27000000    47.66000000    16.88000000
   C     45.60000000    46.57000000    15.99000000
   C     44.35000000    45.95000000    15.38000000
   O     43.36000000    45.87000000    16.11000000
   C     46.40000000    45.42000000    16.59000000
   C     47.68000000    45.91000000    17.26000000
   C     45.63000000    44.56000000    17.59000000
   C     48.69000000    44.79000000    17.09000000
   H     44.48000000    47.50000000    17.48000000
   H     46.23000000    46.98000000    15.20000000
   H     46.64000000    44.80000000    15.72000000
   H     47.63000000    46.14000000    18.32000000
   H     48.07000000    46.75000000    16.67000000
   H     45.10000000    45.22000000    18.28000000
   H     44.90000000    43.93000000    17.09000000
   H     46.22000000    43.89000000    18.22000000
   H     48.77000000    44.47000000    16.05000000
   H     49.66000000    45.24000000    17.30000000
   H     48.47000000    43.88000000    17.65000000
   N     44.34000000    45.52000000    14.11000000
   C     43.24000000    44.95000000    13.36000000
   C     43.63000000    43.71000000    12.57000000
   O     44.70000000    43.71000000    11.97000000
   C     42.66000000    46.04000000    12.47000000
   C     43.66000000    47.07000000    11.96000000
   O     43.86000000    48.14000000    12.58000000
   O     44.30000000    46.89000000    10.90000000
   H     45.26000000    45.39000000    13.70000000
   H     42.55000000    44.60000000    14.13000000
   H     41.84000000    46.52000000    13.00000000
   H     42.13000000    45.59000000    11.63000000
   N     42.79000000    42.67000000    12.64000000
   C     42.97000000    41.42000000    11.91000000
   C     44.29000000    40.73000000    12.24000000
   O     44.70000000    40.67000000    13.39000000
   C     41.76000000    40.53000000    12.16000000
   C     41.90000000    39.12000000    11.65000000
   C     42.30000000    38.07000000    12.48000000
   C     41.71000000    38.90000000    10.28000000
   C     42.46000000    36.80000000    11.91000000
   C     41.97000000    37.65000000     9.71000000
   C     42.37000000    36.58000000    10.53000000
   H     41.83000000    42.85000000    12.89000000
   H     43.02000000    41.59000000    10.84000000
   H     40.90000000    41.07000000    11.76000000
   H     41.55000000    40.43000000    13.23000000
   H     42.68000000    38.20000000    13.48000000
   H     41.43000000    39.76000000     9.69000000
   H     42.78000000    35.98000000    12.55000000
   H     41.81000000    37.57000000     8.65000000
   H     42.48000000    35.56000000    10.21000000
   N     45.09000000    40.21000000    11.31000000
   C     46.24000000    39.37000000    11.55000000
   C     47.50000000    40.03000000    12.09000000
   O     48.53000000    39.38000000    12.25000000
   C     46.56000000    38.72000000    10.20000000
   C     45.25000000    38.85000000     9.43000000
   C     44.93000000    40.27000000     9.87000000
   H     46.03000000    38.56000000    12.24000000
   H     47.40000000    39.21000000     9.71000000
   H     46.77000000    37.65000000    10.30000000
   H     45.39000000    38.77000000     8.35000000
   H     44.46000000    38.21000000     9.84000000
   H     45.58000000    40.99000000     9.37000000
   H     43.93000000    40.54000000     9.54000000
   N     47.44000000    41.33000000    12.39000000
   C     48.49000000    42.07000000    13.06000000
   C     48.75000000    41.60000000    14.49000000
   O     49.90000000    41.66000000    14.92000000
   C     48.17000000    43.56000000    13.12000000
   C     48.01000000    44.21000000    11.74000000
   C     47.66000000    45.68000000    11.86000000
   O     46.94000000    46.09000000    12.80000000
   O     48.05000000    46.47000000    10.97000000
   H     46.55000000    41.79000000    12.26000000
   H     49.41000000    41.95000000    12.50000000
   H     48.99000000    44.06000000    13.65000000
   H     47.28000000    43.70000000    13.73000000
   H     47.23000000    43.69000000    11.18000000
   H     48.91000000    44.21000000    11.13000000
   N     47.77000000    40.98000000    15.16000000
   C     48.03000000    40.16000000    16.33000000
   H     48.83800000    40.60300000    16.91100000
   H     47.13000000    40.10500000    16.94300000
   H     48.31800000    39.15700000    16.01500000
   H     46.89000000    40.87000000    14.68000000
  Ca     46.21000000    48.42000000    11.56000000
   O     45.19000000    49.44000000     9.22000000
   H     44.70000000    49.25000000     8.42000000
   H     45.30000000    50.39000000     9.20000000
   O     48.03000000    48.87000000    13.66000000
   H     47.86000000    48.64000000    14.58000000
   H     48.62000000    49.62000000    13.70000000
   O     45.31000000    50.65000000    13.57000000
   H     45.89000000    51.40000000    13.39000000
   H     45.21000000    50.66000000    14.53000000

Ca 1.00



