%chk=loop2.cluster144.chk
%nprocshared=20
%mem=10GB
%nosave
#b3lyp/svp scf=(tight,noincore,xqc) Test 
#IOP(5/87=12) Density=Current Pop=(MK,readradii) iop(6/33=2) iop(6/42=6)

loop2.cluster144 

   -2  1 
   C     81.63000000    52.07000000    58.70000000
   C     81.30000000    52.45000000    57.26000000
   O     80.62000000    51.71000000    56.54000000
   H     82.44600000    52.69500000    59.06200000
   H     80.75100000    52.22100000    59.32700000
   H     81.93000000    51.02300000    58.74000000
   N     81.78000000    53.57000000    56.73000000
   C     81.56000000    54.05000000    55.38000000
   C     80.15000000    54.62000000    55.33000000
   O     79.56000000    55.16000000    56.26000000
   C     82.64000000    55.03000000    54.94000000
   C     82.43000000    55.82000000    53.65000000
   O     82.14000000    57.03000000    53.78000000
   O     82.60000000    55.21000000    52.57000000
   H     82.49000000    54.08000000    57.23000000
   H     81.64000000    53.19000000    54.71000000
   H     83.56000000    54.45000000    54.91000000
   H     82.71000000    55.68000000    55.81000000
   N     79.63000000    54.50000000    54.10000000
   C     78.25000000    54.80000000    53.77000000
   C     77.54000000    53.63000000    53.12000000
   O     78.17000000    52.85000000    52.40000000
   C     78.21000000    56.01000000    52.84000000
   H     80.10000000    54.12000000    53.29000000
   H     77.74000000    55.06000000    54.70000000
   H     78.70000000    56.80000000    53.41000000
   H     78.58000000    55.87000000    51.83000000
   H     77.16000000    56.27000000    52.71000000
   N     76.25000000    53.32000000    53.26000000
   C     75.11000000    54.09000000    53.72000000
   C     75.36000000    54.56000000    55.15000000
   O     75.69000000    53.75000000    56.01000000
   C     73.87000000    53.20000000    53.66000000
   C     74.02000000    51.87000000    54.37000000
   O     74.86000000    51.10000000    53.86000000
   O     73.35000000    51.65000000    55.41000000
   H     76.00000000    52.42000000    52.87000000
   H     74.97000000    54.90000000    53.02000000
   H     73.60000000    52.95000000    52.63000000
   H     73.03000000    53.74000000    54.10000000
   N     75.24000000    55.87000000    55.40000000
   C     75.46000000    56.47000000    56.70000000
   C     76.80000000    57.19000000    56.86000000
   O     77.50000000    57.34000000    55.86000000
   H     75.02000000    56.40000000    54.57000000
   H     75.49000000    55.65000000    57.42000000
   H     74.66000000    57.19000000    56.87000000
   N     77.18000000    57.79000000    57.99000000
   C     76.42000000    57.86000000    59.21000000
   C     77.32000000    57.94000000    60.43000000
   O     77.83000000    58.96000000    60.88000000
   C     75.55000000    59.11000000    59.09000000
   C     74.71000000    59.44000000    60.32000000
   N     74.26000000    60.70000000    60.40000000
   O     74.48000000    58.61000000    61.19000000
   H     78.09000000    58.22000000    57.85000000
   H     75.79000000    56.98000000    59.33000000
   H     74.81000000    58.93000000    58.32000000
   H     76.08000000    59.99000000    58.73000000
   H     74.42000000    61.49000000    59.79000000
   H     73.73000000    60.84000000    61.25000000
   N     77.44000000    56.71000000    60.94000000
   C     78.23000000    56.28000000    62.07000000
   C     77.83000000    55.00000000    62.80000000
   O     78.61000000    54.44000000    63.56000000
   H     76.97000000    55.97000000    60.42000000
   H     78.33000000    57.06000000    62.82000000
   H     79.25000000    56.09000000    61.72000000
   N     76.55000000    54.60000000    62.76000000
   C     75.86000000    53.48000000    63.36000000
   C     75.81000000    52.24000000    62.49000000
   O     75.99000000    52.41000000    61.28000000
   C     74.47000000    53.75000000    63.93000000
   C     74.51000000    54.73000000    65.09000000
   O     73.70000000    54.17000000    62.82000000
   H     75.95000000    55.15000000    62.17000000
   H     76.45000000    53.17000000    64.22000000
   H     74.05000000    52.82000000    64.33000000
   H     73.25000000    53.48000000    62.33000000
   H     75.18000000    54.39000000    65.88000000
   H     74.88000000    55.68000000    64.72000000
   H     73.48000000    54.82000000    65.46000000
   N     75.64000000    51.07000000    63.12000000
   C     75.35000000    49.83000000    62.42000000
   C     73.95000000    49.34000000    62.74000000
   O     73.28000000    49.86000000    63.63000000
   C     76.43000000    48.82000000    62.77000000
   C     77.81000000    49.36000000    62.39000000
   C     76.56000000    48.45000000    64.24000000
   C     78.09000000    49.35000000    60.89000000
   H     75.42000000    51.00000000    64.10000000
   H     75.37000000    50.03000000    61.35000000
   H     76.21000000    47.91000000    62.20000000
   H     78.58000000    48.72000000    62.83000000
   H     77.87000000    50.38000000    62.75000000
   H     75.63000000    48.20000000    64.75000000
   H     77.25000000    47.63000000    64.44000000
   H     77.09000000    49.23000000    64.79000000
   H     78.91000000    50.00000000    60.60000000
   H     78.40000000    48.33000000    60.66000000
   H     77.24000000    49.65000000    60.28000000
   N     73.40000000    48.51000000    61.85000000
   C     72.11000000    47.86000000    61.98000000
   C     72.33000000    46.42000000    61.53000000
   O     73.25000000    46.18000000    60.76000000
   C     71.09000000    48.59000000    61.11000000
   C     71.71000000    48.96000000    59.76000000
   O     72.18000000    50.09000000    59.56000000
   O     71.58000000    48.12000000    58.84000000
   H     73.99000000    48.15000000    61.12000000
   H     71.77000000    47.77000000    63.01000000
   H     70.68000000    49.41000000    61.70000000
   H     70.24000000    47.92000000    61.01000000
   N     71.52000000    45.53000000    62.11000000
   C     71.54000000    44.10000000    61.86000000
   C     72.95000000    43.54000000    61.89000000
   O     73.59000000    43.78000000    62.92000000
   C     70.82000000    43.32000000    62.96000000
   C     70.96000000    41.82000000    62.89000000
   C     71.72000000    41.19000000    63.88000000
   C     70.29000000    41.13000000    61.87000000
   C     71.77000000    39.80000000    63.78000000
   C     70.36000000    39.73000000    61.77000000
   C     71.13000000    39.09000000    62.75000000
   H     70.77000000    45.89000000    62.68000000
   H     71.08000000    43.94000000    60.89000000
   H     69.74000000    43.42000000    62.86000000
   H     71.03000000    43.72000000    63.95000000
   H     72.31000000    41.72000000    64.62000000
   H     69.65000000    41.69000000    61.21000000
   H     72.25000000    39.29000000    64.60000000
   H     69.80000000    39.13000000    61.07000000
   H     71.06000000    38.02000000    62.73000000
   N     73.44000000    42.88000000    60.84000000
   C     74.71000000    42.19000000    60.92000000
   C     75.92000000    43.08000000    60.69000000
   O     77.02000000    42.52000000    60.65000000
   C     74.66000000    41.17000000    59.78000000
   C     73.94000000    41.97000000    58.69000000
   C     72.90000000    42.75000000    59.50000000
   H     74.90000000    41.72000000    61.89000000
   H     75.63000000    40.86000000    59.40000000
   H     74.09000000    40.37000000    60.25000000
   H     74.59000000    42.71000000    58.23000000
   H     73.38000000    41.36000000    57.98000000
   H     72.78000000    43.76000000    59.10000000
   H     72.00000000    42.14000000    59.46000000
   N     75.72000000    44.38000000    60.47000000
   C     76.84000000    45.20000000    60.06000000
   C     77.92000000    45.46000000    61.11000000
   O     79.01000000    45.86000000    60.73000000
   C     76.44000000    46.49000000    59.35000000
   C     75.46000000    46.20000000    58.23000000
   C     74.96000000    47.46000000    57.53000000
   O     75.40000000    48.58000000    57.85000000
   O     74.05000000    47.38000000    56.68000000
   H     74.78000000    44.72000000    60.57000000
   H     77.35000000    44.68000000    59.25000000
   H     77.30000000    47.02000000    58.93000000
   H     75.97000000    47.06000000    60.15000000
   H     74.58000000    45.58000000    58.46000000
   H     75.99000000    45.56000000    57.52000000
   N     77.74000000    45.12000000    62.39000000
   C     78.68000000    45.30000000    63.47000000
   H     79.54900000    45.84800000    63.10700000
   H     78.20700000    45.86300000    64.27400000
   H     78.99500000    44.32600000    63.84400000
   H     76.92000000    44.54000000    62.53000000
  Ca     72.99000000    49.80000000    57.15000000
   O     74.36000000    52.04000000    57.97000000
   H     74.97000000    52.27000000    58.67000000
   H     74.76000000    52.39000000    57.17000000
   O     72.22000000    48.39000000    54.81000000
   H     71.71000000    48.40000000    54.00000000
   H     72.22000000    47.47000000    55.07000000

Ca 1.00



