%chk=loop2.cluster198.chk
%nprocshared=20
%mem=10GB
%nosave
#b3lyp/svp scf=(tight,noincore,xqc) Test 
#IOP(5/87=12) Density=Current Pop=(MK,readradii) iop(6/33=2) iop(6/42=6)

loop2.cluster198 

   -2  1 
   C      3.74000000     9.76000000    24.95000000
   C      3.53000000    11.10000000    25.64000000
   O      2.66000000    11.90000000    25.31000000
   H      4.74100000     9.39100000    25.17200000
   H      3.00100000     9.04500000    25.31200000
   H      3.62900000     9.88400000    23.87300000
   N      4.27000000    11.41000000    26.70000000
   C      4.30000000    12.59000000    27.54000000
   C      3.13000000    12.68000000    28.51000000
   O      2.95000000    13.68000000    29.21000000
   C      5.65000000    12.60000000    28.26000000
   C      5.88000000    13.83000000    29.13000000
   O      6.35000000    13.72000000    30.28000000
   O      5.82000000    14.96000000    28.59000000
   H      4.97000000    10.72000000    26.94000000
   H      4.24000000    13.48000000    26.92000000
   H      6.43000000    12.56000000    27.50000000
   H      5.69000000    11.74000000    28.93000000
   N      2.41000000    11.57000000    28.71000000
   C      1.34000000    11.47000000    29.67000000
   C      1.49000000    10.27000000    30.59000000
   O      1.59000000     9.15000000    30.09000000
   C      0.03000000    11.57000000    28.90000000
   H      2.54000000    10.79000000    28.09000000
   H      1.29000000    12.34000000    30.34000000
   H     -0.77000000    11.35000000    29.61000000
   H     -0.18000000    12.55000000    28.47000000
   H     -0.03000000    10.83000000    28.10000000
   N      1.70000000    10.38000000    31.90000000
   C      1.76000000    11.56000000    32.73000000
   C      2.54000000    11.24000000    34.00000000
   O      2.81000000    10.08000000    34.27000000
   C      0.35000000    12.07000000    33.01000000
   C      0.34000000    13.59000000    33.16000000
   O      0.13000000    14.03000000    34.31000000
   O      0.47000000    14.31000000    32.15000000
   H      1.85000000     9.49000000    32.36000000
   H      2.25000000    12.40000000    32.23000000
   H      0.05000000    11.67000000    33.97000000
   H     -0.35000000    11.73000000    32.25000000
   N      2.99000000    12.23000000    34.78000000
   C      3.74000000    12.02000000    36.01000000
   C      5.07000000    11.33000000    35.72000000
   O      5.75000000    11.69000000    34.76000000
   H      2.61000000    13.12000000    34.50000000
   H      3.06000000    11.51000000    36.68000000
   H      3.93000000    12.99000000    36.46000000
   N      5.56000000    10.34000000    36.46000000
   C      5.08000000     9.87000000    37.75000000
   C      4.25000000     8.59000000    37.71000000
   O      4.36000000     7.72000000    38.57000000
   C      6.33000000     9.64000000    38.60000000
   C      6.13000000     9.46000000    40.09000000
   N      7.23000000     9.20000000    40.82000000
   O      5.05000000     9.42000000    40.66000000
   H      6.52000000    10.18000000    36.21000000
   H      4.41000000    10.59000000    38.21000000
   H      7.11000000    10.38000000    38.39000000
   H      6.80000000     8.71000000    38.30000000
   H      8.12000000     9.04000000    40.38000000
   H      7.04000000     9.13000000    41.81000000
   N      3.41000000     8.49000000    36.68000000
   C      2.37000000     7.49000000    36.52000000
   C      1.10000000     7.75000000    37.32000000
   O      0.36000000     6.82000000    37.62000000
   H      3.57000000     9.12000000    35.91000000
   H      2.62000000     6.43000000    36.50000000
   H      2.02000000     7.69000000    35.50000000
   N      0.82000000     8.99000000    37.74000000
   C     -0.41000000     9.41000000    38.37000000
   C     -1.23000000     9.90000000    37.19000000
   O     -1.06000000    11.03000000    36.73000000
   C     -0.21000000    10.52000000    39.40000000
   C     -1.49000000    11.25000000    39.79000000
   O      0.15000000     9.87000000    40.60000000
   H      1.35000000     9.74000000    37.33000000
   H     -0.82000000     8.49000000    38.79000000
   H      0.56000000    11.22000000    39.08000000
   H      1.01000000    10.21000000    40.85000000
   H     -2.24000000    10.46000000    39.79000000
   H     -1.42000000    11.60000000    40.82000000
   H     -1.73000000    12.04000000    39.08000000
   N     -2.11000000     9.06000000    36.66000000
   C     -3.03000000     9.25000000    35.55000000
   C     -4.48000000     9.03000000    35.95000000
   O     -4.80000000     8.44000000    36.98000000
   C     -2.60000000     8.42000000    34.35000000
   C     -1.29000000     8.96000000    33.80000000
   C     -2.67000000     6.95000000    34.77000000
   C     -0.70000000     8.15000000    32.65000000
   H     -2.13000000     8.12000000    37.04000000
   H     -2.95000000    10.29000000    35.21000000
   H     -3.41000000     8.59000000    33.64000000
   H     -0.51000000     8.91000000    34.57000000
   H     -1.46000000    10.00000000    33.53000000
   H     -3.67000000     6.60000000    35.01000000
   H     -2.37000000     6.40000000    33.88000000
   H     -1.93000000     6.70000000    35.53000000
   H     -0.65000000     7.09000000    32.91000000
   H     -1.31000000     8.31000000    31.76000000
   H      0.28000000     8.50000000    32.34000000
   N     -5.45000000     9.41000000    35.12000000
   C     -6.87000000     9.29000000    35.35000000
   C     -7.50000000     8.82000000    34.05000000
   O     -7.33000000     9.51000000    33.05000000
   C     -7.47000000    10.66000000    35.68000000
   C     -6.68000000    11.55000000    36.63000000
   O     -6.93000000    11.49000000    37.85000000
   O     -5.97000000    12.49000000    36.20000000
   H     -5.23000000     9.92000000    34.28000000
   H     -7.07000000     8.57000000    36.14000000
   H     -8.50000000    10.50000000    36.01000000
   H     -7.56000000    11.24000000    34.76000000
   N     -8.25000000     7.71000000    34.02000000
   C     -9.17000000     7.36000000    32.95000000
   C     -8.49000000     7.20000000    31.60000000
   O     -7.50000000     6.48000000    31.54000000
   C    -10.03000000     6.16000000    33.33000000
   C    -11.00000000     5.77000000    32.24000000
   C    -10.58000000     4.86000000    31.26000000
   C    -12.32000000     6.22000000    32.29000000
   C    -11.53000000     4.34000000    30.37000000
   C    -13.23000000     5.71000000    31.36000000
   C    -12.87000000     4.75000000    30.41000000
   H     -8.30000000     7.19000000    34.88000000
   H     -9.85000000     8.21000000    32.92000000
   H    -10.49000000     6.30000000    34.30000000
   H     -9.30000000     5.36000000    33.48000000
   H     -9.56000000     4.57000000    31.41000000
   H    -12.60000000     7.00000000    32.99000000
   H    -11.23000000     3.56000000    29.68000000
   H    -14.27000000     5.99000000    31.48000000
   H    -13.57000000     4.37000000    29.68000000
   N     -8.98000000     7.84000000    30.53000000
   C     -8.49000000     7.66000000    29.18000000
   C     -7.01000000     7.99000000    29.05000000
   O     -6.39000000     7.67000000    28.04000000
   C     -9.38000000     8.60000000    28.38000000
   C    -10.76000000     8.50000000    29.03000000
   C    -10.20000000     8.61000000    30.45000000
   H     -8.66000000     6.63000000    28.87000000
   H     -9.08000000     9.65000000    28.45000000
   H     -9.41000000     8.29000000    27.34000000
   H    -11.35000000     9.38000000    28.78000000
   H    -11.27000000     7.58000000    28.75000000
   H    -10.00000000     9.61000000    30.84000000
   H    -10.92000000     8.29000000    31.20000000
   N     -6.40000000     8.74000000    29.97000000
   C     -5.01000000     9.14000000    30.11000000
   C     -4.12000000     7.90000000    30.22000000
   O     -3.00000000     7.91000000    29.72000000
   C     -4.83000000    10.08000000    31.29000000
   C     -3.54000000    10.89000000    31.25000000
   C     -3.60000000    12.07000000    32.21000000
   O     -4.21000000    11.96000000    33.30000000
   O     -3.14000000    13.16000000    31.80000000
   H     -6.95000000     9.06000000    30.75000000
   H     -4.69000000     9.64000000    29.20000000
   H     -5.02000000     9.54000000    32.22000000
   H     -5.63000000    10.81000000    31.15000000
   H     -3.33000000    11.27000000    30.25000000
   H     -2.70000000    10.27000000    31.56000000
   N     -4.59000000     6.83000000    30.86000000
   C     -3.98000000     5.51000000    30.83000000
   H     -3.01800000     5.54300000    31.34200000
   H     -4.63300000     4.79600000    31.33100000
   H     -3.83000000     5.20200000    29.79500000
   H     -5.50000000     6.85000000    31.30000000
  Ca     -4.58000000    14.05000000    34.76000000
   O     -3.64000000    15.39000000    37.04000000
   H     -3.92000000    15.56000000    37.94000000
   H     -3.15000000    16.17000000    36.79000000
   O     -2.15000000    13.10000000    35.46000000
   H     -1.90000000    12.35000000    35.99000000
   H     -1.32000000    13.47000000    35.16000000
   O     -2.67000000    15.35000000    33.23000000
   H     -2.49000000    14.65000000    32.60000000
   H     -2.64000000    16.16000000    32.71000000
   O     -6.92000000    14.16000000    33.21000000
   H     -7.55000000    14.81000000    32.89000000
   H     -7.32000000    13.32000000    33.00000000

Ca 1.00



