%chk=loop2.cluster122.chk
%nprocshared=20
%mem=10GB
%nosave
#b3lyp/svp scf=(tight,noincore,xqc) Test 
#IOP(5/87=12) Density=Current Pop=(MK,readradii) iop(6/33=2) iop(6/42=6)

loop2.cluster122 

   -2  1 
   C     50.28000000    13.84000000    18.35000000
   C     49.55000000    12.52000000    18.12000000
   O     49.12000000    11.83000000    19.04000000
   H     51.22600000    13.83100000    17.80800000
   H     49.66400000    14.66400000    17.99100000
   H     50.47400000    13.96800000    19.41500000
   N     49.41000000    11.98000000    16.91000000
   C     48.76000000    10.74000000    16.55000000
   C     49.32000000     9.56000000    17.33000000
   O     48.64000000     8.67000000    17.84000000
   C     49.00000000    10.49000000    15.07000000
   C     48.13000000     9.42000000    14.42000000
   O     48.63000000     8.29000000    14.25000000
   O     46.97000000     9.71000000    14.08000000
   H     49.59000000    12.59000000    16.13000000
   H     47.71000000    10.86000000    16.84000000
   H     50.04000000    10.20000000    14.94000000
   H     48.80000000    11.45000000    14.59000000
   N     50.65000000     9.57000000    17.49000000
   C     51.50000000     8.48000000    17.91000000
   C     51.09000000     7.74000000    19.18000000
   O     51.13000000     6.52000000    19.23000000
   C     51.97000000     7.57000000    16.78000000
   H     51.08000000    10.35000000    17.01000000
   H     52.42000000     8.99000000    18.19000000
   H     52.75000000     6.87000000    17.07000000
   H     51.19000000     6.90000000    16.43000000
   H     52.32000000     8.14000000    15.92000000
   N     50.54000000     8.44000000    20.18000000
   C     50.05000000     7.94000000    21.44000000
   C     48.71000000     7.22000000    21.36000000
   O     48.26000000     6.58000000    22.31000000
   C     51.09000000     7.22000000    22.31000000
   C     52.43000000     7.87000000    22.60000000
   O     53.30000000     7.18000000    23.18000000
   O     52.56000000     9.07000000    22.27000000
   H     50.39000000     9.40000000    19.89000000
   H     49.81000000     8.85000000    21.98000000
   H     51.21000000     6.25000000    21.82000000
   H     50.73000000     6.91000000    23.29000000
   N     47.98000000     7.31000000    20.25000000
   C     46.75000000     6.58000000    20.06000000
   C     45.69000000     6.78000000    21.13000000
   O     45.54000000     7.88000000    21.68000000
   H     48.36000000     7.90000000    19.52000000
   H     46.91000000     5.50000000    20.04000000
   H     46.27000000     6.84000000    19.11000000
   N     44.85000000     5.80000000    21.48000000
   C     43.84000000     5.97000000    22.51000000
   C     42.86000000     7.12000000    22.34000000
   O     42.36000000     7.71000000    23.29000000
   C     44.41000000     5.75000000    23.90000000
   C     44.81000000     4.31000000    24.20000000
   N     44.37000000     3.76000000    25.33000000
   O     45.47000000     3.65000000    23.39000000
   H     45.10000000     4.87000000    21.18000000
   H     43.20000000     5.11000000    22.32000000
   H     43.67000000     5.93000000    24.69000000
   H     45.31000000     6.35000000    23.95000000
   H     44.00000000     4.42000000    26.00000000
   H     44.82000000     2.90000000    25.62000000
   N     42.51000000     7.46000000    21.10000000
   C     41.65000000     8.59000000    20.80000000
   C     42.37000000     9.93000000    20.70000000
   O     41.71000000    10.93000000    20.43000000
   H     42.87000000     6.95000000    20.30000000
   H     40.89000000     8.67000000    21.57000000
   H     41.04000000     8.33000000    19.93000000
   N     43.66000000    10.06000000    21.05000000
   C     44.44000000    11.27000000    20.96000000
   C     44.75000000    11.94000000    22.29000000
   O     45.02000000    11.32000000    23.32000000
   C     45.74000000    10.85000000    20.27000000
   C     45.56000000     9.90000000    19.09000000
   O     46.43000000    11.88000000    19.59000000
   H     44.09000000     9.21000000    21.36000000
   H     43.93000000    11.95000000    20.27000000
   H     46.41000000    10.51000000    21.06000000
   H     47.38000000    11.75000000    19.57000000
   H     46.52000000     9.77000000    18.60000000
   H     45.19000000     8.93000000    19.43000000
   H     44.79000000    10.33000000    18.45000000
   N     44.68000000    13.27000000    22.31000000
   C     45.21000000    14.01000000    23.44000000
   C     46.69000000    13.85000000    23.74000000
   O     47.42000000    13.52000000    22.81000000
   C     44.84000000    15.46000000    23.15000000
   C     44.99000000    16.37000000    24.36000000
   C     45.55000000    16.17000000    22.00000000
   C     44.33000000    17.75000000    24.26000000
   H     44.27000000    13.76000000    21.53000000
   H     44.63000000    13.64000000    24.29000000
   H     43.81000000    15.53000000    22.80000000
   H     46.01000000    16.50000000    24.70000000
   H     44.42000000    15.74000000    25.04000000
   H     46.61000000    16.30000000    22.20000000
   H     45.49000000    15.54000000    21.11000000
   H     45.09000000    17.14000000    21.78000000
   H     43.37000000    17.52000000    23.81000000
   H     44.30000000    18.25000000    25.22000000
   H     44.93000000    18.34000000    23.56000000
   N     47.09000000    13.83000000    25.02000000
   C     48.36000000    13.33000000    25.49000000
   C     48.27000000    12.55000000    26.80000000
   O     49.07000000    12.74000000    27.71000000
   C     49.33000000    14.50000000    25.43000000
   C     50.80000000    14.11000000    25.38000000
   O     51.11000000    13.16000000    24.63000000
   O     51.70000000    14.78000000    25.95000000
   H     46.37000000    14.18000000    25.63000000
   H     48.71000000    12.60000000    24.76000000
   H     49.22000000    15.13000000    26.31000000
   H     49.04000000    15.05000000    24.53000000
   N     47.27000000    11.67000000    26.89000000
   C     47.26000000    10.65000000    27.92000000
   C     46.74000000    11.05000000    29.29000000
   O     47.46000000    10.58000000    30.17000000
   C     46.45000000     9.44000000    27.48000000
   C     44.95000000     9.61000000    27.59000000
   C     44.25000000     9.08000000    28.68000000
   C     44.22000000    10.20000000    26.55000000
   C     42.85000000     9.22000000    28.72000000
   C     42.84000000    10.42000000    26.63000000
   C     42.13000000     9.82000000    27.68000000
   H     46.72000000    11.59000000    26.05000000
   H     48.26000000    10.27000000    28.12000000
   H     46.64000000     8.62000000    28.17000000
   H     46.73000000     9.16000000    26.47000000
   H     44.87000000     8.59000000    29.41000000
   H     44.70000000    10.46000000    25.62000000
   H     42.34000000     8.76000000    29.54000000
   H     42.38000000    10.87000000    25.76000000
   H     41.06000000     9.79000000    27.57000000
   N     45.81000000    11.97000000    29.56000000
   C     44.95000000    12.72000000    28.65000000
   C     45.49000000    14.11000000    28.35000000
   O     45.36000000    14.54000000    27.21000000
   C     43.59000000    12.82000000    29.34000000
   C     43.81000000    12.17000000    30.70000000
   C     45.32000000    12.14000000    30.91000000
   H     44.84000000    12.24000000    27.68000000
   H     43.32000000    13.86000000    29.50000000
   H     42.80000000    12.23000000    28.86000000
   H     43.19000000    12.70000000    31.43000000
   H     43.47000000    11.14000000    30.66000000
   H     45.68000000    13.09000000    31.29000000
   H     45.57000000    11.32000000    31.58000000
   N     46.03000000    14.83000000    29.34000000
   C     46.34000000    16.24000000    29.41000000
   C     47.54000000    16.65000000    28.57000000
   O     48.67000000    16.21000000    28.75000000
   C     46.48000000    16.64000000    30.88000000
   C     45.30000000    16.40000000    31.81000000
   C     45.42000000    16.90000000    33.24000000
   O     46.41000000    16.45000000    33.86000000
   O     44.62000000    17.75000000    33.68000000
   H     46.30000000    14.35000000    30.19000000
   H     45.48000000    16.79000000    29.02000000
   H     46.70000000    17.71000000    30.92000000
   H     47.35000000    16.10000000    31.25000000
   H     44.99000000    15.36000000    31.79000000
   H     44.46000000    16.96000000    31.40000000
   N     47.37000000    17.77000000    27.87000000
   C     48.18000000    18.37000000    26.83000000
   H     49.15900000    17.89000000    26.81000000
   H     47.69100000    18.23600000    25.86500000
   H     48.30200000    19.43400000    27.03200000
   H     46.60000000    18.36000000    28.16000000
  Ca     52.08000000    11.43000000    22.88000000
   O     49.56000000    12.16000000    21.88000000
   H     49.69000000    12.28000000    20.94000000
   H     48.90000000    12.81000000    22.12000000
   O     53.19000000    10.62000000    25.09000000
   H     52.55000000    10.16000000    25.64000000
   H     54.04000000    10.33000000    25.43000000
   O     52.52000000    13.99000000    21.96000000
   H     52.16000000    14.80000000    22.31000000
   H     52.82000000    14.21000000    21.08000000
   O     50.16000000    10.26000000    24.17000000
   H     50.14000000     9.35000000    24.46000000
   H     49.31000000    10.39000000    23.75000000
   O     54.69000000    11.25000000    22.15000000
   H     55.25000000    12.01000000    22.26000000
   H     54.85000000    10.96000000    21.25000000
   O     52.11000000    10.92000000    20.26000000
   H     52.64000000    10.12000000    20.31000000
   H     52.13000000    11.15000000    19.33000000

Ca 1.00



