%chk=loop2.cluster140.chk
%nprocshared=20
%mem=10GB
%nosave
#b3lyp/svp scf=(tight,noincore,xqc) Test 
#IOP(5/87=12) Density=Current Pop=(MK,readradii) iop(6/33=2) iop(6/42=6)

loop2.cluster140 

   -2  1 
   C     59.03000000    50.99000000    18.24000000
   C     60.14000000    50.90000000    17.20000000
   O     61.14000000    51.62000000    17.28000000
   H     58.12400000    50.53200000    17.84400000
   H     59.33600000    50.46500000    19.14500000
   H     58.83500000    52.03600000    18.47500000
   N     59.92000000    50.10000000    16.15000000
   C     61.09000000    49.67000000    15.41000000
   C     61.40000000    50.65000000    14.29000000
   O     60.73000000    50.59000000    13.25000000
   C     60.85000000    48.25000000    14.90000000
   C     62.11000000    47.65000000    14.29000000
   O     63.10000000    48.39000000    14.08000000
   O     62.21000000    46.41000000    14.29000000
   H     59.06000000    49.60000000    16.04000000
   H     61.92000000    49.60000000    16.10000000
   H     60.07000000    48.23000000    14.13000000
   H     60.45000000    47.62000000    15.69000000
   N     62.46000000    51.43000000    14.50000000
   C     63.01000000    52.37000000    13.54000000
   C     64.00000000    51.94000000    12.47000000
   O     64.51000000    52.81000000    11.76000000
   C     63.46000000    53.60000000    14.32000000
   H     62.93000000    51.33000000    15.38000000
   H     62.12000000    52.71000000    13.00000000
   H     62.65000000    53.84000000    15.01000000
   H     64.29000000    53.40000000    14.99000000
   H     63.66000000    54.45000000    13.66000000
   N     64.32000000    50.65000000    12.33000000
   C     65.08000000    50.19000000    11.19000000
   C     64.58000000    48.86000000    10.64000000
   O     65.13000000    48.40000000     9.64000000
   C     66.52000000    50.13000000    11.69000000
   C     66.69000000    49.33000000    12.98000000
   O     65.89000000    48.40000000    13.20000000
   O     67.51000000    49.65000000    13.87000000
   H     63.94000000    50.06000000    13.05000000
   H     65.16000000    50.85000000    10.33000000
   H     66.95000000    51.12000000    11.85000000
   H     67.05000000    49.56000000    10.93000000
   N     63.61000000    48.18000000    11.25000000
   C     62.91000000    46.98000000    10.84000000
   C     63.59000000    45.65000000    11.13000000
   O     63.23000000    44.64000000    10.53000000
   H     63.33000000    48.47000000    12.18000000
   H     62.74000000    46.92000000     9.76000000
   H     61.92000000    46.93000000    11.29000000
   N     64.55000000    45.62000000    12.06000000
   C     65.40000000    44.47000000    12.31000000
   C     64.80000000    43.50000000    13.32000000
   O     65.39000000    42.46000000    13.61000000
   C     66.79000000    44.98000000    12.71000000
   C     66.98000000    45.66000000    14.06000000
   N     68.15000000    46.26000000    14.29000000
   O     66.08000000    45.80000000    14.88000000
   H     64.78000000    46.48000000    12.54000000
   H     65.59000000    43.91000000    11.40000000
   H     67.22000000    45.55000000    11.90000000
   H     67.47000000    44.14000000    12.83000000
   H     68.89000000    46.27000000    13.61000000
   H     68.33000000    46.70000000    15.19000000
   N     63.68000000    43.85000000    13.95000000
   C     63.01000000    43.03000000    14.94000000
   C     63.74000000    42.93000000    16.27000000
   O     63.63000000    41.90000000    16.94000000
   H     63.34000000    44.77000000    13.72000000
   H     62.82000000    41.99000000    14.66000000
   H     62.08000000    43.49000000    15.26000000
   N     64.57000000    43.88000000    16.70000000
   C     65.23000000    44.08000000    17.97000000
   C     65.14000000    45.54000000    18.38000000
   O     65.35000000    46.36000000    17.48000000
   C     66.71000000    43.67000000    17.97000000
   C     66.93000000    42.17000000    18.11000000
   O     67.40000000    44.16000000    16.84000000
   H     64.78000000    44.58000000    16.00000000
   H     64.76000000    43.53000000    18.78000000
   H     67.04000000    44.15000000    18.89000000
   H     67.14000000    45.08000000    16.76000000
   H     66.46000000    41.60000000    17.31000000
   H     68.01000000    42.06000000    18.21000000
   H     66.53000000    41.74000000    19.03000000
   N     64.79000000    45.86000000    19.63000000
   C     64.88000000    47.22000000    20.09000000
   C     66.33000000    47.63000000    20.33000000
   O     66.98000000    47.17000000    21.27000000
   C     64.09000000    47.42000000    21.39000000
   C     62.66000000    46.87000000    21.35000000
   C     63.92000000    48.90000000    21.70000000
   C     61.86000000    46.65000000    22.63000000
   H     64.63000000    45.15000000    20.33000000
   H     64.44000000    47.85000000    19.32000000
   H     64.52000000    46.89000000    22.24000000
   H     62.75000000    45.89000000    20.88000000
   H     62.15000000    47.45000000    20.59000000
   H     63.63000000    49.47000000    20.81000000
   H     63.17000000    49.11000000    22.47000000
   H     64.86000000    49.28000000    22.10000000
   H     61.91000000    47.41000000    23.41000000
   H     60.82000000    46.47000000    22.37000000
   H     62.22000000    45.69000000    22.99000000
   N     66.85000000    48.53000000    19.50000000
   C     68.21000000    49.01000000    19.56000000
   C     68.31000000    50.13000000    20.58000000
   O     67.33000000    50.84000000    20.83000000
   C     68.63000000    49.48000000    18.17000000
   C     68.68000000    48.51000000    16.99000000
   O     67.65000000    47.87000000    16.70000000
   O     69.68000000    48.47000000    16.24000000
   H     66.27000000    49.00000000    18.82000000
   H     68.89000000    48.25000000    19.95000000
   H     69.65000000    49.85000000    18.24000000
   H     68.01000000    50.35000000    17.97000000
   N     69.53000000    50.38000000    21.07000000
   C     69.74000000    51.37000000    22.10000000
   C     69.51000000    52.79000000    21.58000000
   O     68.97000000    53.59000000    22.34000000
   C     71.12000000    51.25000000    22.74000000
   C     71.29000000    51.95000000    24.06000000
   C     72.56000000    52.30000000    24.53000000
   C     70.24000000    52.16000000    24.97000000
   C     72.83000000    53.01000000    25.70000000
   C     70.44000000    52.88000000    26.16000000
   C     71.72000000    53.31000000    26.52000000
   H     70.22000000    49.65000000    20.98000000
   H     68.95000000    51.21000000    22.84000000
   H     71.91000000    51.62000000    22.08000000
   H     71.23000000    50.19000000    22.95000000
   H     73.42000000    52.10000000    23.91000000
   H     69.25000000    51.76000000    24.81000000
   H     73.82000000    53.32000000    25.99000000
   H     69.59000000    53.04000000    26.81000000
   H     71.96000000    53.80000000    27.45000000
   N     69.81000000    53.29000000    20.38000000
   C     69.50000000    54.63000000    19.94000000
   C     68.01000000    54.93000000    19.92000000
   O     67.48000000    56.03000000    20.11000000
   C     70.08000000    54.71000000    18.53000000
   C     71.24000000    53.71000000    18.51000000
   C     70.60000000    52.62000000    19.37000000
   H     70.08000000    55.29000000    20.58000000
   H     69.34000000    54.34000000    17.82000000
   H     70.49000000    55.70000000    18.38000000
   H     71.50000000    53.32000000    17.53000000
   H     72.09000000    54.13000000    19.04000000
   H     69.90000000    52.04000000    18.76000000
   H     71.29000000    51.87000000    19.76000000
   N     67.31000000    53.85000000    19.56000000
   C     65.89000000    53.70000000    19.35000000
   C     65.12000000    53.59000000    20.67000000
   O     64.14000000    54.31000000    20.83000000
   C     65.72000000    52.44000000    18.51000000
   C     64.33000000    52.06000000    17.99000000
   C     64.50000000    50.79000000    17.17000000
   O     64.80000000    50.84000000    15.96000000
   O     64.51000000    49.66000000    17.71000000
   H     67.89000000    53.04000000    19.37000000
   H     65.47000000    54.52000000    18.77000000
   H     66.18000000    51.62000000    19.05000000
   H     66.34000000    52.57000000    17.62000000
   H     63.83000000    52.85000000    17.42000000
   H     63.71000000    51.88000000    18.87000000
   N     65.61000000    52.88000000    21.68000000
   C     65.19000000    52.79000000    23.07000000
   H     64.15900000    52.43900000    23.11500000
   H     65.83500000    52.09000000    23.60100000
   H     65.25900000    53.77300000    23.53500000
   H     66.33000000    52.23000000    21.37000000
  Ca     65.26000000    48.31000000    15.62000000

Ca 1.00



