%chk=loop2.cluster115.chk
%nprocshared=20
%mem=10GB
%nosave
#b3lyp/svp scf=(tight,noincore,xqc) Test 
#IOP(5/87=12) Density=Current Pop=(MK,readradii) iop(6/33=2) iop(6/42=6)

loop2.cluster115 

   -2  1 
   C     85.82000000    78.87000000    26.09000000
   C     87.32000000    79.12000000    26.18000000
   O     87.73000000    80.28000000    26.05000000
   H     85.31500000    79.79300000    25.80500000
   H     85.62300000    78.10300000    25.34100000
   H     85.44800000    78.53700000    27.05900000
   N     88.11000000    78.05000000    26.30000000
   C     89.55000000    78.06000000    26.41000000
   C     90.18000000    78.76000000    27.60000000
   O     91.11000000    78.27000000    28.24000000
   C     90.07000000    76.65000000    26.16000000
   C     91.49000000    76.58000000    25.62000000
   O     92.12000000    77.64000000    25.40000000
   O     92.04000000    75.46000000    25.56000000
   H     87.59000000    77.19000000    26.37000000
   H     89.94000000    78.64000000    25.57000000
   H     89.43000000    76.18000000    25.41000000
   H     89.95000000    76.09000000    27.09000000
   N     89.53000000    79.81000000    28.12000000
   C     89.76000000    80.56000000    29.33000000
   C     88.45000000    81.03000000    29.95000000
   O     87.49000000    81.36000000    29.26000000
   C     90.62000000    81.72000000    28.85000000
   H     88.85000000    80.27000000    27.53000000
   H     90.22000000    79.93000000    30.09000000
   H     91.53000000    81.24000000    28.49000000
   H     90.13000000    82.30000000    28.06000000
   H     90.82000000    82.42000000    29.66000000
   N     88.25000000    81.12000000    31.27000000
   C     89.15000000    81.08000000    32.40000000
   C     88.88000000    79.94000000    33.37000000
   O     87.81000000    79.32000000    33.36000000
   C     89.21000000    82.43000000    33.10000000
   C     88.82000000    83.62000000    32.23000000
   O     89.73000000    83.99000000    31.46000000
   O     87.66000000    84.08000000    32.23000000
   H     87.30000000    81.39000000    31.51000000
   H     90.12000000    80.90000000    31.93000000
   H     90.22000000    82.58000000    33.49000000
   H     88.49000000    82.39000000    33.92000000
   N     89.85000000    79.74000000    34.26000000
   C     90.02000000    78.53000000    35.05000000
   C     90.19000000    77.36000000    34.08000000
   O     90.50000000    77.50000000    32.90000000
   H     90.76000000    80.17000000    34.16000000
   H     89.21000000    78.31000000    35.73000000
   H     90.91000000    78.72000000    35.65000000
   N     89.92000000    76.11000000    34.47000000
   C     89.32000000    75.70000000    35.72000000
   C     87.95000000    76.24000000    36.09000000
   O     87.59000000    76.28000000    37.27000000
   C     89.26000000    74.17000000    35.70000000
   C     90.56000000    73.47000000    35.33000000
   N     91.28000000    72.78000000    36.21000000
   O     91.00000000    73.58000000    34.18000000
   H     90.15000000    75.39000000    33.80000000
   H     90.05000000    75.88000000    36.52000000
   H     88.52000000    73.89000000    34.95000000
   H     88.96000000    73.91000000    36.71000000
   H     90.96000000    72.61000000    37.15000000
   H     92.07000000    72.25000000    35.87000000
   N     87.16000000    76.84000000    35.20000000
   C     85.79000000    77.28000000    35.33000000
   C     85.61000000    78.60000000    36.08000000
   O     84.73000000    78.78000000    36.91000000
   H     87.53000000    77.18000000    34.32000000
   H     85.17000000    76.56000000    35.86000000
   H     85.48000000    77.45000000    34.30000000
   N     86.55000000    79.53000000    35.90000000
   C     86.52000000    80.84000000    36.52000000
   C     85.91000000    81.90000000    35.62000000
   O     86.34000000    82.99000000    35.28000000
   C     87.89000000    81.35000000    36.98000000
   C     87.87000000    82.49000000    38.00000000
   O     88.63000000    80.33000000    37.61000000
   H     87.29000000    79.31000000    35.26000000
   H     85.90000000    80.77000000    37.41000000
   H     88.36000000    81.64000000    36.04000000
   H     89.53000000    80.34000000    37.31000000
   H     88.85000000    82.86000000    38.29000000
   H     87.33000000    83.32000000    37.55000000
   H     87.42000000    82.14000000    38.93000000
   N     84.65000000    81.59000000    35.29000000
   C     83.88000000    82.20000000    34.23000000
   C     83.04000000    83.38000000    34.70000000
   O     82.58000000    83.41000000    35.84000000
   C     82.96000000    81.22000000    33.51000000
   C     83.64000000    80.01000000    32.89000000
   C     81.79000000    80.79000000    34.40000000
   C     84.99000000    80.27000000    32.24000000
   H     84.26000000    80.74000000    35.67000000
   H     84.51000000    82.57000000    33.42000000
   H     82.53000000    81.71000000    32.64000000
   H     83.02000000    79.50000000    32.15000000
   H     83.85000000    79.26000000    33.66000000
   H     82.16000000    80.50000000    35.38000000
   H     81.14000000    81.66000000    34.55000000
   H     81.31000000    79.93000000    33.93000000
   H     85.73000000    80.64000000    32.96000000
   H     85.44000000    79.37000000    31.82000000
   H     84.86000000    80.93000000    31.37000000
   N     82.80000000    84.35000000    33.81000000
   C     81.90000000    85.44000000    34.11000000
   C     80.53000000    85.15000000    33.51000000
   O     80.21000000    84.04000000    33.09000000
   C     82.45000000    86.80000000    33.70000000
   C     82.49000000    86.95000000    32.18000000
   O     83.60000000    87.01000000    31.61000000
   O     81.46000000    87.13000000    31.50000000
   H     83.14000000    84.16000000    32.88000000
   H     81.87000000    85.56000000    35.20000000
   H     83.51000000    86.79000000    33.94000000
   H     81.79000000    87.56000000    34.13000000
   N     79.63000000    86.14000000    33.63000000
   C     78.20000000    86.19000000    33.44000000
   C     77.66000000    85.72000000    32.09000000
   O     77.37000000    84.54000000    31.99000000
   C     77.46000000    85.62000000    34.65000000
   C     76.00000000    85.98000000    34.79000000
   C     75.11000000    85.19000000    34.06000000
   C     75.48000000    86.97000000    35.64000000
   C     73.73000000    85.46000000    34.04000000
   C     74.10000000    87.21000000    35.69000000
   C     73.23000000    86.47000000    34.87000000
   H     79.97000000    87.01000000    34.00000000
   H     77.93000000    87.24000000    33.47000000
   H     77.94000000    85.98000000    35.56000000
   H     77.58000000    84.55000000    34.74000000
   H     75.42000000    84.30000000    33.54000000
   H     76.16000000    87.63000000    36.16000000
   H     73.06000000    84.83000000    33.47000000
   H     73.76000000    88.01000000    36.32000000
   H     72.18000000    86.71000000    34.95000000
   N     77.69000000    86.58000000    31.07000000
   C     77.37000000    86.10000000    29.74000000
   C     78.23000000    84.95000000    29.24000000
   O     77.89000000    84.36000000    28.22000000
   C     77.52000000    87.32000000    28.84000000
   C     77.27000000    88.50000000    29.78000000
   C     77.74000000    88.03000000    31.15000000
   H     76.35000000    85.70000000    29.79000000
   H     78.44000000    87.31000000    28.26000000
   H     76.75000000    87.31000000    28.07000000
   H     77.81000000    89.35000000    29.36000000
   H     76.20000000    88.70000000    29.74000000
   H     78.80000000    88.24000000    31.25000000
   H     77.18000000    88.40000000    32.01000000
   N     79.38000000    84.72000000    29.88000000
   C     80.37000000    83.78000000    29.40000000
   C     80.01000000    82.34000000    29.77000000
   O     80.37000000    81.40000000    29.07000000
   C     81.78000000    84.08000000    29.91000000
   C     82.97000000    83.16000000    29.64000000
   C     84.21000000    83.95000000    30.03000000
   O     84.50000000    83.92000000    31.25000000
   O     84.93000000    84.62000000    29.27000000
   H     79.45000000    85.06000000    30.83000000
   H     80.47000000    83.83000000    28.32000000
   H     81.60000000    84.09000000    30.99000000
   H     81.99000000    85.11000000    29.64000000
   H     83.13000000    82.97000000    28.58000000
   H     82.93000000    82.28000000    30.27000000
   N     79.39000000    82.04000000    30.91000000
   C     78.84000000    80.77000000    31.34000000
   H     77.85900000    80.62800000    30.88800000
   H     79.50300000    79.96200000    31.03000000
   H     78.74300000    80.76400000    32.42600000
   H     79.31000000    82.79000000    31.58000000
  Ca     86.04000000    86.10000000    31.72000000
   O     85.74000000    85.49000000    34.27000000
   H     85.17000000    85.99000000    34.86000000
   H     86.18000000    84.86000000    34.85000000
   O     88.41000000    86.84000000    32.74000000
   H     89.13000000    86.24000000    32.59000000
   H     88.71000000    87.43000000    33.43000000
   O     88.17000000    85.56000000    29.69000000
   H     88.58000000    85.04000000    30.38000000
   H     88.88000000    85.80000000    29.10000000
   O     86.39000000    87.93000000    29.98000000
   H     86.76000000    87.63000000    29.16000000
   H     86.19000000    88.86000000    29.83000000

Ca 1.00



