%chk=loop2.cluster139.chk
%nprocshared=20
%mem=10GB
%nosave
#b3lyp/svp scf=(tight,noincore,xqc) Test 
#IOP(5/87=12) Density=Current Pop=(MK,readradii) iop(6/33=2) iop(6/42=6)

loop2.cluster139 

   -2  1 
   C     91.19000000    77.36000000    32.54000000
   C     92.36000000    76.83000000    33.36000000
   O     93.31000000    77.59000000    33.47000000
   H     90.37200000    77.63100000    33.20800000
   H     91.50700000    78.23900000    31.97900000
   H     90.85200000    76.58900000    31.84700000
   N     92.43000000    75.57000000    33.80000000
   C     93.59000000    74.93000000    34.40000000
   C     93.73000000    75.41000000    35.83000000
   O     94.22000000    74.70000000    36.71000000
   C     93.56000000    73.42000000    34.21000000
   C     94.90000000    72.81000000    34.59000000
   O     94.91000000    71.70000000    35.16000000
   O     95.92000000    73.47000000    34.27000000
   H     91.58000000    75.03000000    33.71000000
   H     94.45000000    75.21000000    33.79000000
   H     93.37000000    73.21000000    33.16000000
   H     92.79000000    73.07000000    34.90000000
   N     93.25000000    76.61000000    36.16000000
   C     93.13000000    77.17000000    37.49000000
   C     92.01000000    78.20000000    37.50000000
   O     91.90000000    78.86000000    36.47000000
   C     94.48000000    77.79000000    37.86000000
   H     92.76000000    77.13000000    35.44000000
   H     92.85000000    76.37000000    38.18000000
   H     95.27000000    77.04000000    37.80000000
   H     94.71000000    78.71000000    37.33000000
   H     94.34000000    78.00000000    38.92000000
   N     91.19000000    78.46000000    38.52000000
   C     91.49000000    78.29000000    39.92000000
   C     91.00000000    76.96000000    40.46000000
   O     90.01000000    76.43000000    39.95000000
   C     91.10000000    79.51000000    40.76000000
   C     91.80000000    80.82000000    40.43000000
   O     92.62000000    80.91000000    39.49000000
   O     91.55000000    81.79000000    41.18000000
   H     90.25000000    78.81000000    38.38000000
   H     92.55000000    78.25000000    40.16000000
   H     91.40000000    79.23000000    41.77000000
   H     90.03000000    79.72000000    40.74000000
   N     91.51000000    76.44000000    41.58000000
   C     90.90000000    75.29000000    42.22000000
   C     90.99000000    74.03000000    41.36000000
   O     91.88000000    73.96000000    40.51000000
   H     92.38000000    76.78000000    41.95000000
   H     89.85000000    75.54000000    42.33000000
   H     91.33000000    75.10000000    43.20000000
   N     90.06000000    73.08000000    41.36000000
   C     89.01000000    72.79000000    42.32000000
   C     87.73000000    73.53000000    42.00000000
   O     86.70000000    73.48000000    42.67000000
   C     88.86000000    71.27000000    42.35000000
   C     90.16000000    70.52000000    42.58000000
   N     90.60000000    70.34000000    43.83000000
   O     90.79000000    70.15000000    41.60000000
   H     90.16000000    72.36000000    40.66000000
   H     89.33000000    73.10000000    43.31000000
   H     88.44000000    70.94000000    41.40000000
   H     88.17000000    70.97000000    43.13000000
   H     90.04000000    70.70000000    44.60000000
   H     91.49000000    69.89000000    43.96000000
   N     87.69000000    74.32000000    40.92000000
   C     86.41000000    74.92000000    40.59000000
   C     86.15000000    76.11000000    41.51000000
   O     85.05000000    76.44000000    41.95000000
   H     88.54000000    74.47000000    40.40000000
   H     85.56000000    74.25000000    40.68000000
   H     86.53000000    75.23000000    39.55000000
   N     87.26000000    76.74000000    41.90000000
   C     87.46000000    77.69000000    42.98000000
   C     87.63000000    79.12000000    42.48000000
   O     88.55000000    79.83000000    42.90000000
   C     88.49000000    77.21000000    43.99000000
   C     88.26000000    77.96000000    45.30000000
   O     88.35000000    75.86000000    44.36000000
   H     88.13000000    76.45000000    41.48000000
   H     86.48000000    77.65000000    43.46000000
   H     89.48000000    77.45000000    43.59000000
   H     89.13000000    75.53000000    44.79000000
   H     89.20000000    77.90000000    45.85000000
   H     88.04000000    79.03000000    45.22000000
   H     87.50000000    77.42000000    45.84000000
   N     86.76000000    79.49000000    41.54000000
   C     86.85000000    80.79000000    40.89000000
   C     86.28000000    81.86000000    41.80000000
   O     85.62000000    81.59000000    42.80000000
   C     86.23000000    80.89000000    39.50000000
   C     87.00000000    80.21000000    38.37000000
   C     84.80000000    80.37000000    39.43000000
   C     87.35000000    78.74000000    38.54000000
   H     86.21000000    78.82000000    41.02000000
   H     87.91000000    81.05000000    40.80000000
   H     86.12000000    81.94000000    39.22000000
   H     87.97000000    80.70000000    38.38000000
   H     86.42000000    80.41000000    37.47000000
   H     84.73000000    79.28000000    39.50000000
   H     84.19000000    80.79000000    40.22000000
   H     84.45000000    80.79000000    38.49000000
   H     87.76000000    78.50000000    39.53000000
   H     86.50000000    78.06000000    38.42000000
   H     88.08000000    78.42000000    37.80000000
   N     86.51000000    83.11000000    41.38000000
   C     85.86000000    84.31000000    41.88000000
   C     84.78000000    84.93000000    41.01000000
   O     84.78000000    84.64000000    39.81000000
   C     86.87000000    85.32000000    42.43000000
   C     87.66000000    86.12000000    41.41000000
   O     88.84000000    85.78000000    41.15000000
   O     87.14000000    87.14000000    40.90000000
   H     87.08000000    83.22000000    40.56000000
   H     85.31000000    84.02000000    42.78000000
   H     87.59000000    84.91000000    43.13000000
   H     86.26000000    86.08000000    42.93000000
   N     84.02000000    85.94000000    41.43000000
   C     82.88000000    86.54000000    40.77000000
   C     82.96000000    86.86000000    39.29000000
   O     82.34000000    86.28000000    38.40000000
   C     81.71000000    85.66000000    41.18000000
   C     80.38000000    86.37000000    41.06000000
   C     79.60000000    86.30000000    39.89000000
   C     79.83000000    86.95000000    42.21000000
   C     78.33000000    86.89000000    39.90000000
   C     78.53000000    87.46000000    42.26000000
   C     77.80000000    87.46000000    41.06000000
   H     84.08000000    86.03000000    42.43000000
   H     82.69000000    87.51000000    41.23000000
   H     81.83000000    85.26000000    42.19000000
   H     81.81000000    84.73000000    40.61000000
   H     79.88000000    85.72000000    39.03000000
   H     80.43000000    86.97000000    43.10000000
   H     77.83000000    87.07000000    38.96000000
   H     78.06000000    87.86000000    43.15000000
   H     76.79000000    87.85000000    41.06000000
   N     83.77000000    87.87000000    38.92000000
   C     84.01000000    88.27000000    37.55000000
   C     84.88000000    87.25000000    36.82000000
   O     84.94000000    87.23000000    35.60000000
   C     84.75000000    89.59000000    37.69000000
   C     85.40000000    89.55000000    39.07000000
   C     84.36000000    88.78000000    39.87000000
   H     83.09000000    88.42000000    36.97000000
   H     85.51000000    89.80000000    36.95000000
   H     84.05000000    90.43000000    37.68000000
   H     86.30000000    88.94000000    39.03000000
   H     85.62000000    90.52000000    39.53000000
   H     84.85000000    88.19000000    40.65000000
   H     83.61000000    89.45000000    40.29000000
   N     85.64000000    86.37000000    37.47000000
   C     86.46000000    85.32000000    36.88000000
   C     85.64000000    84.15000000    36.37000000
   O     85.98000000    83.70000000    35.28000000
   C     87.38000000    84.79000000    37.97000000
   C     88.58000000    83.97000000    37.52000000
   C     89.46000000    83.63000000    38.71000000
   O     88.96000000    82.97000000    39.65000000
   O     90.60000000    84.14000000    38.76000000
   H     85.82000000    86.52000000    38.45000000
   H     87.05000000    85.66000000    36.03000000
   H     86.85000000    84.20000000    38.72000000
   H     87.80000000    85.64000000    38.51000000
   H     89.17000000    84.50000000    36.77000000
   H     88.15000000    83.07000000    37.10000000
   N     84.48000000    83.85000000    36.96000000
   C     83.39000000    83.03000000    36.45000000
   H     82.54600000    83.66900000    36.19100000
   H     83.72400000    82.49300000    35.56200000
   H     83.08400000    82.31600000    37.21400000
   H     84.32000000    84.45000000    37.76000000
  Ca     90.87000000    84.16000000    41.20000000
   O     89.36000000    82.55000000    43.06000000
   H     88.73000000    82.71000000    43.76000000
   H     89.36000000    81.60000000    42.95000000
   O     92.28000000    86.31000000    40.86000000
   H     92.06000000    87.16000000    41.23000000
   H     93.23000000    86.24000000    40.95000000
   O     93.52000000    83.44000000    39.96000000
   H     93.31000000    82.51000000    39.90000000
   H     94.47000000    83.48000000    39.84000000
   O     93.19000000    83.73000000    42.88000000
   H     93.69000000    83.38000000    43.62000000
   H     93.81000000    83.75000000    42.15000000

Ca 1.00



