%chk=loop2.cluster102.chk
%nprocshared=20
%mem=10GB
%nosave
#b3lyp/svp scf=(tight,noincore,xqc) Test 
#IOP(5/87=12) Density=Current Pop=(MK,readradii) iop(6/33=2) iop(6/42=6)

loop2.cluster102 

   -2  1 
   C     91.58000000    47.82000000   -13.48000000
   C     90.14000000    47.34000000   -13.53000000
   O     89.28000000    47.75000000   -12.76000000
   H     92.20400000    47.16000000   -14.08300000
   H     91.63900000    48.83500000   -13.87400000
   H     91.93200000    47.80900000   -12.44800000
   N     89.71000000    46.38000000   -14.36000000
   C     90.26000000    45.93000000   -15.62000000
   C     90.02000000    44.44000000   -15.86000000
   O     88.93000000    43.95000000   -15.57000000
   C     89.59000000    46.72000000   -16.74000000
   C     88.10000000    47.01000000   -16.67000000
   O     87.61000000    47.76000000   -17.54000000
   O     87.45000000    46.38000000   -15.80000000
   H     88.76000000    46.08000000   -14.18000000
   H     91.33000000    46.09000000   -15.64000000
   H     89.87000000    46.18000000   -17.65000000
   H     90.12000000    47.67000000   -16.80000000
   N     91.01000000    43.84000000   -16.53000000
   C     91.11000000    42.44000000   -16.89000000
   C     90.05000000    41.81000000   -17.78000000
   O     90.40000000    40.83000000   -18.43000000
   C     91.37000000    41.53000000   -15.69000000
   H     91.84000000    44.40000000   -16.66000000
   H     92.03000000    42.38000000   -17.47000000
   H     92.45000000    41.60000000   -15.57000000
   H     90.90000000    41.89000000   -14.78000000
   H     91.20000000    40.48000000   -15.91000000
   N     88.83000000    42.35000000   -17.79000000
   C     87.86000000    42.47000000   -18.86000000
   C     87.07000000    43.77000000   -18.83000000
   O     86.57000000    44.26000000   -17.82000000
   C     86.91000000    41.27000000   -18.82000000
   C     86.30000000    40.91000000   -17.47000000
   O     86.21000000    41.75000000   -16.55000000
   O     85.83000000    39.76000000   -17.37000000
   H     88.74000000    43.07000000   -17.09000000
   H     88.38000000    42.37000000   -19.82000000
   H     87.55000000    40.42000000   -19.06000000
   H     86.17000000    41.31000000   -19.61000000
   N     87.02000000    44.42000000   -20.00000000
   C     86.79000000    45.83000000   -20.21000000
   C     85.42000000    46.43000000   -19.90000000
   O     85.04000000    47.40000000   -20.56000000
   H     87.38000000    43.98000000   -20.83000000
   H     87.05000000    46.07000000   -21.25000000
   H     87.45000000    46.38000000   -19.54000000
   N     84.66000000    45.82000000   -18.99000000
   C     83.24000000    46.11000000   -18.92000000
   C     82.83000000    47.46000000   -18.35000000
   O     81.75000000    47.94000000   -18.67000000
   C     82.49000000    44.97000000   -18.24000000
   C     82.76000000    44.82000000   -16.75000000
   N     81.94000000    45.33000000   -15.83000000
   O     83.79000000    44.31000000   -16.32000000
   H     84.98000000    45.04000000   -18.44000000
   H     82.92000000    46.17000000   -19.96000000
   H     82.93000000    44.08000000   -18.68000000
   H     81.43000000    45.00000000   -18.48000000
   H     81.03000000    45.57000000   -16.20000000
   H     82.24000000    45.50000000   -14.88000000
   N     83.70000000    48.23000000   -17.68000000
   C     83.46000000    49.51000000   -17.05000000
   C     82.96000000    49.36000000   -15.62000000
   O     82.87000000    48.25000000   -15.10000000
   H     84.56000000    47.77000000   -17.44000000
   H     82.76000000    50.07000000   -17.66000000
   H     84.43000000    50.00000000   -16.98000000
   N     82.58000000    50.45000000   -14.95000000
   C     82.48000000    51.85000000   -15.32000000
   C     83.50000000    52.74000000   -14.65000000
   O     83.57000000    53.92000000   -15.01000000
   C     81.08000000    52.39000000   -15.05000000
   C     80.06000000    51.47000000   -15.73000000
   O     80.73000000    52.36000000   -13.69000000
   H     82.24000000    50.15000000   -14.05000000
   H     82.59000000    51.97000000   -16.40000000
   H     81.03000000    53.42000000   -15.43000000
   H     80.96000000    53.24000000   -13.36000000
   H     80.25000000    51.51000000   -16.80000000
   H     80.18000000    50.44000000   -15.40000000
   H     79.09000000    51.93000000   -15.55000000
   N     84.11000000    52.28000000   -13.55000000
   C     84.64000000    53.01000000   -12.42000000
   C     83.91000000    54.26000000   -11.97000000
   O     84.23000000    55.39000000   -12.34000000
   C     86.12000000    53.21000000   -12.74000000
   C     86.83000000    51.95000000   -13.23000000
   C     86.84000000    53.73000000   -11.49000000
   C     88.33000000    52.00000000   -13.54000000
   H     83.89000000    51.34000000   -13.24000000
   H     84.52000000    52.34000000   -11.57000000
   H     86.23000000    53.92000000   -13.55000000
   H     86.36000000    51.69000000   -14.18000000
   H     86.69000000    51.16000000   -12.49000000
   H     87.88000000    53.92000000   -11.76000000
   H     86.46000000    54.68000000   -11.12000000
   H     86.93000000    52.99000000   -10.69000000
   H     88.58000000    52.82000000   -14.20000000
   H     88.90000000    52.20000000   -12.63000000
   H     88.57000000    51.08000000   -14.07000000
   N     82.88000000    54.18000000   -11.13000000
   C     82.31000000    53.02000000   -10.48000000
   C     83.02000000    52.73000000    -9.16000000
   O     83.63000000    51.68000000    -9.00000000
   C     80.80000000    53.16000000   -10.33000000
   C     80.16000000    54.37000000    -9.67000000
   O     78.92000000    54.51000000    -9.78000000
   O     80.77000000    55.20000000    -8.97000000
   H     82.41000000    55.04000000   -10.86000000
   H     82.47000000    52.13000000   -11.08000000
   H     80.40000000    52.29000000    -9.81000000
   H     80.39000000    53.17000000   -11.34000000
   N     83.00000000    53.65000000    -8.19000000
   C     83.50000000    53.40000000    -6.86000000
   C     82.40000000    53.03000000    -5.87000000
   O     81.23000000    53.25000000    -6.14000000
   C     84.45000000    54.52000000    -6.46000000
   C     83.78000000    55.79000000    -5.99000000
   C     83.62000000    56.90000000    -6.84000000
   C     83.41000000    55.81000000    -4.64000000
   C     82.99000000    58.06000000    -6.38000000
   C     82.83000000    57.00000000    -4.18000000
   C     82.61000000    58.09000000    -5.03000000
   H     82.44000000    54.48000000    -8.37000000
   H     84.15000000    52.52000000    -6.82000000
   H     84.98000000    54.78000000    -7.38000000
   H     85.20000000    54.20000000    -5.74000000
   H     83.92000000    56.83000000    -7.87000000
   H     83.63000000    55.01000000    -3.94000000
   H     82.89000000    58.89000000    -7.07000000
   H     82.49000000    57.10000000    -3.16000000
   H     82.15000000    58.98000000    -4.64000000
   N     82.64000000    52.36000000    -4.74000000
   C     83.97000000    52.06000000    -4.25000000
   C     84.66000000    50.91000000    -4.96000000
   O     84.01000000    50.00000000    -5.47000000
   C     83.87000000    51.75000000    -2.76000000
   C     82.55000000    52.46000000    -2.47000000
   C     81.67000000    52.14000000    -3.68000000
   H     84.60000000    52.95000000    -4.35000000
   H     83.81000000    50.69000000    -2.53000000
   H     84.69000000    52.22000000    -2.23000000
   H     82.19000000    52.17000000    -1.48000000
   H     82.86000000    53.51000000    -2.53000000
   H     81.39000000    51.09000000    -3.66000000
   H     80.84000000    52.85000000    -3.77000000
   N     85.99000000    50.87000000    -4.85000000
   C     86.83000000    49.75000000    -5.24000000
   C     88.28000000    50.10000000    -5.56000000
   O     89.16000000    49.26000000    -5.40000000
   C     86.72000000    48.63000000    -4.22000000
   C     86.68000000    49.02000000    -2.74000000
   C     88.00000000    49.68000000    -2.36000000
   O     88.95000000    48.92000000    -2.08000000
   O     88.10000000    50.91000000    -2.20000000
   H     86.38000000    51.59000000    -4.25000000
   H     86.33000000    49.40000000    -6.14000000
   H     87.40000000    47.80000000    -4.43000000
   H     85.83000000    48.07000000    -4.52000000
   H     86.57000000    48.07000000    -2.22000000
   H     85.85000000    49.70000000    -2.52000000
   N     88.68000000    51.30000000    -5.98000000
   C     88.05000000    52.55000000    -6.36000000
   H     87.10900000    52.66100000    -5.82100000
   H     88.71000000    53.38100000    -6.11100000
   H     87.85600000    52.54800000    -7.43300000
   H     89.67000000    51.31000000    -6.18000000
  Ca     86.27000000    43.91000000   -15.13300000
   O     87.08000000    41.62000000   -13.90300000
   H     87.06000000    40.72000000   -14.21300000
   H     87.82000000    41.65000000   -13.29300000
   O     87.38000000    44.28000000   -12.77300000
   H     88.03000000    43.60000000   -12.58300000
   H     87.49000000    44.92000000   -12.07300000
   O     85.14000000    46.36000000   -14.46300000
   H     84.34000000    46.85000000   -14.64300000
   H     85.79000000    47.03000000   -14.24300000
   O     84.60000000    43.34000000   -13.16300000
   H     83.76000000    43.76000000   -12.97300000
   H     85.02000000    43.26000000   -12.31300000

Ca 1.00



