%chk=loop2.cluster51.chk
%nprocshared=20
%mem=10GB
%nosave
#b3lyp/svp scf=(tight,noincore,xqc) Test 
#IOP(5/87=12) Density=Current Pop=(MK,readradii) iop(6/33=2) iop(6/42=6)

loop2.cluster51 

   -2  1 
   C     50.91000000    42.84000000    16.76000000
   C     52.24000000    42.41000000    16.16000000
   O     52.99000000    43.36000000    15.92000000
   H     50.13800000    42.12300000    16.48100000
   H     50.99600000    42.87700000    17.84600000
   H     50.64200000    43.82700000    16.38200000
   N     52.50000000    41.13000000    15.90000000
   C     53.52000000    40.54000000    15.06000000
   C     53.41000000    41.06000000    13.63000000
   O     52.35000000    40.84000000    13.05000000
   C     53.43000000    39.01000000    15.09000000
   C     54.69000000    38.35000000    14.54000000
   O     55.84000000    38.80000000    14.72000000
   O     54.52000000    37.18000000    14.14000000
   H     51.77000000    40.47000000    16.14000000
   H     54.48000000    40.89000000    15.42000000
   H     52.57000000    38.77000000    14.47000000
   H     53.36000000    38.69000000    16.13000000
   N     54.38000000    41.77000000    13.05000000
   C     54.42000000    42.43000000    11.75000000
   C     55.34000000    41.79000000    10.72000000
   O     55.19000000    41.98000000     9.52000000
   C     54.79000000    43.91000000    11.82000000
   H     55.24000000    41.94000000    13.54000000
   H     53.41000000    42.35000000    11.35000000
   H     54.67000000    44.44000000    10.88000000
   H     54.20000000    44.38000000    12.60000000
   H     55.81000000    43.84000000    12.20000000
   N     56.33000000    41.03000000    11.20000000
   C     57.29000000    40.33000000    10.38000000
   C     56.97000000    38.84000000    10.31000000
   O     57.58000000    38.23000000     9.43000000
   C     58.69000000    40.61000000    10.91000000
   C     58.97000000    40.13000000    12.33000000
   O     58.59000000    38.99000000    12.68000000
   O     59.54000000    40.80000000    13.22000000
   H     56.47000000    41.06000000    12.20000000
   H     57.22000000    40.66000000     9.34000000
   H     58.80000000    41.69000000    10.91000000
   H     59.43000000    40.12000000    10.28000000
   N     56.07000000    38.34000000    11.16000000
   C     55.66000000    36.96000000    11.20000000
   C     56.53000000    35.90000000    11.86000000
   O     56.25000000    34.71000000    11.69000000
   H     55.73000000    39.00000000    11.85000000
   H     55.61000000    36.56000000    10.19000000
   H     54.67000000    36.84000000    11.65000000
   N     57.59000000    36.25000000    12.59000000
   C     58.36000000    35.26000000    13.32000000
   C     57.86000000    34.86000000    14.70000000
   O     58.53000000    34.11000000    15.41000000
   C     59.78000000    35.79000000    13.39000000
   C     60.00000000    36.81000000    14.50000000
   N     61.28000000    36.89000000    14.86000000
   O     59.10000000    37.43000000    15.07000000
   H     57.88000000    37.21000000    12.71000000
   H     58.32000000    34.42000000    12.62000000
   H     60.08000000    36.29000000    12.47000000
   H     60.37000000    34.87000000    13.41000000
   H     62.03000000    36.33000000    14.48000000
   H     61.54000000    37.46000000    15.66000000
   N     56.66000000    35.27000000    15.12000000
   C     55.93000000    34.69000000    16.22000000
   C     56.51000000    35.08000000    17.58000000
   O     56.31000000    34.32000000    18.53000000
   H     56.24000000    36.03000000    14.60000000
   H     55.88000000    33.61000000    16.09000000
   H     54.86000000    34.90000000    16.30000000
   N     57.27000000    36.17000000    17.65000000
   C     57.81000000    36.76000000    18.86000000
   C     57.79000000    38.29000000    18.84000000
   O     58.12000000    38.80000000    17.78000000
   C     59.24000000    36.34000000    19.19000000
   C     59.26000000    34.90000000    19.67000000
   O     60.11000000    36.36000000    18.09000000
   H     57.46000000    36.56000000    16.74000000
   H     57.28000000    36.47000000    19.76000000
   H     59.63000000    36.96000000    20.00000000
   H     60.90000000    35.92000000    18.42000000
   H     58.85000000    34.83000000    20.68000000
   H     58.75000000    34.28000000    18.94000000
   H     60.28000000    34.53000000    19.83000000
   N     57.36000000    38.98000000    19.90000000
   C     57.35000000    40.43000000    19.83000000
   C     58.81000000    40.81000000    20.02000000
   O     59.50000000    40.31000000    20.91000000
   C     56.52000000    41.04000000    20.96000000
   C     55.12000000    40.42000000    20.96000000
   C     56.45000000    42.55000000    20.79000000
   C     54.16000000    40.97000000    22.00000000
   H     57.23000000    38.59000000    20.82000000
   H     57.01000000    40.82000000    18.87000000
   H     57.01000000    40.72000000    21.88000000
   H     55.25000000    39.35000000    21.09000000
   H     54.67000000    40.62000000    19.98000000
   H     55.87000000    42.88000000    19.93000000
   H     55.88000000    42.97000000    21.62000000
   H     57.41000000    43.07000000    20.78000000
   H     53.42000000    40.22000000    22.27000000
   H     54.75000000    41.17000000    22.89000000
   H     53.73000000    41.92000000    21.67000000
   N     59.24000000    41.75000000    19.17000000
   C     60.52000000    42.40000000    19.33000000
   C     60.34000000    43.89000000    19.58000000
   O     59.27000000    44.48000000    19.44000000
   C     61.40000000    42.06000000    18.12000000
   C     60.73000000    42.08000000    16.76000000
   O     60.55000000    43.19000000    16.22000000
   O     60.28000000    41.00000000    16.31000000
   H     58.53000000    42.06000000    18.52000000
   H     60.98000000    42.14000000    20.28000000
   H     61.76000000    41.05000000    18.32000000
   H     62.27000000    42.71000000    18.07000000
   N     61.39000000    44.59000000    20.02000000
   C     61.21000000    45.99000000    20.32000000
   C     60.70000000    46.95000000    19.26000000
   O     59.78000000    47.68000000    19.62000000
   C     62.52000000    46.37000000    21.01000000
   C     62.46000000    47.59000000    21.90000000
   C     63.01000000    48.83000000    21.53000000
   C     61.74000000    47.47000000    23.09000000
   C     63.03000000    49.94000000    22.38000000
   C     61.64000000    48.62000000    23.89000000
   C     62.39000000    49.77000000    23.61000000
   H     62.31000000    44.18000000    20.03000000
   H     60.45000000    45.98000000    21.10000000
   H     63.35000000    46.46000000    20.31000000
   H     62.80000000    45.51000000    21.62000000
   H     63.53000000    48.89000000    20.59000000
   H     61.26000000    46.55000000    23.42000000
   H     63.60000000    50.84000000    22.21000000
   H     61.08000000    48.51000000    24.80000000
   H     62.43000000    50.61000000    24.28000000
   N     60.95000000    46.86000000    17.95000000
   C     60.30000000    47.68000000    16.95000000
   C     58.81000000    47.44000000    16.76000000
   O     58.09000000    48.40000000    16.51000000
   C     61.13000000    47.48000000    15.69000000
   C     62.49000000    47.00000000    16.20000000
   C     62.05000000    46.12000000    17.37000000
   H     60.34000000    48.73000000    17.23000000
   H     60.64000000    46.72000000    15.08000000
   H     61.19000000    48.48000000    15.26000000
   H     63.10000000    46.39000000    15.53000000
   H     63.04000000    47.87000000    16.55000000
   H     61.58000000    45.21000000    16.99000000
   H     62.82000000    45.99000000    18.13000000
   N     58.30000000    46.22000000    16.99000000
   C     56.90000000    45.86000000    17.05000000
   C     56.33000000    46.39000000    18.35000000
   O     55.23000000    46.94000000    18.26000000
   C     56.82000000    44.34000000    16.90000000
   C     56.72000000    43.92000000    15.44000000
   C     56.71000000    42.40000000    15.34000000
   O     56.85000000    41.80000000    14.26000000
   O     56.73000000    41.69000000    16.37000000
   H     58.90000000    45.42000000    17.15000000
   H     56.47000000    46.33000000    16.16000000
   H     55.98000000    43.87000000    17.41000000
   H     57.71000000    43.85000000    17.30000000
   H     57.41000000    44.51000000    14.83000000
   H     55.72000000    44.12000000    15.05000000
   N     57.00000000    46.34000000    19.51000000
   C     56.48000000    46.80000000    20.78000000
   H     55.45900000    46.43900000    20.90600000
   H     57.10300000    46.41700000    21.58800000
   H     56.48500000    47.89000000    20.80200000
   H     57.86000000    45.83000000    19.56000000
  Ca     58.17000000    39.82000000    15.27000000

Ca 1.00



