%chk=loop2.cluster175.chk
%nprocshared=20
%mem=10GB
%nosave
#b3lyp/svp scf=(tight,noincore,xqc) Test 
#IOP(5/87=12) Density=Current Pop=(MK,readradii) iop(6/33=2) iop(6/42=6)

loop2.cluster175 

   -2  1 
   C    110.15000000    76.41000000    67.77000000
   C    109.08000000    76.18000000    66.71000000
   O    108.81000000    75.04000000    66.36000000
   H    111.00000000    76.92500000    67.32200000
   H    109.74000000    77.01900000    68.57500000
   H    110.47800000    75.45100000    68.17000000
   N    108.43000000    77.19000000    66.11000000
   C    108.25000000    78.60000000    66.38000000
   C    108.57000000    79.36000000    65.11000000
   O    108.93000000    78.79000000    64.08000000
   C    106.92000000    78.82000000    67.09000000
   C    105.78000000    78.42000000    66.16000000
   O    105.21000000    77.33000000    66.32000000
   O    105.53000000    79.03000000    65.09000000
   H    107.81000000    76.86000000    65.38000000
   H    108.94000000    78.98000000    67.14000000
   H    106.89000000    79.87000000    67.36000000
   H    106.80000000    78.36000000    68.08000000
   N    108.47000000    80.69000000    65.14000000
   C    108.48000000    81.63000000    64.03000000
   C    107.73000000    81.32000000    62.73000000
   O    108.16000000    81.86000000    61.71000000
   C    109.90000000    82.14000000    63.84000000
   H    108.36000000    81.14000000    66.04000000
   H    107.99000000    82.55000000    64.34000000
   H    110.29000000    82.42000000    64.82000000
   H    110.58000000    81.40000000    63.42000000
   H    109.92000000    83.03000000    63.21000000
   N    106.63000000    80.58000000    62.78000000
   C    105.69000000    80.55000000    61.68000000
   C    104.27000000    80.51000000    62.24000000
   O    103.93000000    79.57000000    62.96000000
   C    106.04000000    79.34000000    60.81000000
   C    106.12000000    77.97000000    61.46000000
   O    105.12000000    77.32000000    61.83000000
   O    107.24000000    77.45000000    61.65000000
   H    106.33000000    80.25000000    63.69000000
   H    105.76000000    81.47000000    61.11000000
   H    107.06000000    79.52000000    60.48000000
   H    105.45000000    79.23000000    59.90000000
   N    103.40000000    81.49000000    61.98000000
   C    102.08000000    81.60000000    62.57000000
   C    101.01000000    80.85000000    61.79000000
   O    101.00000000    80.80000000    60.56000000
   H    103.70000000    82.28000000    61.43000000
   H    101.82000000    82.65000000    62.69000000
   H    102.00000000    81.10000000    63.54000000
   N    100.14000000    80.14000000    62.51000000
   C     99.04000000    79.33000000    62.04000000
   C     97.77000000    79.96000000    62.59000000
   O     97.79000000    80.76000000    63.52000000
   C     99.29000000    77.94000000    62.62000000
   C    100.62000000    77.38000000    62.13000000
   N    100.76000000    77.00000000    60.86000000
   O    101.61000000    77.37000000    62.85000000
   H    100.30000000    79.99000000    63.50000000
   H     98.93000000    79.38000000    60.95000000
   H     98.51000000    77.36000000    62.12000000
   H     99.31000000    77.95000000    63.71000000
   H     99.91000000    76.95000000    60.31000000
   H    101.68000000    77.00000000    60.46000000
   N     96.66000000    79.65000000    61.92000000
   C     95.34000000    79.86000000    62.49000000
   C     94.60000000    78.55000000    62.73000000
   O     94.79000000    77.54000000    62.05000000
   H     96.73000000    79.10000000    61.08000000
   H     94.76000000    80.51000000    61.84000000
   H     95.54000000    80.42000000    63.40000000
   N     93.87000000    78.44000000    63.85000000
   C     93.72000000    79.27000000    65.03000000
   C     94.27000000    78.71000000    66.33000000
   O     94.38000000    79.53000000    67.24000000
   C     92.21000000    79.44000000    65.12000000
   C     91.67000000    80.33000000    64.01000000
   O     91.56000000    78.19000000    64.99000000
   H     93.36000000    77.57000000    63.82000000
   H     94.13000000    80.26000000    64.81000000
   H     92.03000000    79.88000000    66.10000000
   H     90.65000000    78.38000000    64.74000000
   H     91.84000000    79.98000000    62.99000000
   H     90.61000000    80.43000000    64.24000000
   H     92.15000000    81.30000000    64.04000000
   N     94.81000000    77.49000000    66.36000000
   C     95.62000000    76.90000000    67.41000000
   C     95.05000000    77.24000000    68.78000000
   O     95.59000000    78.14000000    69.42000000
   C     97.07000000    77.34000000    67.19000000
   C     97.53000000    77.17000000    65.75000000
   C     98.00000000    76.60000000    68.16000000
   C     97.42000000    75.75000000    65.19000000
   H     94.72000000    76.87000000    65.57000000
   H     95.71000000    75.82000000    67.34000000
   H     97.20000000    78.38000000    67.48000000
   H     98.59000000    77.39000000    65.78000000
   H     97.03000000    77.90000000    65.11000000
   H     98.93000000    77.15000000    68.03000000
   H     97.57000000    76.78000000    69.14000000
   H     97.98000000    75.53000000    67.97000000
   H     96.62000000    75.59000000    64.46000000
   H     98.33000000    75.49000000    64.64000000
   H     97.34000000    75.13000000    66.08000000
   N     93.89000000    76.69000000    69.16000000
   C     93.19000000    75.56000000    68.60000000
   C     92.94000000    74.43000000    69.59000000
   O     93.10000000    73.30000000    69.13000000
   C     91.87000000    75.93000000    67.92000000
   C     90.91000000    76.64000000    68.86000000
   O     91.22000000    77.06000000    70.00000000
   O     89.79000000    76.98000000    68.41000000
   H     93.55000000    77.01000000    70.05000000
   H     93.74000000    75.13000000    67.76000000
   H     91.40000000    75.08000000    67.44000000
   H     92.10000000    76.66000000    67.14000000
   N     92.65000000    74.62000000    70.88000000
   C     92.33000000    73.67000000    71.92000000
   C     90.94000000    73.08000000    71.75000000
   O     90.12000000    73.62000000    71.02000000
   C     92.53000000    74.31000000    73.29000000
   C     91.39000000    75.08000000    73.90000000
   C     91.42000000    76.48000000    73.96000000
   C     90.35000000    74.39000000    74.55000000
   C     90.40000000    77.15000000    74.64000000
   C     89.37000000    75.08000000    75.26000000
   C     89.35000000    76.48000000    75.29000000
   H     92.45000000    75.59000000    71.07000000
   H     93.07000000    72.87000000    71.82000000
   H     93.34000000    75.04000000    73.20000000
   H     92.76000000    73.50000000    73.98000000
   H     92.24000000    77.01000000    73.50000000
   H     90.33000000    73.31000000    74.56000000
   H     90.51000000    78.20000000    74.85000000
   H     88.68000000    74.56000000    75.90000000
   H     88.71000000    77.13000000    75.87000000
   N     90.70000000    71.91000000    72.35000000
   C     91.46000000    71.09000000    73.28000000
   C     92.72000000    70.45000000    72.74000000
   O     92.98000000    70.39000000    71.54000000
   C     90.46000000    70.11000000    73.90000000
   C     89.52000000    69.86000000    72.73000000
   C     89.48000000    71.21000000    72.01000000
   H     91.66000000    71.75000000    74.12000000
   H     90.98000000    69.23000000    74.27000000
   H     89.99000000    70.67000000    74.71000000
   H     89.90000000    69.06000000    72.10000000
   H     88.56000000    69.50000000    73.09000000
   H     89.46000000    70.99000000    70.94000000
   H     88.61000000    71.76000000    72.35000000
   N     93.50000000    69.90000000    73.68000000
   C     94.65000000    69.10000000    73.31000000
   C     95.89000000    69.85000000    72.85000000
   O     96.42000000    69.53000000    71.78000000
   C     94.91000000    68.14000000    74.46000000
   C     95.58000000    66.92000000    73.83000000
   C     96.09000000    65.99000000    74.92000000
   O     95.35000000    65.06000000    75.31000000
   O     97.21000000    66.09000000    75.46000000
   H     93.19000000    69.96000000    74.63000000
   H     94.43000000    68.53000000    72.41000000
   H     93.95000000    67.85000000    74.89000000
   H     95.65000000    68.67000000    75.06000000
   H     96.47000000    67.17000000    73.25000000
   H     94.92000000    66.33000000    73.20000000
   N     96.49000000    70.77000000    73.60000000
   C     95.99000000    71.57000000    74.70000000
   H     94.97400000    71.25800000    74.94300000
   H     96.63000000    71.43200000    75.57100000
   H     95.98800000    72.62200000    74.41400000
   H     97.15000000    71.31000000    73.05000000
  Ca    103.98800000    77.11000000    64.01000000
   O    106.52800000    76.02000000    63.82000000
   H    106.60800000    76.58000000    63.04000000
   H    107.03800000    75.24000000    63.61000000
   O    103.64800000    74.65000000    62.56000000
   H    104.40800000    74.09000000    62.42000000
   H    102.95800000    74.04000000    62.84000000
   O    102.68800000    75.24000000    65.58000000
   H    102.15800000    75.50000000    66.34000000
   H    102.46800000    74.32000000    65.44000000
   O    102.08800000    78.03000000    65.94000000
   H    101.21800000    78.42000000    65.85000000
   H    102.35800000    78.25000000    66.83000000

Ca 1.00



