%chk=CaMKII_loop3_24.0.chk
%nprocshared=48
%mem=10GB
%nosave
#b3lyp/svp scf=(tight,noincore) Test 
#IOP(5/87=12) Density=Current Pop=(MK,readradii) iop(6/33=2) iop(6/42=6)

CaMKII_loop3_24.0 

   0   1
   C     75.54000000    43.01000000    21.21000000
   C     74.19000000    42.47000000    21.66000000
   O     73.90000000    41.29000000    21.49000000
   H     76.29200000    42.22500000    21.29700000
   H     75.47400000    43.33600000    20.17200000
   H     75.82200000    43.85400000    21.83900000
   N     73.42000000    43.33000000    22.32000000
   C     72.11000000    42.87000000    22.74000000
   C     71.25000000    42.52000000    21.53000000
   O     70.77000000    43.39000000    20.81000000
   C     71.39000000    43.90000000    23.61000000
   C     70.12000000    43.27000000    24.17000000
   O     70.07000000    42.06000000    24.47000000
   O     69.16000000    44.06000000    24.30000000
   H     73.74000000    44.27000000    22.49000000
   H     72.14000000    41.99000000    23.38000000
   H     71.01000000    44.70000000    22.97000000
   H     72.06000000    44.19000000    24.41000000
   N     71.07000000    41.24000000    21.20000000
   C     70.55000000    40.67000000    19.97000000
   C     69.13000000    40.13000000    20.02000000
   O     68.38000000    40.16000000    19.05000000
   C     71.62000000    39.80000000    19.30000000
   C     71.17000000    39.31000000    17.92000000
   C     72.37000000    38.73000000    17.18000000
   C     71.91000000    38.19000000    15.83000000
   N     73.04000000    37.76000000    14.99000000
   H     71.60000000    40.63000000    21.81000000
   H     70.42000000    41.47000000    19.24000000
   H     71.83000000    38.89000000    19.85000000
   H     72.55000000    40.37000000    19.27000000
   H     70.76000000    40.08000000    17.28000000
   H     70.47000000    38.50000000    18.11000000
   H     72.62000000    37.94000000    17.89000000
   H     73.12000000    39.50000000    16.99000000
   H     71.25000000    38.86000000    15.27000000
   H     71.22000000    37.36000000    15.96000000
   H     72.71000000    37.31000000    14.15000000
   H     73.56000000    38.59000000    14.75000000
   H     73.58000000    37.04000000    15.44000000
   N     68.72000000    39.58000000    21.17000000
   C     67.33000000    39.45000000    21.56000000
   C     66.67000000    40.74000000    22.02000000
   O     65.50000000    40.75000000    22.39000000
   C     67.03000000    38.31000000    22.52000000
   C     67.91000000    38.25000000    23.76000000
   O     67.56000000    37.60000000    24.77000000
   O     69.02000000    38.82000000    23.82000000
   H     69.42000000    39.45000000    21.89000000
   H     66.71000000    39.22000000    20.69000000
   H     67.15000000    37.35000000    22.02000000
   H     65.95000000    38.31000000    22.67000000
   N     67.41000000    41.84000000    22.21000000
   C     66.85000000    43.17000000    22.34000000
   C     66.23000000    43.53000000    23.69000000
   O     65.52000000    44.53000000    23.83000000
   H     68.40000000    41.70000000    22.09000000
   H     66.09000000    43.32000000    21.57000000
   H     67.74000000    43.79000000    22.20000000
   N     66.49000000    42.70000000    24.70000000
   C     65.85000000    42.80000000    26.00000000
   C     66.40000000    43.86000000    26.94000000
   O     65.91000000    44.00000000    28.06000000
   C     65.86000000    41.36000000    26.51000000
   C     67.17000000    40.83000000    27.08000000
   N     67.29000000    40.21000000    28.25000000
   O     68.21000000    40.93000000    26.43000000
   H     67.11000000    41.92000000    24.52000000
   H     64.82000000    43.12000000    25.83000000
   H     65.38000000    40.69000000    25.80000000
   H     65.26000000    41.42000000    27.42000000
   H     66.45000000    39.95000000    28.74000000
   H     68.15000000    39.69000000    28.34000000
   N     67.45000000    44.61000000    26.61000000
   C     68.06000000    45.55000000    27.53000000
   C     69.29000000    45.10000000    28.29000000
   O     69.94000000    45.79000000    29.07000000
   H     67.88000000    44.34000000    25.74000000
   H     67.25000000    45.84000000    28.20000000
   H     68.20000000    46.43000000    26.90000000
   N     69.80000000    43.89000000    28.00000000
   C     70.88000000    43.26000000    28.74000000
   C     71.86000000    42.56000000    27.81000000
   O     71.44000000    41.71000000    27.03000000
   C     70.30000000    42.26000000    29.73000000
   C     69.31000000    42.75000000    30.76000000
   C     69.74000000    43.02000000    32.06000000
   C     67.97000000    42.99000000    30.43000000
   C     68.87000000    43.60000000    32.99000000
   C     67.07000000    43.57000000    31.34000000
   C     67.56000000    43.96000000    32.60000000
   O     66.66000000    44.38000000    33.53000000
   H     69.40000000    43.34000000    27.26000000
   H     71.38000000    44.02000000    29.35000000
   H     71.02000000    41.65000000    30.29000000
   H     69.79000000    41.49000000    29.14000000
   H     70.68000000    42.77000000    32.53000000
   H     67.55000000    42.81000000    29.46000000
   H     69.09000000    43.90000000    34.00000000
   H     66.05000000    43.70000000    31.02000000
   H     65.77000000    44.23000000    33.20000000
   N     73.17000000    42.78000000    27.95000000
   C     74.20000000    42.03000000    27.26000000
   C     74.46000000    40.79000000    28.11000000
   O     74.46000000    40.88000000    29.33000000
   C     75.45000000    42.87000000    27.01000000
   C     75.18000000    43.82000000    25.85000000
   C     76.67000000    42.00000000    26.75000000
   C     76.22000000    44.93000000    25.69000000
   H     73.51000000    43.52000000    28.54000000
   H     73.81000000    41.60000000    26.34000000
   H     75.59000000    43.58000000    27.83000000
   H     74.19000000    44.22000000    26.04000000
   H     75.08000000    43.19000000    24.96000000
   H     77.02000000    41.57000000    27.69000000
   H     76.48000000    41.18000000    26.06000000
   H     77.47000000    42.58000000    26.30000000
   H     76.46000000    45.41000000    26.64000000
   H     77.08000000    44.49000000    25.19000000
   H     75.83000000    45.69000000    25.02000000
   N     74.61000000    39.67000000    27.40000000
   C     75.07000000    38.41000000    27.94000000
   C     76.43000000    38.03000000    27.35000000
   O     76.78000000    38.58000000    26.31000000
   C     74.01000000    37.31000000    27.95000000
   O     73.70000000    36.98000000    26.61000000
   H     74.44000000    39.72000000    26.41000000
   H     75.31000000    38.58000000    28.99000000
   H     73.12000000    37.58000000    28.51000000
   H     74.44000000    36.49000000    28.51000000
   H     73.19000000    37.68000000    26.18000000
   N     77.19000000    37.08000000    27.90000000
   C     78.45000000    36.66000000    27.33000000
   C     78.49000000    36.01000000    25.95000000
   O     79.44000000    36.15000000    25.17000000
   C     79.24000000    35.90000000    28.40000000
   H     76.81000000    36.45000000    28.59000000
   H     78.94000000    37.62000000    27.20000000
   H     78.95000000    36.11000000    29.43000000
   H     79.15000000    34.84000000    28.17000000
   H     80.27000000    36.14000000    28.16000000
   N     77.41000000    35.30000000    25.63000000
   C     77.14000000    34.61000000    24.39000000
   C     76.99000000    35.60000000    23.24000000
   O     77.37000000    35.27000000    22.11000000
   C     75.86000000    33.79000000    24.50000000
   H     76.82000000    35.12000000    26.44000000
   H     77.91000000    33.84000000    24.32000000
   H     74.95000000    34.36000000    24.62000000
   H     75.78000000    33.14000000    23.63000000
   H     75.95000000    33.16000000    25.39000000
   N     76.51000000    36.81000000    23.52000000
   C     76.29000000    37.95000000    22.65000000
   C     77.55000000    38.81000000    22.57000000
   O     77.95000000    39.25000000    21.49000000
   C     75.16000000    38.76000000    23.28000000
   C     73.75000000    38.19000000    23.21000000
   C     72.81000000    39.22000000    23.82000000
   O     73.01000000    39.63000000    24.98000000
   O     71.79000000    39.55000000    23.17000000
   H     76.27000000    36.88000000    24.50000000
   H     76.06000000    37.64000000    21.63000000
   H     75.18000000    39.78000000    22.89000000
   H     75.44000000    38.95000000    24.32000000
   H     73.68000000    37.22000000    23.69000000
   H     73.48000000    38.09000000    22.16000000
   N     78.21000000    39.03000000    23.71000000
   C     79.52000000    39.65000000    23.83000000
   H     80.22700000    39.13200000    23.18200000
   H     79.45600000    40.69700000    23.53300000
   H     79.86000000    39.58500000    24.86400000
   H     77.82000000    38.61000000    24.54000000
  Ca     70.50000000    39.79000000    25.62000000
   O     70.86000000    39.01000000    28.10000000
   H     70.40000000    38.17000000    28.03000000
   H     70.91000000    39.17000000    29.05000000

Ca 1.70



