%chk=CaMKII_loop3_25.0.chk
%nprocshared=48
%mem=10GB
%nosave
#b3lyp/svp scf=(tight,noincore) Test 
#IOP(5/87=12) Density=Current Pop=(MK,readradii) iop(6/33=2) iop(6/42=6)

CaMKII_loop3_25.0 

   0   1
   C     77.14000000    61.48000000    20.51000000
   C     77.10000000    60.01000000    20.11000000
   O     78.17000000    59.42000000    20.10000000
   H     77.69900000    62.04400000    19.76300000
   H     76.12300000    61.86800000    20.57200000
   H     77.62700000    61.58000000    21.48000000
   N     75.93000000    59.48000000    19.73000000
   C     75.79000000    58.24000000    18.99000000
   C     76.03000000    58.46000000    17.51000000
   O     75.53000000    59.36000000    16.84000000
   C     74.37000000    57.72000000    19.19000000
   C     74.10000000    56.40000000    18.48000000
   O     72.89000000    56.14000000    18.30000000
   O     75.04000000    55.62000000    18.20000000
   H     75.20000000    60.16000000    19.80000000
   H     76.47000000    57.53000000    19.46000000
   H     73.66000000    58.45000000    18.80000000
   H     74.20000000    57.61000000    20.26000000
   N     76.87000000    57.60000000    16.94000000
   C     77.53000000    57.79000000    15.66000000
   C     76.96000000    57.01000000    14.48000000
   O     76.68000000    57.58000000    13.43000000
   C     79.04000000    57.74000000    15.87000000
   C     79.98000000    57.59000000    14.68000000
   C     81.47000000    57.56000000    15.00000000
   C     82.20000000    57.53000000    13.66000000
   N     83.66000000    57.58000000    13.83000000
   H     77.10000000    56.71000000    17.37000000
   H     77.40000000    58.85000000    15.42000000
   H     79.24000000    56.89000000    16.53000000
   H     79.39000000    58.65000000    16.35000000
   H     79.87000000    58.52000000    14.11000000
   H     79.69000000    56.72000000    14.10000000
   H     81.67000000    56.66000000    15.58000000
   H     81.73000000    58.47000000    15.55000000
   H     81.87000000    58.35000000    13.01000000
   H     81.95000000    56.62000000    13.11000000
   H     84.01000000    56.84000000    14.41000000
   H     84.17000000    57.44000000    12.96000000
   H     84.02000000    58.41000000    14.27000000
   N     76.64000000    55.72000000    14.69000000
   C     75.96000000    54.90000000    13.72000000
   C     74.45000000    54.92000000    13.81000000
   O     73.74000000    54.52000000    12.89000000
   C     76.48000000    53.47000000    13.89000000
   C     76.30000000    52.75000000    15.22000000
   O     75.69000000    53.31000000    16.16000000
   O     76.80000000    51.61000000    15.31000000
   H     76.80000000    55.27000000    15.58000000
   H     76.10000000    55.31000000    12.72000000
   H     77.53000000    53.46000000    13.64000000
   H     76.02000000    52.78000000    13.18000000
   N     73.88000000    55.42000000    14.91000000
   C     72.48000000    55.71000000    15.16000000
   C     71.76000000    54.51000000    15.76000000
   O     70.57000000    54.31000000    15.52000000
   H     74.49000000    55.61000000    15.69000000
   H     71.96000000    55.99000000    14.24000000
   H     72.36000000    56.53000000    15.86000000
   N     72.48000000    53.61000000    16.42000000
   C     71.97000000    52.38000000    17.00000000
   C     71.40000000    52.53000000    18.40000000
   O     70.84000000    51.56000000    18.91000000
   C     73.03000000    51.29000000    16.83000000
   C     73.87000000    51.22000000    18.10000000
   N     74.36000000    50.06000000    18.55000000
   O     74.31000000    52.21000000    18.68000000
   H     73.48000000    53.78000000    16.50000000
   H     71.08000000    52.02000000    16.48000000
   H     73.64000000    51.50000000    15.96000000
   H     72.47000000    50.35000000    16.75000000
   H     74.20000000    49.21000000    18.04000000
   H     75.02000000    50.19000000    19.31000000
   N     71.34000000    53.73000000    18.99000000
   C     70.67000000    53.98000000    20.25000000
   C     71.60000000    53.96000000    21.46000000
   O     71.03000000    53.93000000    22.55000000
   H     71.82000000    54.51000000    18.58000000
   H     69.85000000    53.26000000    20.31000000
   H     70.15000000    54.94000000    20.22000000
   N     72.92000000    53.82000000    21.30000000
   C     73.86000000    53.81000000    22.40000000
   C     75.19000000    54.50000000    22.15000000
   O     75.80000000    54.33000000    21.10000000
   C     74.11000000    52.37000000    22.85000000
   C     72.93000000    51.60000000    23.39000000
   C     72.45000000    51.82000000    24.69000000
   C     72.35000000    50.60000000    22.60000000
   C     71.25000000    51.21000000    25.06000000
   C     71.18000000    49.94000000    22.99000000
   C     70.57000000    50.32000000    24.20000000
   O     69.35000000    49.80000000    24.55000000
   H     73.20000000    53.86000000    20.33000000
   H     73.41000000    54.36000000    23.22000000
   H     74.73000000    52.48000000    23.74000000
   H     74.54000000    51.77000000    22.04000000
   H     72.94000000    52.53000000    25.34000000
   H     72.73000000    50.42000000    21.60000000
   H     70.72000000    51.44000000    25.97000000
   H     70.73000000    49.22000000    22.32000000
   H     68.98000000    49.45000000    23.74000000
   N     75.72000000    55.25000000    23.12000000
   C     77.05000000    55.79000000    22.96000000
   C     78.13000000    54.89000000    23.56000000
   O     77.89000000    54.34000000    24.63000000
   C     77.11000000    57.15000000    23.65000000
   C     75.94000000    58.08000000    23.38000000
   C     78.36000000    57.86000000    23.13000000
   C     75.87000000    59.24000000    24.37000000
   H     75.26000000    55.34000000    24.02000000
   H     77.24000000    56.05000000    21.92000000
   H     77.21000000    57.05000000    24.73000000
   H     74.98000000    57.56000000    23.44000000
   H     75.93000000    58.42000000    22.34000000
   H     78.29000000    57.91000000    22.05000000
   H     78.41000000    58.91000000    23.42000000
   H     79.26000000    57.34000000    23.45000000
   H     75.20000000    59.99000000    23.95000000
   H     75.57000000    58.92000000    25.37000000
   H     76.84000000    59.71000000    24.55000000
   N     79.28000000    54.83000000    22.88000000
   C     80.46000000    54.16000000    23.38000000
   C     81.71000000    55.02000000    23.38000000
   O     81.64000000    56.10000000    22.80000000
   C     80.72000000    52.78000000    22.77000000
   O     80.60000000    52.91000000    21.37000000
   H     79.37000000    55.29000000    21.98000000
   H     80.34000000    53.97000000    24.45000000
   H     79.98000000    52.05000000    23.10000000
   H     81.71000000    52.48000000    23.10000000
   H     79.73000000    53.30000000    21.25000000
   N     82.78000000    54.61000000    24.07000000
   C     84.02000000    55.34000000    24.22000000
   C     84.46000000    55.84000000    22.86000000
   O     84.77000000    57.03000000    22.80000000
   C     85.03000000    54.60000000    25.10000000
   H     82.64000000    53.78000000    24.63000000
   H     83.75000000    56.26000000    24.75000000
   H     85.19000000    53.58000000    24.73000000
   H     85.98000000    55.12000000    25.13000000
   H     84.67000000    54.52000000    26.13000000
   N     84.60000000    54.99000000    21.84000000
   C     85.12000000    55.36000000    20.54000000
   C     84.32000000    56.50000000    19.94000000
   O     84.90000000    57.34000000    19.25000000
   C     85.01000000    54.11000000    19.68000000
   H     84.43000000    54.00000000    21.97000000
   H     86.14000000    55.73000000    20.64000000
   H     85.80000000    53.41000000    19.94000000
   H     84.03000000    53.63000000    19.64000000
   H     85.22000000    54.39000000    18.64000000
   N     83.02000000    56.57000000    20.25000000
   C     82.07000000    57.48000000    19.64000000
   C     81.97000000    58.81000000    20.36000000
   O     82.07000000    59.88000000    19.77000000
   C     80.69000000    56.83000000    19.78000000
   C     80.47000000    55.52000000    19.03000000
   C     79.01000000    55.08000000    19.04000000
   O     78.15000000    55.44000000    18.21000000
   O     78.71000000    54.36000000    20.01000000
   H     82.65000000    55.77000000    20.75000000
   H     82.32000000    57.65000000    18.59000000
   H     79.99000000    57.54000000    19.35000000
   H     80.44000000    56.73000000    20.83000000
   H     81.06000000    54.70000000    19.42000000
   H     80.77000000    55.71000000    18.00000000
   N     81.92000000    58.70000000    21.69000000
   C     82.17000000    59.78000000    22.62000000
   H     82.99400000    60.39200000    22.25300000
   H     81.27500000    60.39500000    22.71300000
   H     82.43100000    59.36800000    23.59500000
   H     81.76000000    57.77000000    22.06000000
  Ca     76.57000000    53.52000000    18.70000000
   O     78.56000000    52.32000000    17.37000000
   H     79.49000000    52.08000000    17.41000000
   H     78.24000000    51.92000000    16.56000000

Ca 1.70



