%chk=CaMKII_loop3_3.0.chk
%nprocshared=48
%mem=10GB
%nosave
#b3lyp/svp scf=(tight,noincore) Test 
#IOP(5/87=12) Density=Current Pop=(MK,readradii) iop(6/33=2) iop(6/42=6)

CaMKII_loop3_3.0 

   0   1
   C     77.81000000    60.68000000    19.44000000
   C     77.76000000    59.36000000    18.70000000
   O     78.79000000    58.69000000    18.55000000
   H     78.21100000    61.45000000    18.78100000
   H     76.80400000    60.95900000    19.75400000
   H     78.45100000    60.58200000    20.31600000
   N     76.59000000    58.95000000    18.21000000
   C     76.35000000    57.77000000    17.41000000
   C     76.51000000    58.11000000    15.93000000
   O     75.80000000    58.93000000    15.36000000
   C     74.98000000    57.19000000    17.75000000
   C     74.68000000    55.88000000    17.04000000
   O     73.59000000    55.28000000    17.16000000
   O     75.54000000    55.45000000    16.24000000
   H     75.74000000    59.50000000    18.21000000
   H     77.06000000    56.98000000    17.63000000
   H     74.21000000    57.90000000    17.43000000
   H     74.92000000    57.01000000    18.82000000
   N     77.53000000    57.53000000    15.30000000
   C     77.98000000    57.85000000    13.96000000
   C     77.13000000    57.25000000    12.86000000
   O     77.05000000    57.88000000    11.80000000
   C     79.45000000    57.45000000    13.88000000
   C     80.21000000    58.47000000    13.04000000
   C     81.66000000    57.99000000    12.97000000
   C     82.50000000    58.88000000    12.06000000
   N     83.94000000    58.59000000    12.07000000
   H     78.03000000    56.78000000    15.75000000
   H     77.94000000    58.94000000    13.89000000
   H     79.56000000    56.51000000    13.34000000
   H     79.89000000    57.41000000    14.88000000
   H     80.17000000    59.44000000    13.54000000
   H     79.81000000    58.43000000    12.03000000
   H     81.73000000    56.97000000    12.61000000
   H     82.06000000    57.98000000    13.99000000
   H     82.35000000    59.89000000    12.45000000
   H     82.14000000    58.69000000    11.05000000
   H     84.34000000    58.47000000    12.99000000
   H     84.12000000    57.73000000    11.56000000
   H     84.44000000    59.27000000    11.51000000
   N     76.64000000    56.02000000    13.03000000
   C     75.76000000    55.45000000    12.04000000
   C     74.31000000    55.66000000    12.48000000
   O     73.50000000    55.69000000    11.55000000
   C     76.01000000    53.96000000    11.79000000
   C     76.02000000    52.91000000    12.89000000
   O     76.06000000    53.40000000    14.04000000
   O     76.23000000    51.73000000    12.53000000
   H     76.84000000    55.57000000    13.91000000
   H     75.76000000    55.95000000    11.07000000
   H     77.01000000    53.93000000    11.36000000
   H     75.35000000    53.64000000    10.98000000
   N     73.96000000    55.90000000    13.74000000
   C     72.58000000    55.89000000    14.17000000
   C     72.01000000    54.52000000    14.55000000
   O     70.85000000    54.22000000    14.32000000
   H     74.69000000    55.95000000    14.44000000
   H     71.94000000    56.19000000    13.34000000
   H     72.47000000    56.62000000    14.97000000
   N     72.84000000    53.56000000    14.96000000
   C     72.38000000    52.24000000    15.31000000
   C     71.77000000    52.15000000    16.71000000
   O     71.01000000    51.20000000    16.88000000
   C     73.47000000    51.21000000    15.05000000
   C     74.44000000    51.01000000    16.20000000
   N     74.62000000    49.81000000    16.77000000
   O     75.16000000    51.90000000    16.65000000
   H     73.85000000    53.69000000    14.99000000
   H     71.50000000    51.96000000    14.73000000
   H     73.98000000    51.39000000    14.10000000
   H     73.01000000    50.22000000    15.05000000
   H     74.04000000    49.01000000    16.59000000
   H     75.34000000    49.73000000    17.47000000
   N     72.11000000    53.01000000    17.66000000
   C     71.54000000    53.04000000    19.00000000
   C     72.56000000    53.00000000    20.13000000
   O     72.20000000    52.88000000    21.29000000
   H     72.73000000    53.78000000    17.44000000
   H     70.80000000    52.27000000    19.19000000
   H     71.00000000    53.98000000    19.10000000
   N     73.84000000    53.00000000    19.76000000
   C     75.00000000    52.79000000    20.60000000
   C     76.22000000    53.63000000    20.23000000
   O     76.47000000    53.88000000    19.06000000
   C     75.33000000    51.30000000    20.66000000
   C     74.16000000    50.42000000    21.00000000
   C     73.85000000    50.29000000    22.36000000
   C     73.39000000    49.75000000    20.03000000
   C     72.73000000    49.57000000    22.80000000
   C     72.33000000    48.94000000    20.45000000
   C     72.04000000    48.82000000    21.82000000
   O     71.10000000    47.88000000    22.14000000
   H     74.08000000    52.93000000    18.78000000
   H     74.67000000    53.12000000    21.58000000
   H     76.06000000    51.25000000    21.47000000
   H     75.76000000    50.91000000    19.73000000
   H     74.53000000    50.70000000    23.09000000
   H     73.60000000    49.76000000    18.97000000
   H     72.67000000    49.23000000    23.82000000
   H     71.72000000    48.58000000    19.63000000
   H     70.67000000    47.59000000    21.34000000
   N     77.03000000    54.04000000    21.21000000
   C     78.29000000    54.72000000    20.99000000
   C     79.44000000    53.88000000    21.54000000
   O     79.49000000    53.50000000    22.70000000
   C     78.39000000    56.10000000    21.63000000
   C     77.10000000    56.88000000    21.40000000
   C     79.48000000    57.02000000    21.11000000
   C     76.86000000    57.84000000    22.57000000
   H     76.72000000    53.99000000    22.17000000
   H     78.43000000    54.94000000    19.93000000
   H     78.44000000    56.07000000    22.72000000
   H     76.19000000    56.30000000    21.25000000
   H     77.16000000    57.53000000    20.53000000
   H     79.35000000    57.13000000    20.03000000
   H     79.59000000    57.98000000    21.61000000
   H     80.45000000    56.56000000    21.33000000
   H     77.70000000    58.48000000    22.86000000
   H     75.97000000    58.42000000    22.30000000
   H     76.62000000    57.27000000    23.46000000
   N     80.42000000    53.60000000    20.68000000
   C     81.70000000    52.98000000    20.96000000
   C     82.84000000    53.97000000    21.11000000
   O     82.75000000    55.16000000    20.78000000
   C     82.00000000    51.92000000    19.90000000
   O     81.98000000    52.59000000    18.66000000
   H     80.29000000    53.87000000    19.71000000
   H     81.66000000    52.37000000    21.87000000
   H     81.37000000    51.04000000    20.01000000
   H     83.04000000    51.64000000    20.07000000
   H     82.41000000    52.03000000    18.01000000
   N     83.94000000    53.45000000    21.65000000
   C     85.16000000    54.23000000    21.76000000
   C     85.53000000    54.88000000    20.44000000
   O     85.82000000    56.07000000    20.50000000
   C     86.29000000    53.34000000    22.29000000
   H     83.96000000    52.51000000    22.01000000
   H     84.88000000    54.97000000    22.51000000
   H     86.45000000    52.51000000    21.61000000
   H     87.19000000    53.95000000    22.40000000
   H     86.00000000    52.87000000    23.23000000
   N     85.51000000    54.09000000    19.36000000
   C     85.86000000    54.62000000    18.06000000
   C     85.00000000    55.79000000    17.59000000
   O     85.39000000    56.62000000    16.77000000
   C     85.79000000    53.44000000    17.09000000
   H     85.36000000    53.09000000    19.44000000
   H     86.91000000    54.90000000    18.14000000
   H     84.82000000    52.96000000    16.98000000
   H     86.04000000    53.88000000    16.13000000
   H     86.47000000    52.64000000    17.41000000
   N     83.77000000    55.89000000    18.09000000
   C     82.82000000    56.93000000    17.74000000
   C     82.83000000    58.16000000    18.63000000
   O     82.92000000    59.27000000    18.12000000
   C     81.39000000    56.43000000    17.58000000
   C     81.19000000    55.33000000    16.54000000
   C     79.73000000    54.90000000    16.46000000
   O     79.03000000    54.71000000    17.48000000
   O     79.18000000    54.77000000    15.35000000
   H     83.48000000    55.14000000    18.71000000
   H     83.04000000    57.28000000    16.74000000
   H     80.77000000    57.32000000    17.43000000
   H     80.98000000    56.10000000    18.53000000
   H     81.73000000    54.43000000    16.84000000
   H     81.58000000    55.65000000    15.58000000
   N     82.98000000    58.08000000    19.96000000
   C     83.25000000    59.15000000    20.89000000
   H     84.08600000    59.74600000    20.52400000
   H     82.36700000    59.78200000    20.98400000
   H     83.50200000    58.73100000    21.86400000
   H     83.23000000    57.15000000    20.27000000
  Ca     77.09000000    53.50000000    16.35000000
   O     77.90000000    51.58000000    14.63000000
   H     77.26000000    51.80000000    13.95000000
   H     78.21000000    50.70000000    14.39000000

Ca 1.70



