%chk=holoCaM_loop3_78.0.chk
%nprocshared=48
%mem=10GB
%nosave
#b3lyp/svp scf=(tight,noincore) Test 
#IOP(5/87=12) Density=Current Pop=(MK,readradii) iop(6/33=2) iop(6/42=6)

holoCaM_loop3_78.0 

   0   1
   C     54.42000000    48.53000000    26.06000000
   C     54.37000000    47.54000000    27.21000000
   O     53.69000000    47.91000000    28.17000000
   H     55.39700000    49.01200000    26.03900000
   H     54.25400000    48.00400000    25.12000000
   H     53.64600000    49.28500000    26.19600000
   N     55.12000000    46.44000000    27.18000000
   C     55.45000000    45.58000000    28.31000000
   C     56.79000000    46.07000000    28.86000000
   O     57.51000000    46.79000000    28.17000000
   C     55.39000000    44.10000000    27.95000000
   C     55.41000000    43.06000000    29.07000000
   O     56.41000000    42.99000000    29.80000000
   O     54.46000000    42.29000000    29.31000000
   H     55.49000000    46.26000000    26.26000000
   H     54.71000000    45.73000000    29.10000000
   H     56.21000000    43.91000000    27.26000000
   H     54.47000000    43.93000000    27.39000000
   N     57.17000000    45.70000000    30.08000000
   C     58.45000000    45.96000000    30.72000000
   C     59.22000000    44.82000000    31.37000000
   O     60.31000000    45.14000000    31.84000000
   C     58.32000000    47.17000000    31.64000000
   C     59.48000000    48.15000000    31.77000000
   C     59.27000000    49.31000000    32.75000000
   C     60.35000000    50.38000000    32.71000000
   N     59.76000000    51.69000000    33.00000000
   H     56.53000000    45.07000000    30.55000000
   H     59.13000000    46.21000000    29.90000000
   H     58.12000000    46.73000000    32.62000000
   H     57.43000000    47.75000000    31.41000000
   H     59.68000000    48.60000000    30.80000000
   H     60.32000000    47.58000000    32.17000000
   H     59.16000000    49.00000000    33.79000000
   H     58.33000000    49.81000000    32.52000000
   H     60.92000000    50.34000000    31.78000000
   H     61.13000000    50.22000000    33.46000000
   H     60.46000000    52.41000000    33.15000000
   H     59.16000000    52.05000000    32.28000000
   H     59.22000000    51.60000000    33.85000000
   N     58.83000000    43.56000000    31.21000000
   C     59.59000000    42.39000000    31.64000000
   C     59.55000000    41.30000000    30.58000000
   O     60.50000000    40.52000000    30.59000000
   C     59.16000000    41.98000000    33.04000000
   C     57.80000000    41.31000000    33.16000000
   O     57.13000000    41.16000000    32.12000000
   O     57.36000000    40.87000000    34.25000000
   H     57.94000000    43.35000000    30.80000000
   H     60.65000000    42.62000000    31.61000000
   H     59.16000000    42.86000000    33.69000000
   H     59.80000000    41.23000000    33.51000000
   N     58.64000000    41.26000000    29.61000000
   C     58.79000000    40.40000000    28.45000000
   C     58.28000000    39.00000000    28.76000000
   O     58.32000000    38.08000000    27.96000000
   H     57.90000000    41.95000000    29.62000000
   H     59.79000000    40.47000000    28.03000000
   H     58.27000000    40.94000000    27.66000000
   N     57.59000000    38.86000000    29.89000000
   C     57.02000000    37.67000000    30.50000000
   C     55.80000000    37.12000000    29.77000000
   O     55.43000000    35.98000000    30.03000000
   C     56.68000000    37.86000000    31.97000000
   C     55.50000000    38.78000000    32.27000000
   N     55.08000000    38.91000000    33.53000000
   O     54.94000000    39.39000000    31.37000000
   H     57.53000000    39.77000000    30.34000000
   H     57.78000000    36.91000000    30.36000000
   H     57.52000000    38.36000000    32.45000000
   H     56.44000000    36.90000000    32.43000000
   H     55.56000000    38.40000000    34.25000000
   H     54.51000000    39.69000000    33.83000000
   N     55.14000000    37.86000000    28.87000000
   C     53.91000000    37.53000000    28.17000000
   C     52.60000000    37.80000000    28.89000000
   O     51.61000000    37.16000000    28.52000000
   H     55.62000000    38.68000000    28.54000000
   H     54.01000000    36.45000000    27.99000000
   H     53.85000000    37.93000000    27.16000000
   N     52.63000000    38.73000000    29.85000000
   C     51.47000000    39.14000000    30.63000000
   C     51.44000000    40.63000000    30.90000000
   O     52.35000000    41.13000000    31.56000000
   C     51.37000000    38.32000000    31.91000000
   C     51.71000000    36.85000000    31.83000000
   C     52.96000000    36.36000000    32.25000000
   C     50.85000000    35.95000000    31.18000000
   C     53.37000000    35.04000000    32.05000000
   C     51.30000000    34.66000000    30.88000000
   C     52.50000000    34.14000000    31.40000000
   O     52.89000000    32.86000000    31.14000000
   H     53.53000000    39.17000000    29.97000000
   H     50.54000000    38.95000000    30.10000000
   H     50.36000000    38.37000000    32.30000000
   H     52.06000000    38.79000000    32.61000000
   H     53.63000000    37.14000000    32.57000000
   H     49.90000000    36.30000000    30.79000000
   H     54.35000000    34.65000000    32.28000000
   H     50.72000000    33.95000000    30.30000000
   H     52.21000000    32.36000000    30.67000000
   N     50.51000000    41.38000000    30.30000000
   C     50.33000000    42.78000000    30.62000000
   C     49.54000000    42.98000000    31.90000000
   O     48.52000000    42.34000000    32.14000000
   C     49.68000000    43.54000000    29.46000000
   C     50.77000000    43.97000000    28.50000000
   C     48.83000000    44.74000000    29.85000000
   C     50.35000000    44.33000000    27.07000000
   H     49.81000000    40.89000000    29.76000000
   H     51.27000000    43.29000000    30.81000000
   H     49.00000000    42.86000000    28.95000000
   H     51.42000000    43.12000000    28.29000000
   H     51.41000000    44.74000000    28.94000000
   H     49.52000000    45.37000000    30.40000000
   H     48.56000000    45.37000000    29.01000000
   H     47.98000000    44.36000000    30.43000000
   H     49.75000000    43.56000000    26.59000000
   H     49.72000000    45.21000000    27.05000000
   H     51.21000000    44.62000000    26.46000000
   N     50.12000000    43.80000000    32.78000000
   C     49.73000000    44.22000000    34.11000000
   C     49.33000000    45.69000000    34.14000000
   O     49.62000000    46.44000000    33.21000000
   C     50.87000000    43.92000000    35.08000000
   O     51.99000000    44.73000000    34.79000000
   H     51.01000000    44.15000000    32.45000000
   H     48.86000000    43.71000000    34.52000000
   H     51.00000000    42.84000000    35.05000000
   H     50.62000000    44.16000000    36.11000000
   H     52.41000000    44.45000000    33.98000000
   N     48.51000000    46.09000000    35.10000000
   C     47.89000000    47.40000000    35.24000000
   C     48.89000000    48.53000000    35.07000000
   O     48.70000000    49.40000000    34.23000000
   C     47.14000000    47.58000000    36.55000000
   H     48.11000000    45.37000000    35.68000000
   H     47.10000000    47.54000000    34.50000000
   H     46.19000000    47.05000000    36.49000000
   H     47.65000000    47.14000000    37.41000000
   H     46.90000000    48.63000000    36.69000000
   N     50.10000000    48.46000000    35.64000000
   C     51.11000000    49.49000000    35.48000000
   C     51.74000000    49.61000000    34.10000000
   O     52.17000000    50.72000000    33.79000000
   C     52.18000000    49.19000000    36.53000000
   H     50.20000000    47.71000000    36.30000000
   H     50.60000000    50.42000000    35.76000000
   H     52.45000000    48.14000000    36.40000000
   H     53.09000000    49.76000000    36.36000000
   H     51.62000000    49.31000000    37.46000000
   N     51.71000000    48.58000000    33.26000000
   C     52.05000000    48.59000000    31.85000000
   C     50.91000000    49.04000000    30.95000000
   O     51.16000000    49.78000000    30.00000000
   C     52.53000000    47.17000000    31.57000000
   C     53.62000000    46.62000000    32.49000000
   C     53.83000000    45.15000000    32.18000000
   O     54.73000000    44.82000000    31.37000000
   O     53.19000000    44.23000000    32.73000000
   H     51.34000000    47.69000000    33.55000000
   H     52.83000000    49.34000000    31.73000000
   H     52.87000000    47.15000000    30.54000000
   H     51.71000000    46.46000000    31.64000000
   H     53.42000000    46.66000000    33.57000000
   H     54.55000000    47.18000000    32.37000000
   N     49.65000000    48.75000000    31.30000000
   C     48.47000000    49.16000000    30.58000000
   H     47.69200000    49.44300000    31.28900000
   H     48.70900000    50.01300000    29.94500000
   H     48.11500000    48.33500000    29.96200000
   H     49.47000000    48.11000000    32.07000000
  Ca     54.84000000    42.26000000    31.92000000
   O     53.69000000    41.26000000    34.12000000
   H     52.77000000    41.10000000    34.33000000
   H     54.07000000    41.55000000    34.95000000

Ca 1.70



