%chk=holoCaM_loop3_72.0.chk
%nprocshared=48
%mem=10GB
%nosave
#b3lyp/svp scf=(tight,noincore) Test 
#IOP(5/87=12) Density=Current Pop=(MK,readradii) iop(6/33=2) iop(6/42=6)

holoCaM_loop3_72.0 

   0   1
   C     73.36000000    37.08000000    31.62000000
   C     74.27000000    35.87000000    31.52000000
   O     74.13000000    34.88000000    32.23000000
   H     72.42600000    36.79300000    32.10300000
   H     73.84900000    37.85600000    32.20900000
   H     73.14900000    37.46000000    30.62100000
   N     75.25000000    35.97000000    30.62000000
   C     76.28000000    34.95000000    30.53000000
   C     77.25000000    35.11000000    31.70000000
   O     78.06000000    36.03000000    31.66000000
   C     77.00000000    34.95000000    29.19000000
   C     77.54000000    33.54000000    28.99000000
   O     78.10000000    32.95000000    29.94000000
   O     77.35000000    32.94000000    27.91000000
   H     75.32000000    36.86000000    30.14000000
   H     75.73000000    34.02000000    30.63000000
   H     77.72000000    35.77000000    29.22000000
   H     76.29000000    35.25000000    28.42000000
   N     77.18000000    34.15000000    32.62000000
   C     77.96000000    34.19000000    33.85000000
   C     79.24000000    33.36000000    33.88000000
   O     79.97000000    33.41000000    34.86000000
   C     77.08000000    33.80000000    35.04000000
   C     75.76000000    34.53000000    35.22000000
   C     75.89000000    36.04000000    35.45000000
   C     74.50000000    36.66000000    35.49000000
   N     74.58000000    38.13000000    35.40000000
   H     76.66000000    33.31000000    32.43000000
   H     78.33000000    35.18000000    34.10000000
   H     77.57000000    33.99000000    35.99000000
   H     76.82000000    32.74000000    35.11000000
   H     75.18000000    34.07000000    36.02000000
   H     75.18000000    34.43000000    34.30000000
   H     76.50000000    36.43000000    34.64000000
   H     76.38000000    36.24000000    36.40000000
   H     74.04000000    36.53000000    36.47000000
   H     73.93000000    36.33000000    34.62000000
   H     73.73000000    38.63000000    35.62000000
   H     75.29000000    38.60000000    35.95000000
   H     74.83000000    38.39000000    34.46000000
   N     79.58000000    32.69000000    32.77000000
   C     80.89000000    32.11000000    32.57000000
   C     81.61000000    32.63000000    31.34000000
   O     82.84000000    32.66000000    31.26000000
   C     80.72000000    30.60000000    32.59000000
   C     79.68000000    30.17000000    31.56000000
   O     79.85000000    30.46000000    30.35000000
   O     78.72000000    29.42000000    31.84000000
   H     79.00000000    32.76000000    31.95000000
   H     81.51000000    32.43000000    33.42000000
   H     80.46000000    30.25000000    33.59000000
   H     81.71000000    30.18000000    32.38000000
   N     80.84000000    33.29000000    30.47000000
   C     81.35000000    33.96000000    29.30000000
   C     81.58000000    33.08000000    28.08000000
   O     82.13000000    33.57000000    27.10000000
   H     79.84000000    33.20000000    30.58000000
   H     82.33000000    34.38000000    29.51000000
   H     80.64000000    34.76000000    29.07000000
   N     81.16000000    31.81000000    28.03000000
   C     81.27000000    30.91000000    26.91000000
   C     80.36000000    31.21000000    25.73000000
   O     80.34000000    30.49000000    24.73000000
   C     81.06000000    29.47000000    27.39000000
   C     79.63000000    29.00000000    27.63000000
   N     79.53000000    27.68000000    27.81000000
   O     78.63000000    29.71000000    27.69000000
   H     80.51000000    31.52000000    28.74000000
   H     82.31000000    30.97000000    26.56000000
   H     81.66000000    29.30000000    28.28000000
   H     81.51000000    28.76000000    26.70000000
   H     80.34000000    27.08000000    27.82000000
   H     78.61000000    27.31000000    27.99000000
   N     79.55000000    32.27000000    25.78000000
   C     78.61000000    32.56000000    24.71000000
   C     77.51000000    31.56000000    24.41000000
   O     77.04000000    31.30000000    23.30000000
   H     79.47000000    32.79000000    26.64000000
   H     79.21000000    32.72000000    23.81000000
   H     78.09000000    33.48000000    24.97000000
   N     77.01000000    31.00000000    25.51000000
   C     75.85000000    30.14000000    25.59000000
   C     74.96000000    30.35000000    26.81000000
   O     75.48000000    30.71000000    27.87000000
   C     76.23000000    28.67000000    25.54000000
   C     77.05000000    28.26000000    24.33000000
   C     78.38000000    27.85000000    24.40000000
   C     76.44000000    28.18000000    23.08000000
   C     79.05000000    27.31000000    23.30000000
   C     77.06000000    27.78000000    21.88000000
   C     78.37000000    27.29000000    22.06000000
   O     78.95000000    26.76000000    20.95000000
   H     77.36000000    31.36000000    26.38000000
   H     75.22000000    30.39000000    24.73000000
   H     75.28000000    28.14000000    25.45000000
   H     76.63000000    28.36000000    26.51000000
   H     78.79000000    27.83000000    25.41000000
   H     75.41000000    28.48000000    22.98000000
   H     80.09000000    27.05000000    23.38000000
   H     76.52000000    27.74000000    20.95000000
   H     78.32000000    26.64000000    20.24000000
   N     73.65000000    30.11000000    26.78000000
   C     72.81000000    30.20000000    27.97000000
   C     72.28000000    28.81000000    28.29000000
   O     71.88000000    28.04000000    27.42000000
   C     71.80000000    31.31000000    27.70000000
   C     72.45000000    32.70000000    27.74000000
   C     70.72000000    31.31000000    28.78000000
   C     73.21000000    33.06000000    29.01000000
   H     73.22000000    30.05000000    25.87000000
   H     73.38000000    30.43000000    28.87000000
   H     71.33000000    31.15000000    26.73000000
   H     71.71000000    33.50000000    27.68000000
   H     73.08000000    32.67000000    26.85000000
   H     71.19000000    31.47000000    29.75000000
   H     70.10000000    32.20000000    28.69000000
   H     70.08000000    30.43000000    28.78000000
   H     73.71000000    34.02000000    28.97000000
   H     72.57000000    32.97000000    29.89000000
   H     74.03000000    32.35000000    29.12000000
   N     72.26000000    28.50000000    29.59000000
   C     71.85000000    27.22000000    30.11000000
   C     70.56000000    27.32000000    30.92000000
   O     70.08000000    28.43000000    31.15000000
   C     73.00000000    26.73000000    30.99000000
   O     73.16000000    27.51000000    32.15000000
   H     72.64000000    29.13000000    30.28000000
   H     71.70000000    26.57000000    29.24000000
   H     73.90000000    26.60000000    30.38000000
   H     72.81000000    25.73000000    31.38000000
   H     74.10000000    27.72000000    32.13000000
   N     69.89000000    26.25000000    31.35000000
   C     68.73000000    26.39000000    32.20000000
   C     69.06000000    27.13000000    33.49000000
   O     68.25000000    27.90000000    34.01000000
   C     68.11000000    25.01000000    32.44000000
   H     70.22000000    25.31000000    31.19000000
   H     67.97000000    27.01000000    31.73000000
   H     67.89000000    24.61000000    31.45000000
   H     68.81000000    24.36000000    32.96000000
   H     67.25000000    25.03000000    33.10000000
   N     70.26000000    26.82000000    33.97000000
   C     70.85000000    27.38000000    35.17000000
   C     71.14000000    28.87000000    35.03000000
   O     71.02000000    29.65000000    35.97000000
   C     72.08000000    26.51000000    35.43000000
   H     70.83000000    26.12000000    33.51000000
   H     70.15000000    27.21000000    35.99000000
   H     72.79000000    27.16000000    35.94000000
   H     71.89000000    25.55000000    35.91000000
   H     72.58000000    26.29000000    34.49000000
   N     71.43000000    29.37000000    33.82000000
   C     71.54000000    30.78000000    33.52000000
   C     70.26000000    31.52000000    33.12000000
   O     70.20000000    32.74000000    33.21000000
   C     72.58000000    30.89000000    32.41000000
   C     73.96000000    30.67000000    33.02000000
   C     75.04000000    30.73000000    31.95000000
   O     75.94000000    31.60000000    31.88000000
   O     75.09000000    29.85000000    31.07000000
   H     71.75000000    28.70000000    33.14000000
   H     71.98000000    31.35000000    34.33000000
   H     72.71000000    31.88000000    31.96000000
   H     72.34000000    30.29000000    31.53000000
   H     74.04000000    29.67000000    33.45000000
   H     74.16000000    31.42000000    33.79000000
   N     69.27000000    30.80000000    32.60000000
   C     67.99000000    31.32000000    32.14000000
   H     67.26900000    31.28400000    32.95700000
   H     68.11300000    32.35200000    31.81100000
   H     67.62800000    30.71400000    31.30900000
   H     69.42000000    29.81000000    32.45000000
  Ca     77.22000000    30.51000000    29.86000000
   O     76.93000000    27.81000000    29.52000000
   H     77.07000000    27.46000000    30.40000000
   H     76.17000000    27.33000000    29.19000000

Ca 1.70



