%chk=holoCaM_loop3_90.0.chk
%nprocshared=48
%mem=10GB
%nosave
#b3lyp/svp scf=(tight,noincore) Test 
#IOP(5/87=12) Density=Current Pop=(MK,readradii) iop(6/33=2) iop(6/42=6)

holoCaM_loop3_90.0 

   0   1
   C     41.96000000    43.77000000    24.56000000
   C     42.04000000    43.43000000    26.04000000
   O     41.32000000    44.03000000    26.84000000
   H     41.64300000    44.80600000    24.44200000
   H     42.94000000    43.63600000    24.10200000
   H     41.23900000    43.11300000    24.07400000
   N     42.92000000    42.49000000    26.38000000
   C     43.38000000    42.22000000    27.73000000
   C     44.25000000    43.34000000    28.27000000
   O     45.11000000    43.78000000    27.50000000
   C     44.13000000    40.89000000    27.65000000
   C     44.73000000    40.39000000    28.96000000
   O     45.09000000    41.23000000    29.81000000
   O     44.83000000    39.17000000    29.20000000
   H     43.39000000    42.09000000    25.58000000
   H     42.54000000    42.03000000    28.41000000
   H     44.94000000    41.08000000    26.96000000
   H     43.41000000    40.16000000    27.27000000
   N     44.11000000    43.87000000    29.48000000
   C     44.92000000    44.92000000    30.06000000
   C     46.42000000    44.71000000    29.92000000
   O     47.16000000    45.54000000    29.38000000
   C     44.59000000    45.12000000    31.54000000
   C     45.42000000    46.19000000    32.24000000
   C     45.29000000    46.19000000    33.76000000
   C     46.22000000    47.13000000    34.53000000
   N     47.65000000    46.89000000    34.28000000
   H     43.49000000    43.27000000    30.01000000
   H     44.73000000    45.84000000    29.51000000
   H     44.76000000    44.22000000    32.13000000
   H     43.54000000    45.42000000    31.60000000
   H     45.30000000    47.17000000    31.77000000
   H     46.48000000    45.92000000    32.15000000
   H     45.45000000    45.18000000    34.12000000
   H     44.30000000    46.54000000    34.06000000
   H     46.07000000    47.01000000    35.61000000
   H     45.95000000    48.14000000    34.23000000
   H     48.00000000    47.10000000    33.35000000
   H     48.07000000    47.55000000    34.91000000
   H     47.94000000    45.97000000    34.57000000
   N     46.88000000    43.55000000    30.40000000
   C     48.27000000    43.18000000    30.60000000
   C     48.76000000    42.13000000    29.61000000
   O     49.89000000    41.66000000    29.69000000
   C     48.39000000    42.87000000    32.09000000
   C     47.29000000    42.17000000    32.87000000
   O     47.08000000    42.56000000    34.04000000
   O     46.64000000    41.21000000    32.40000000
   H     46.24000000    42.86000000    30.76000000
   H     48.94000000    44.02000000    30.45000000
   H     48.62000000    43.78000000    32.65000000
   H     49.33000000    42.32000000    32.16000000
   N     47.84000000    41.69000000    28.75000000
   C     48.00000000    40.62000000    27.79000000
   C     48.13000000    39.26000000    28.45000000
   O     48.69000000    38.38000000    27.79000000
   H     46.90000000    42.05000000    28.89000000
   H     48.82000000    40.80000000    27.09000000
   H     47.21000000    40.48000000    27.05000000
   N     47.84000000    39.08000000    29.74000000
   C     48.16000000    37.88000000    30.49000000
   C     47.47000000    36.60000000    30.03000000
   O     47.87000000    35.56000000    30.54000000
   C     48.09000000    38.22000000    31.98000000
   C     46.78000000    37.86000000    32.67000000
   N     46.79000000    37.07000000    33.74000000
   O     45.71000000    38.24000000    32.20000000
   H     47.18000000    39.76000000    30.07000000
   H     49.22000000    37.66000000    30.37000000
   H     48.35000000    39.26000000    32.18000000
   H     48.69000000    37.51000000    32.56000000
   H     47.66000000    36.69000000    34.08000000
   H     46.00000000    37.01000000    34.36000000
   N     46.59000000    36.67000000    29.03000000
   C     45.72000000    35.55000000    28.73000000
   C     44.37000000    35.39000000    29.42000000
   O     43.76000000    34.33000000    29.33000000
   H     46.27000000    37.56000000    28.68000000
   H     46.31000000    34.65000000    28.89000000
   H     45.46000000    35.54000000    27.67000000
   N     43.78000000    36.48000000    29.93000000
   C     42.53000000    36.53000000    30.66000000
   C     41.92000000    37.91000000    30.48000000
   O     42.58000000    38.92000000    30.67000000
   C     42.69000000    36.29000000    32.16000000
   C     42.99000000    34.85000000    32.47000000
   C     44.23000000    34.59000000    33.07000000
   C     42.06000000    33.81000000    32.35000000
   C     44.59000000    33.28000000    33.40000000
   C     42.39000000    32.50000000    32.72000000
   C     43.66000000    32.23000000    33.26000000
   O     43.94000000    30.91000000    33.47000000
   H     44.27000000    37.35000000    29.82000000
   H     41.76000000    35.85000000    30.30000000
   H     41.71000000    36.47000000    32.61000000
   H     43.33000000    37.04000000    32.63000000
   H     44.97000000    35.37000000    33.15000000
   H     41.06000000    33.88000000    31.94000000
   H     45.54000000    32.95000000    33.78000000
   H     41.62000000    31.74000000    32.59000000
   H     43.19000000    30.36000000    33.26000000
   N     40.59000000    37.92000000    30.28000000
   C     39.86000000    39.17000000    30.37000000
   C     38.92000000    39.13000000    31.56000000
   O     38.21000000    38.14000000    31.75000000
   C     39.28000000    39.42000000    28.98000000
   C     40.36000000    39.93000000    28.03000000
   C     38.10000000    40.39000000    29.01000000
   C     39.86000000    40.17000000    26.61000000
   H     40.01000000    37.12000000    30.11000000
   H     40.53000000    40.00000000    30.57000000
   H     38.86000000    38.49000000    28.59000000
   H     41.12000000    39.15000000    28.02000000
   H     40.74000000    40.88000000    28.41000000
   H     37.76000000    40.57000000    27.99000000
   H     37.22000000    40.08000000    29.57000000
   H     38.51000000    41.33000000    29.39000000
   H     40.69000000    40.14000000    25.91000000
   H     39.26000000    39.32000000    26.28000000
   H     39.42000000    41.16000000    26.52000000
   N     38.86000000    40.25000000    32.28000000
   C     38.07000000    40.55000000    33.45000000
   C     36.86000000    41.39000000    33.06000000
   O     36.91000000    42.11000000    32.06000000
   C     38.98000000    41.17000000    34.51000000
   O     39.43000000    42.43000000    34.09000000
   H     39.47000000    40.97000000    31.92000000
   H     37.67000000    39.65000000    33.93000000
   H     39.76000000    40.42000000    34.54000000
   H     38.44000000    41.28000000    35.46000000
   H     40.08000000    42.27000000    33.41000000
   N     35.89000000    41.56000000    33.96000000
   C     34.82000000    42.52000000    33.84000000
   C     35.33000000    43.95000000    33.78000000
   O     34.68000000    44.82000000    33.20000000
   C     33.80000000    42.29000000    34.95000000
   H     36.04000000    41.06000000    34.83000000
   H     34.33000000    42.28000000    32.90000000
   H     33.09000000    43.12000000    34.95000000
   H     33.19000000    41.40000000    34.75000000
   H     34.28000000    42.27000000    35.93000000
   N     36.52000000    44.19000000    34.34000000
   C     37.19000000    45.47000000    34.32000000
   C     37.86000000    45.75000000    32.98000000
   O     37.83000000    46.92000000    32.60000000
   C     38.20000000    45.63000000    35.46000000
   H     37.06000000    43.45000000    34.75000000
   H     36.47000000    46.29000000    34.38000000
   H     38.56000000    46.66000000    35.43000000
   H     37.67000000    45.40000000    36.39000000
   H     39.05000000    44.95000000    35.38000000
   N     38.20000000    44.72000000    32.21000000
   C     38.78000000    44.90000000    30.90000000
   C     37.78000000    44.93000000    29.75000000
   O     38.05000000    45.46000000    28.67000000
   C     39.77000000    43.77000000    30.64000000
   C     41.05000000    43.91000000    31.47000000
   C     41.71000000    42.56000000    31.74000000
   O     42.87000000    42.28000000    31.38000000
   O     41.11000000    41.70000000    32.42000000
   H     38.31000000    43.84000000    32.69000000
   H     39.43000000    45.78000000    30.88000000
   H     40.08000000    43.71000000    29.60000000
   H     39.26000000    42.86000000    30.94000000
   H     40.68000000    44.36000000    32.39000000
   H     41.68000000    44.59000000    30.92000000
   N     36.55000000    44.46000000    29.97000000
   C     35.48000000    44.44000000    28.99000000
   H     34.64900000    45.04700000    29.34800000
   H     35.84400000    44.84500000    28.04600000
   H     35.14200000    43.41400000    28.84100000
   H     36.36000000    43.80000000    30.71000000
  Ca     44.29000000    40.47000000    32.25000000
   O     44.53000000    42.37000000    34.08000000
   H     44.20000000    42.97000000    34.74000000
   H     45.48000000    42.52000000    34.07000000

Ca 1.70



