%chk=holoCaM_loop3_103.0.chk
%nprocshared=48
%mem=10GB
%nosave
#b3lyp/svp scf=(tight,noincore) Test 
#IOP(5/87=12) Density=Current Pop=(MK,readradii) iop(6/33=2) iop(6/42=6)

holoCaM_loop3_103.0 

   0   1
   C     65.17000000    47.59000000    20.68000000
   C     64.85000000    48.11000000    22.08000000
   O     65.36000000    47.63000000    23.09000000
   H     66.20600000    47.25200000    20.64700000
   H     64.50800000    46.75700000    20.44100000
   H     65.02600000    48.38900000    19.95300000
   N     63.93000000    49.07000000    22.18000000
   C     63.38000000    49.71000000    23.36000000
   C     61.95000000    49.29000000    23.65000000
   O     61.10000000    49.60000000    22.81000000
   C     63.60000000    51.22000000    23.36000000
   C     63.12000000    51.98000000    24.59000000
   O     63.44000000    53.17000000    24.77000000
   O     62.56000000    51.30000000    25.47000000
   H     63.61000000    49.42000000    21.28000000
   H     63.92000000    49.34000000    24.23000000
   H     63.08000000    51.64000000    22.49000000
   H     64.66000000    51.37000000    23.17000000
   N     61.76000000    48.61000000    24.78000000
   C     60.55000000    48.01000000    25.31000000
   C     59.48000000    49.00000000    25.74000000
   O     58.38000000    48.58000000    26.08000000
   C     60.83000000    47.13000000    26.53000000
   C     61.69000000    45.90000000    26.23000000
   C     61.56000000    45.04000000    27.48000000
   C     62.35000000    43.75000000    27.24000000
   N     63.80000000    44.01000000    27.21000000
   H     62.53000000    48.40000000    25.40000000
   H     60.17000000    47.34000000    24.55000000
   H     59.85000000    46.77000000    26.86000000
   H     61.25000000    47.59000000    27.41000000
   H     62.70000000    46.26000000    26.01000000
   H     61.30000000    45.45000000    25.32000000
   H     60.53000000    44.68000000    27.57000000
   H     61.98000000    45.43000000    28.41000000
   H     61.97000000    43.28000000    26.33000000
   H     62.15000000    43.09000000    28.08000000
   H     64.14000000    44.48000000    26.39000000
   H     64.15000000    44.55000000    27.99000000
   H     64.26000000    43.12000000    27.34000000
   N     59.71000000    50.30000000    25.54000000
   C     58.77000000    51.38000000    25.75000000
   C     58.99000000    52.61000000    24.89000000
   O     58.21000000    53.56000000    24.93000000
   C     58.65000000    51.76000000    27.23000000
   C     59.80000000    52.49000000    27.91000000
   O     60.89000000    52.74000000    27.35000000
   O     59.76000000    52.64000000    29.15000000
   H     60.67000000    50.62000000    25.48000000
   H     57.82000000    50.95000000    25.45000000
   H     58.33000000    50.81000000    27.66000000
   H     57.73000000    52.33000000    27.33000000
   N     60.09000000    52.77000000    24.15000000
   C     60.47000000    53.90000000    23.32000000
   C     60.44000000    55.22000000    24.08000000
   O     59.92000000    56.19000000    23.53000000
   H     60.69000000    51.95000000    24.18000000
   H     59.92000000    54.00000000    22.38000000
   H     61.47000000    53.65000000    22.99000000
   N     60.74000000    55.25000000    25.38000000
   C     60.48000000    56.36000000    26.28000000
   C     61.44000000    57.52000000    26.07000000
   O     61.49000000    58.36000000    26.96000000
   C     60.22000000    55.91000000    27.71000000
   C     61.47000000    55.64000000    28.54000000
   N     61.54000000    56.04000000    29.81000000
   O     62.48000000    55.22000000    27.98000000
   H     61.14000000    54.39000000    25.73000000
   H     59.52000000    56.68000000    25.87000000
   H     59.64000000    54.99000000    27.65000000
   H     59.59000000    56.65000000    28.19000000
   H     60.68000000    55.98000000    30.34000000
   H     62.34000000    55.64000000    30.28000000
   N     62.24000000    57.65000000    25.00000000
   C     63.20000000    58.68000000    24.65000000
   C     64.61000000    58.43000000    25.17000000
   O     65.56000000    59.14000000    24.87000000
   H     62.08000000    56.91000000    24.33000000
   H     62.81000000    59.61000000    25.06000000
   H     63.34000000    58.71000000    23.57000000
   N     64.74000000    57.36000000    25.95000000
   C     65.92000000    56.90000000    26.67000000
   C     66.17000000    55.41000000    26.51000000
   O     65.27000000    54.58000000    26.50000000
   C     65.73000000    57.28000000    28.13000000
   C     65.52000000    58.76000000    28.34000000
   C     64.30000000    59.34000000    28.70000000
   C     66.53000000    59.66000000    27.97000000
   C     64.05000000    60.70000000    28.85000000
   C     66.32000000    61.04000000    28.05000000
   C     65.07000000    61.57000000    28.42000000
   O     64.84000000    62.92000000    28.44000000
   H     63.93000000    56.76000000    26.01000000
   H     66.74000000    57.47000000    26.22000000
   H     66.50000000    56.88000000    28.79000000
   H     64.84000000    56.83000000    28.58000000
   H     63.61000000    58.65000000    29.17000000
   H     67.49000000    59.30000000    27.63000000
   H     63.10000000    61.05000000    29.23000000
   H     67.16000000    61.67000000    27.78000000
   H     65.53000000    63.50000000    28.13000000
   N     67.42000000    54.96000000    26.63000000
   C     67.85000000    53.58000000    26.73000000
   C     68.68000000    53.43000000    28.00000000
   O     69.60000000    54.21000000    28.23000000
   C     68.45000000    53.23000000    25.37000000
   C     67.33000000    52.79000000    24.44000000
   C     69.54000000    52.18000000    25.56000000
   C     67.81000000    52.43000000    23.04000000
   H     68.14000000    55.66000000    26.77000000
   H     67.03000000    52.88000000    26.85000000
   H     68.94000000    54.10000000    24.93000000
   H     66.53000000    53.53000000    24.34000000
   H     66.80000000    51.94000000    24.87000000
   H     70.00000000    51.91000000    24.60000000
   H     70.30000000    52.40000000    26.31000000
   H     69.06000000    51.25000000    25.88000000
   H     68.09000000    51.38000000    22.92000000
   H     67.07000000    52.65000000    22.28000000
   H     68.63000000    53.09000000    22.76000000
   N     68.40000000    52.32000000    28.70000000
   C     69.13000000    51.86000000    29.86000000
   C     70.29000000    50.95000000    29.46000000
   O     70.26000000    50.44000000    28.34000000
   C     68.19000000    51.10000000    30.78000000
   O     67.76000000    49.93000000    30.12000000
   H     67.68000000    51.69000000    28.38000000
   H     69.47000000    52.67000000    30.50000000
   H     67.34000000    51.68000000    31.14000000
   H     68.67000000    50.74000000    31.69000000
   H     67.17000000    49.47000000    30.71000000
   N     71.24000000    50.59000000    30.32000000
   C     72.22000000    49.58000000    30.01000000
   C     71.53000000    48.28000000    29.62000000
   O     71.89000000    47.65000000    28.63000000
   C     73.15000000    49.55000000    31.22000000
   H     71.29000000    51.05000000    31.22000000
   H     72.82000000    50.00000000    29.20000000
   H     72.53000000    49.35000000    32.09000000
   H     73.84000000    48.72000000    31.12000000
   H     73.63000000    50.53000000    31.27000000
   N     70.60000000    47.78000000    30.44000000
   C     69.89000000    46.54000000    30.19000000
   C     69.02000000    46.58000000    28.95000000
   O     68.95000000    45.52000000    28.32000000
   C     69.02000000    46.21000000    31.40000000
   H     70.29000000    48.36000000    31.20000000
   H     70.55000000    45.68000000    30.11000000
   H     69.55000000    46.32000000    32.35000000
   H     68.16000000    46.87000000    31.45000000
   H     68.70000000    45.17000000    31.27000000
   N     68.60000000    47.72000000    28.40000000
   C     68.00000000    47.92000000    27.09000000
   C     69.09000000    47.94000000    26.03000000
   O     69.04000000    47.19000000    25.06000000
   C     67.16000000    49.19000000    27.00000000
   C     65.84000000    48.95000000    27.73000000
   C     64.96000000    50.19000000    27.72000000
   O     64.06000000    50.38000000    28.56000000
   O     65.22000000    51.11000000    26.91000000
   H     68.65000000    48.52000000    29.02000000
   H     67.34000000    47.07000000    26.89000000
   H     67.00000000    49.38000000    25.94000000
   H     67.72000000    50.02000000    27.43000000
   H     66.05000000    48.57000000    28.73000000
   H     65.23000000    48.20000000    27.22000000
   N     70.16000000    48.70000000    26.26000000
   C     71.43000000    48.54000000    25.56000000
   H     72.20900000    48.28200000    26.27700000
   H     71.34000000    47.74500000    24.82000000
   H     71.69100000    49.47400000    25.06100000
   H     70.13000000    49.31000000    27.06000000
  Ca     63.53000000    52.84000000    27.53000000
   O     65.10000000    53.88000000    29.33000000
   H     64.48000000    54.17000000    30.00000000
   H     65.96000000    54.06000000    29.71000000

Ca 1.70



