%chk=holoCaM_loop3_95.0.chk
%nprocshared=48
%mem=10GB
%nosave
#b3lyp/svp scf=(tight,noincore) Test 
#IOP(5/87=12) Density=Current Pop=(MK,readradii) iop(6/33=2) iop(6/42=6)

holoCaM_loop3_95.0 

   0   1
   C     67.10000000    50.02000000    91.69000000
   C     67.06000000    50.90000000    92.94000000
   O     67.21000000    50.31000000    94.00000000
   H     68.02700000    50.20300000    91.14700000
   H     67.05100000    48.97100000    91.98200000
   H     66.25100000    50.25900000    91.04900000
   N     66.73000000    52.18000000    92.77000000
   C     66.33000000    53.08000000    93.83000000
   C     64.90000000    52.83000000    94.26000000
   O     63.94000000    53.16000000    93.55000000
   C     66.64000000    54.50000000    93.35000000
   C     66.02000000    55.57000000    94.24000000
   O     65.94000000    56.73000000    93.80000000
   O     65.70000000    55.38000000    95.43000000
   H     66.56000000    52.45000000    91.81000000
   H     66.94000000    52.90000000    94.71000000
   H     66.14000000    54.61000000    92.39000000
   H     67.71000000    54.66000000    93.18000000
   N     64.61000000    52.33000000    95.46000000
   C     63.38000000    51.63000000    95.78000000
   C     62.25000000    52.59000000    96.12000000
   O     61.16000000    52.46000000    95.56000000
   C     63.47000000    50.55000000    96.85000000
   C     64.43000000    49.44000000    96.43000000
   C     64.05000000    48.59000000    95.22000000
   C     65.15000000    47.59000000    94.86000000
   N     64.91000000    47.02000000    93.53000000
   H     65.40000000    52.24000000    96.08000000
   H     63.02000000    51.07000000    94.91000000
   H     62.50000000    50.17000000    97.18000000
   H     63.95000000    51.02000000    97.70000000
   H     64.37000000    48.72000000    97.24000000
   H     65.46000000    49.78000000    96.37000000
   H     63.87000000    49.23000000    94.37000000
   H     63.11000000    48.09000000    95.44000000
   H     65.03000000    46.73000000    95.52000000
   H     66.19000000    47.94000000    94.92000000
   H     63.99000000    46.63000000    93.41000000
   H     64.95000000    47.65000000    92.74000000
   H     65.53000000    46.23000000    93.39000000
   N     62.55000000    53.62000000    96.92000000
   C     61.68000000    54.74000000    97.20000000
   C     61.62000000    55.76000000    96.07000000
   O     60.62000000    56.44000000    95.85000000
   C     61.93000000    55.32000000    98.59000000
   C     63.24000000    56.07000000    98.80000000
   O     64.05000000    56.19000000    97.86000000
   O     63.42000000    56.62000000    99.91000000
   H     63.54000000    53.63000000    97.14000000
   H     60.73000000    54.21000000    97.23000000
   H     62.07000000    54.48000000    99.27000000
   H     61.05000000    55.91000000    98.86000000
   N     62.73000000    55.77000000    95.34000000
   C     62.84000000    56.68000000    94.21000000
   C     63.47000000    58.06000000    94.26000000
   O     63.58000000    58.72000000    93.23000000
   H     63.58000000    55.29000000    95.60000000
   H     61.85000000    56.89000000    93.79000000
   H     63.22000000    56.05000000    93.40000000
   N     63.81000000    58.39000000    95.51000000
   C     64.35000000    59.66000000    95.94000000
   C     65.54000000    60.22000000    95.17000000
   O     65.90000000    61.35000000    95.50000000
   C     64.63000000    59.60000000    97.44000000
   C     65.86000000    58.82000000    97.87000000
   N     66.22000000    58.88000000    99.15000000
   O     66.47000000    58.07000000    97.11000000
   H     63.75000000    57.69000000    96.24000000
   H     63.61000000    60.42000000    95.67000000
   H     63.81000000    59.23000000    98.05000000
   H     64.76000000    60.60000000    97.87000000
   H     65.61000000    59.31000000    99.83000000
   H     66.90000000    58.27000000    99.58000000
   N     66.18000000    59.44000000    94.30000000
   C     67.35000000    59.86000000    93.56000000
   C     68.64000000    59.13000000    93.89000000
   O     69.67000000    59.46000000    93.30000000
   H     65.87000000    58.49000000    94.13000000
   H     67.55000000    60.93000000    93.69000000
   H     67.08000000    59.73000000    92.51000000
   N     68.59000000    58.22000000    94.86000000
   C     69.79000000    57.58000000    95.37000000
   C     69.62000000    56.09000000    95.66000000
   O     68.70000000    55.63000000    96.32000000
   C     70.31000000    58.33000000    96.59000000
   C     70.71000000    59.78000000    96.44000000
   C     69.69000000    60.74000000    96.43000000
   C     72.06000000    60.12000000    96.55000000
   C     70.03000000    62.09000000    96.34000000
   C     72.38000000    61.48000000    96.60000000
   C     71.38000000    62.46000000    96.41000000
   O     71.76000000    63.77000000    96.38000000
   H     67.70000000    57.89000000    95.21000000
   H     70.61000000    57.69000000    94.67000000
   H     71.24000000    57.82000000    96.87000000
   H     69.60000000    58.33000000    97.42000000
   H     68.65000000    60.44000000    96.52000000
   H     72.79000000    59.33000000    96.54000000
   H     69.29000000    62.88000000    96.42000000
   H     73.35000000    61.86000000    96.89000000
   H     72.70000000    63.92000000    96.35000000
   N     70.62000000    55.29000000    95.29000000
   C     70.86000000    53.98000000    95.87000000
   C     71.69000000    54.15000000    97.14000000
   O     72.87000000    54.49000000    97.07000000
   C     71.53000000    53.13000000    94.79000000
   C     70.50000000    52.84000000    93.70000000
   C     72.10000000    51.84000000    95.37000000
   C     70.86000000    51.96000000    92.51000000
   H     71.46000000    55.67000000    94.88000000
   H     69.94000000    53.49000000    96.19000000
   H     72.33000000    53.74000000    94.39000000
   H     70.27000000    53.81000000    93.24000000
   H     69.65000000    52.40000000    94.21000000
   H     72.47000000    51.18000000    94.59000000
   H     72.89000000    52.05000000    96.09000000
   H     71.31000000    51.27000000    95.88000000
   H     70.15000000    51.99000000    91.68000000
   H     71.85000000    52.19000000    92.11000000
   H     70.85000000    50.90000000    92.77000000
   N     71.12000000    53.83000000    98.30000000
   C     71.88000000    53.58000000    99.50000000
   C     72.52000000    52.19000000    99.49000000
   O     72.28000000    51.38000000    98.60000000
   C     71.04000000    53.74000000   100.77000000
   O     69.94000000    52.87000000   100.63000000
   H     70.12000000    53.70000000    98.40000000
   H     72.66000000    54.34000000    99.62000000
   H     70.51000000    54.67000000   100.97000000
   H     71.61000000    53.41000000   101.64000000
   H     69.25000000    53.32000000   100.14000000
   N     73.44000000    51.98000000   100.43000000
   C     74.07000000    50.69000000   100.64000000
   C     73.03000000    49.63000000   100.96000000
   O     73.12000000    48.49000000   100.51000000
   C     75.16000000    50.76000000   101.71000000
   H     73.46000000    52.59000000   101.23000000
   H     74.57000000    50.41000000    99.71000000
   H     75.69000000    49.82000000   101.85000000
   H     75.88000000    51.47000000   101.29000000
   H     74.83000000    51.15000000   102.67000000
   N     72.00000000    50.02000000   101.72000000
   C     70.86000000    49.16000000   101.99000000
   C     70.23000000    48.58000000   100.73000000
   O     70.07000000    47.37000000   100.58000000
   C     69.89000000    49.94000000   102.87000000
   H     72.11000000    50.90000000   102.20000000
   H     71.29000000    48.40000000   102.65000000
   H     68.87000000    49.56000000   102.89000000
   H     70.22000000    50.28000000   103.85000000
   H     69.69000000    50.87000000   102.34000000
   N     69.91000000    49.51000000    99.83000000
   C     69.27000000    49.24000000    98.56000000
   C     70.19000000    48.40000000    97.68000000
   O     69.86000000    47.54000000    96.86000000
   C     68.87000000    50.46000000    97.74000000
   C     67.72000000    51.24000000    98.37000000
   C     67.53000000    52.71000000    98.02000000
   O     68.28000000    53.59000000    98.50000000
   O     66.56000000    53.03000000    97.30000000
   H     70.02000000    50.50000000   100.00000000
   H     68.36000000    48.67000000    98.73000000
   H     68.69000000    50.23000000    96.69000000
   H     69.67000000    51.19000000    97.86000000
   H     67.91000000    51.22000000    99.44000000
   H     66.82000000    50.67000000    98.13000000
   N     71.49000000    48.69000000    97.67000000
   C     72.42000000    48.05000000    96.77000000
   H     73.36400000    47.87600000    97.28700000
   H     72.00800000    47.09700000    96.43800000
   H     72.59200000    48.69300000    95.90700000
   H     71.81000000    49.45000000    98.26000000
  Ca     66.43000000    55.45000000    97.85000000
   O     65.63000000    54.54000000   100.37400000
   H     66.21000000    54.07000000   100.97400000
   H     65.23000000    55.21000000   100.91400000

Ca 1.70



