%chk=holoCaM_loop3_98.0.chk
%nprocshared=48
%mem=10GB
%nosave
#b3lyp/svp scf=(tight,noincore) Test 
#IOP(5/87=12) Density=Current Pop=(MK,readradii) iop(6/33=2) iop(6/42=6)

holoCaM_loop3_98.0 

   0   1
   C     66.02000000    57.11000000    92.28000000
   C     65.61000000    57.98000000    93.46000000
   O     65.59000000    57.51000000    94.60000000
   H     67.03900000    56.75400000    92.42900000
   H     65.34500000    56.25700000    92.20500000
   H     65.97100000    57.69500000    91.36200000
   N     65.16000000    59.21000000    93.20000000
   C     64.68000000    60.09000000    94.25000000
   C     63.28000000    59.70000000    94.70000000
   O     62.29000000    60.06000000    94.06000000
   C     64.75000000    61.55000000    93.81000000
   C     64.38000000    62.55000000    94.89000000
   O     64.24000000    63.74000000    94.56000000
   O     64.32000000    62.13000000    96.07000000
   H     65.15000000    59.42000000    92.21000000
   H     65.37000000    60.03000000    95.09000000
   H     64.13000000    61.84000000    92.97000000
   H     65.81000000    61.75000000    93.63000000
   N     63.21000000    58.94000000    95.79000000
   C     62.03000000    58.26000000    96.28000000
   C     61.01000000    59.13000000    97.00000000
   O     59.88000000    58.66000000    97.08000000
   C     62.46000000    57.13000000    97.21000000
   C     63.41000000    56.01000000    96.78000000
   C     63.02000000    55.43000000    95.43000000
   C     63.75000000    54.21000000    94.86000000
   N     63.06000000    53.84000000    93.62000000
   H     64.10000000    58.78000000    96.24000000
   H     61.47000000    57.83000000    95.44000000
   H     61.54000000    56.59000000    97.43000000
   H     62.73000000    57.61000000    98.15000000
   H     63.43000000    55.21000000    97.51000000
   H     64.44000000    56.35000000    96.65000000
   H     63.05000000    56.28000000    94.75000000
   H     61.97000000    55.16000000    95.50000000
   H     63.66000000    53.42000000    95.60000000
   H     64.80000000    54.41000000    94.65000000
   H     62.12000000    53.54000000    93.84000000
   H     62.93000000    54.56000000    92.91000000
   H     63.43000000    53.00000000    93.19000000
   N     61.38000000    60.33000000    97.45000000
   C     60.57000000    61.29000000    98.16000000
   C     60.25000000    62.57000000    97.40000000
   O     59.20000000    63.16000000    97.60000000
   C     61.28000000    61.66000000    99.46000000
   C     62.78000000    61.81000000    99.25000000
   O     63.25000000    62.96000000    99.11000000
   O     63.54000000    60.81000000    99.28000000
   H     62.29000000    60.61000000    97.11000000
   H     59.58000000    60.86000000    98.32000000
   H     61.12000000    60.84000000   100.15000000
   H     60.76000000    62.46000000    99.99000000
   N     61.11000000    63.01000000    96.48000000
   C     60.96000000    64.20000000    95.66000000
   C     61.80000000    65.41000000    96.01000000
   O     61.55000000    66.45000000    95.39000000
   H     61.85000000    62.35000000    96.28000000
   H     59.91000000    64.49000000    95.63000000
   H     61.30000000    63.91000000    94.66000000
   N     62.65000000    65.34000000    97.04000000
   C     63.38000000    66.51000000    97.48000000
   C     64.48000000    67.03000000    96.56000000
   O     65.14000000    67.94000000    97.06000000
   C     63.98000000    66.32000000    98.87000000
   C     65.14000000    65.33000000    98.86000000
   N     65.84000000    65.36000000   100.00000000
   O     65.41000000    64.61000000    97.91000000
   H     63.00000000    64.45000000    97.34000000
   H     62.73000000    67.37000000    97.67000000
   H     63.16000000    65.95000000    99.49000000
   H     64.22000000    67.34000000    99.14000000
   H     65.68000000    66.14000000   100.62000000
   H     66.53000000    64.64000000   100.16000000
   N     64.73000000    66.41000000    95.41000000
   C     65.68000000    66.85000000    94.41000000
   C     67.12000000    66.42000000    94.68000000
   O     68.02000000    67.05000000    94.13000000
   H     64.20000000    65.59000000    95.15000000
   H     65.61000000    67.93000000    94.54000000
   H     65.37000000    66.52000000    93.42000000
   N     67.37000000    65.43000000    95.54000000
   C     68.65000000    64.91000000    95.97000000
   C     68.52000000    63.40000000    96.09000000
   O     67.51000000    62.83000000    96.47000000
   C     69.08000000    65.52000000    97.30000000
   C     69.20000000    67.02000000    97.46000000
   C     68.67000000    67.57000000    98.63000000
   C     69.97000000    67.75000000    96.55000000
   C     68.86000000    68.93000000    98.89000000
   C     70.13000000    69.11000000    96.81000000
   C     69.51000000    69.72000000    97.92000000
   O     69.44000000    71.07000000    98.05000000
   H     66.56000000    65.06000000    96.01000000
   H     69.46000000    65.03000000    95.25000000
   H     70.10000000    65.13000000    97.36000000
   H     68.52000000    65.07000000    98.11000000
   H     68.12000000    66.90000000    99.29000000
   H     70.55000000    67.25000000    95.78000000
   H     68.38000000    69.31000000    99.78000000
   H     70.71000000    69.77000000    96.18000000
   H     69.86000000    71.53000000    97.32000000
   N     69.58000000    62.74000000    95.61000000
   C     69.84000000    61.32000000    95.77000000
   C     70.94000000    61.18000000    96.82000000
   O     71.97000000    61.84000000    96.73000000
   C     70.18000000    60.64000000    94.45000000
   C     69.08000000    60.88000000    93.42000000
   C     70.41000000    59.14000000    94.64000000
   C     69.46000000    60.50000000    91.99000000
   H     70.35000000    63.28000000    95.25000000
   H     68.95000000    60.86000000    96.17000000
   H     71.12000000    61.07000000    94.09000000
   H     68.74000000    61.91000000    93.49000000
   H     68.18000000    60.31000000    93.67000000
   H     70.78000000    58.61000000    93.76000000
   H     71.02000000    58.88000000    95.51000000
   H     69.43000000    58.76000000    94.94000000
   H     68.56000000    60.60000000    91.38000000
   H     70.22000000    61.20000000    91.65000000
   H     69.84000000    59.48000000    91.92000000
   N     70.69000000    60.27000000    97.76000000
   C     71.67000000    59.72000000    98.68000000
   C     72.26000000    58.38000000    98.29000000
   O     71.85000000    57.73000000    97.33000000
   C     71.00000000    59.54000000   100.04000000
   O     70.21000000    58.37000000    99.99000000
   H     69.77000000    59.86000000    97.74000000
   H     72.45000000    60.46000000    98.81000000
   H     70.38000000    60.40000000   100.29000000
   H     71.76000000    59.39000000   100.81000000
   H     69.49000000    58.60000000   100.59000000
   N     73.37000000    58.05000000    98.95000000
   C     73.88000000    56.70000000    98.83000000
   C     72.89000000    55.54000000    98.88000000
   O     72.83000000    54.68000000    98.01000000
   C     74.93000000    56.54000000    99.92000000
   H     73.63000000    58.60000000    99.75000000
   H     74.44000000    56.71000000    97.89000000
   H     74.53000000    56.90000000   100.87000000
   H     75.23000000    55.50000000   100.04000000
   H     75.79000000    57.21000000    99.89000000
   N     71.97000000    55.57000000    99.84000000
   C     70.87000000    54.64000000   100.00000000
   C     69.95000000    54.60000000    98.79000000
   O     69.56000000    53.52000000    98.35000000
   C     70.23000000    55.00000000   101.33000000
   H     71.87000000    56.40000000   100.42000000
   H     71.24000000    53.61000000   100.04000000
   H     69.76000000    55.96000000   101.09000000
   H     69.47000000    54.27000000   101.62000000
   H     70.93000000    55.22000000   102.13000000
   N     69.54000000    55.75000000    98.25000000
   C     68.68000000    55.85000000    97.08000000
   C     69.32000000    55.46000000    95.76000000
   O     68.63000000    54.87000000    94.93000000
   C     68.18000000    57.29000000    97.04000000
   C     67.33000000    57.68000000    98.25000000
   C     66.84000000    59.11000000    98.05000000
   O     67.64000000    60.05000000    98.21000000
   O     65.67000000    59.36000000    97.72000000
   H     70.05000000    56.59000000    98.48000000
   H     67.82000000    55.19000000    97.21000000
   H     67.67000000    57.45000000    96.09000000
   H     68.99000000    58.01000000    96.94000000
   H     67.91000000    57.75000000    99.17000000
   H     66.49000000    57.01000000    98.46000000
   N     70.61000000    55.75000000    95.62000000
   C     71.51000000    55.20000000    94.62000000
   H     72.46600000    54.96100000    95.08500000
   H     71.07500000    54.29400000    94.19800000
   H     71.66500000    55.93200000    93.82800000
   H     71.05000000    56.29000000    96.36000000
  Ca     65.67000000    61.91000000    98.28000000
   O     67.83000000    62.94000000    99.28000000
   H     68.47000000    62.22000000    99.31000000
   H     68.10000000    63.53000000    99.98000000

Ca 1.70



