%chk=holoCaM_loop3_25.0.chk
%nprocshared=48
%mem=10GB
%nosave
#b3lyp/svp scf=(tight,noincore) Test 
#IOP(5/87=12) Density=Current Pop=(MK,readradii) iop(6/33=2) iop(6/42=6)

holoCaM_loop3_25.0 

   0   1
   C     91.64000000    57.72000000   101.59800000
   C     93.04000000    58.10000000   101.13800000
   O     93.70000000    57.44000000   100.33800000
   H     90.93900000    57.85200000   100.77400000
   H     91.63200000    56.67800000   101.91800000
   H     91.34500000    58.35800000   102.43100000
   N     93.53000000    59.23000000   101.65800000
   C     94.92000000    59.62000000   101.49800000
   C     95.79000000    59.05000000   102.60800000
   O     95.43000000    59.09000000   103.78800000
   C     94.95000000    61.14000000   101.49800000
   C     96.26000000    61.82000000   101.11800000
   O     96.27000000    63.07000000   101.15800000
   O     97.24000000    61.10000000   100.83800000
   H     92.85000000    59.89000000   102.00800000
   H     95.39000000    59.28000000   100.57800000
   H     94.61000000    61.57000000   102.44800000
   H     94.15000000    61.49000000   100.84800000
   N     96.96000000    58.52000000   102.23800000
   C     97.73000000    57.67000000   103.11800000
   C     99.07000000    58.21000000   103.61800000
   O     99.65000000    57.73000000   104.58800000
   C     98.05000000    56.38000000   102.37800000
   C     96.87000000    55.44000000   102.11800000
   C     97.30000000    54.12000000   101.48800000
   C     98.14000000    53.28000000   102.44800000
   N     97.45000000    53.03000000   103.71800000
   H     97.32000000    58.61000000   101.29800000
   H     97.12000000    57.41000000   103.98800000
   H     98.73000000    55.84000000   103.02800000
   H     98.55000000    56.62000000   101.43800000
   H     96.25000000    55.96000000   101.37800000
   H     96.21000000    55.25000000   102.96800000
   H     97.94000000    54.38000000   100.64800000
   H     96.34000000    53.66000000   101.23800000
   H     99.04000000    53.86000000   102.65800000
   H     98.40000000    52.41000000   101.84800000
   H     97.84000000    52.28000000   104.27800000
   H     97.39000000    53.81000000   104.34800000
   H     96.50000000    52.76000000   103.53800000
   N     99.50000000    59.25000000   102.90800000
   C    100.63000000    60.08000000   103.25800000
   C    100.26000000    61.55000000   103.46800000
   O    101.16000000    62.38000000   103.57800000
   C    101.66000000    59.83000000   102.15800000
   C    101.31000000    60.13000000   100.70800000
   O    102.14000000    59.89000000    99.80800000
   O    100.14000000    60.54000000   100.52800000
   H     99.01000000    59.42000000   102.03800000
   H    101.04000000    59.71000000   104.19800000
   H    101.88000000    58.77000000   102.19800000
   H    102.64000000    60.28000000   102.36800000
   N     98.97000000    61.84000000   103.60800000
   C     98.36000000    63.12000000   103.90800000
   C     98.87000000    64.29000000   103.08800000
   O     99.21000000    65.28000000   103.72800000
   H     98.27000000    61.11000000   103.51800000
   H     98.60000000    63.39000000   104.93800000
   H     97.28000000    63.00000000   103.81800000
   N     98.87000000    64.21000000   101.75800000
   C     99.36000000    65.25000000   100.86800000
   C     98.30000000    66.18000000   100.29800000
   O     98.64000000    67.32000000    99.95800000
   C    100.16000000    64.61000000    99.74800000
   C     99.40000000    64.08000000    98.53800000
   N     99.73000000    64.54000000    97.33800000
   O     98.47000000    63.28000000    98.69800000
   H     98.42000000    63.40000000   101.36800000
   H    100.03000000    65.88000000   101.45800000
   H    100.71000000    63.75000000   100.12800000
   H    100.92000000    65.31000000    99.38800000
   H    100.27000000    65.39000000    97.24800000
   H     99.55000000    63.92000000    96.55800000
   N     97.06000000    65.73000000   100.11800000
   C     95.92000000    66.39000000    99.49800000
   C     95.25000000    65.63000000    98.36800000
   O     94.38000000    66.12000000    97.64800000
   H     96.94000000    64.77000000   100.39800000
   H     96.33000000    67.31000000    99.08800000
   H     95.20000000    66.63000000   100.27800000
   N     95.77000000    64.45000000    98.01800000
   C     95.27000000    63.77000000    96.83800000
   C     95.31000000    62.25000000    97.01800000
   O     96.21000000    61.75000000    97.69800000
   C     96.14000000    64.21000000    95.66800000
   C     96.26000000    65.67000000    95.31800000
   C     97.30000000    66.47000000    95.81800000
   C     95.35000000    66.22000000    94.40800000
   C     97.40000000    67.82000000    95.44800000
   C     95.43000000    67.57000000    94.03800000
   C     96.48000000    68.36000000    94.53800000
   O     96.70000000    69.64000000    94.10800000
   H     96.62000000    64.12000000    98.45800000
   H     94.22000000    64.02000000    96.69800000
   H     95.72000000    63.65000000    94.82800000
   H     97.15000000    63.87000000    95.89800000
   H     97.94000000    66.18000000    96.63800000
   H     94.69000000    65.60000000    93.81800000
   H     98.12000000    68.41000000    95.99800000
   H     94.86000000    67.92000000    93.18800000
   H     96.06000000    69.89000000    93.42800000
   N     94.42000000    61.59000000    96.27800000
   C     94.46000000    60.14000000    96.19800000
   C     95.25000000    59.75000000    94.94800000
   O     95.07000000    60.43000000    93.94800000
   C     93.04000000    59.60000000    96.17800000
   C     92.00000000    60.22000000    97.10800000
   C     93.07000000    58.10000000    96.44800000
   C     92.48000000    60.35000000    98.55800000
   H     93.84000000    62.03000000    95.57800000
   H     94.99000000    59.82000000    97.08800000
   H     92.63000000    59.76000000    95.17800000
   H     91.18000000    59.49000000    97.09800000
   H     91.65000000    61.15000000    96.67800000
   H     92.11000000    57.62000000    96.63800000
   H     93.34000000    57.70000000    95.46800000
   H     93.74000000    57.77000000    97.24800000
   H     93.23000000    61.14000000    98.63800000
   H     91.59000000    60.60000000    99.12800000
   H     92.88000000    59.39000000    98.86800000
   N     95.95000000    58.62000000    95.05800000
   C     96.72000000    57.93000000    94.04800000
   C     96.32000000    56.47000000    93.93800000
   O     95.60000000    55.90000000    94.76800000
   C     98.23000000    58.05000000    94.28800000
   O     98.73000000    57.36000000    95.40800000
   H     96.15000000    58.37000000    96.01800000
   H     96.55000000    58.42000000    93.09800000
   H     98.51000000    59.10000000    94.37800000
   H     98.71000000    57.73000000    93.36800000
   H     98.31000000    57.79000000    96.15800000
   N     96.79000000    55.78000000    92.89800000
   C     96.27000000    54.50000000    92.47800000
   C     96.51000000    53.42000000    93.51800000
   O     95.58000000    52.66000000    93.77800000
   C     96.99000000    54.11000000    91.18800000
   H     97.38000000    56.27000000    92.23800000
   H     95.20000000    54.60000000    92.29800000
   H     96.94000000    54.83000000    90.37800000
   H     98.04000000    53.84000000    91.32800000
   H     96.49000000    53.18000000    90.91800000
   N     97.72000000    53.48000000    94.09800000
   C     98.01000000    52.54000000    95.15800000
   C     97.11000000    52.69000000    96.37800000
   O     96.58000000    51.70000000    96.87800000
   C     99.48000000    52.60000000    95.57800000
   H     98.39000000    54.19000000    93.83800000
   H     97.89000000    51.53000000    94.77800000
   H     99.65000000    53.66000000    95.75800000
   H     99.57000000    52.10000000    96.53800000
   H    100.11000000    52.23000000    94.77800000
   N     96.84000000    53.95000000    96.71800000
   C     95.89000000    54.38000000    97.71800000
   C     94.41000000    54.16000000    97.43800000
   O     93.62000000    54.02000000    98.37800000
   C     95.99000000    55.87000000    97.97800000
   C     97.40000000    56.31000000    98.37800000
   C     97.42000000    57.83000000    98.46800000
   O     97.62000000    58.47000000    99.52800000
   O     97.39000000    58.52000000    97.42800000
   H     97.29000000    54.68000000    96.18800000
   H     96.06000000    53.80000000    98.62800000
   H     95.33000000    56.01000000    98.83800000
   H     95.60000000    56.42000000    97.11800000
   H     98.07000000    56.10000000    97.53800000
   H     97.65000000    55.93000000    99.36800000
   N     94.01000000    54.10000000    96.15800000
   C     92.69000000    53.72000000    95.69800000
   H     92.01400000    54.57000000    95.79200000
   H     92.74300000    53.41300000    94.65400000
   H     92.31800000    52.89300000    96.30200000
   H     94.69000000    54.39000000    95.47800000
  Ca     98.64000000    60.68000000    98.60000000
   O     98.62000000    61.26000000    95.99000000
   H     99.30000000    60.67000000    95.66000000
   H     98.51000000    61.92000000    95.31000000

Ca 1.70



