%chk=holoCaM_loop3_26.0.chk
%nprocshared=48
%mem=10GB
%nosave
#b3lyp/svp scf=(tight,noincore) Test 
#IOP(5/87=12) Density=Current Pop=(MK,readradii) iop(6/33=2) iop(6/42=6)

holoCaM_loop3_26.0 

   0   1
   C     49.36000000    39.90000000    22.34000000
   C     49.53000000    39.06000000    23.60000000
   O     49.36000000    39.60000000    24.69000000
   H     48.67800000    40.72500000    22.54400000
   H     50.32800000    40.29700000    22.03400000
   H     48.95200000    39.28000000    21.54200000
   N     49.77000000    37.75000000    23.55000000
   C     50.69000000    37.09000000    24.45000000
   C     52.05000000    37.77000000    24.57000000
   O     52.67000000    38.04000000    23.55000000
   C     50.78000000    35.62000000    24.07000000
   C     51.66000000    34.74000000    24.95000000
   O     51.98000000    35.15000000    26.08000000
   O     52.10000000    33.64000000    24.55000000
   H     49.79000000    37.33000000    22.63000000
   H     50.16000000    37.07000000    25.41000000
   H     51.22000000    35.67000000    23.07000000
   H     49.77000000    35.22000000    24.09000000
   N     52.46000000    37.96000000    25.83000000
   C     53.63000000    38.76000000    26.10000000
   C     54.74000000    37.93000000    26.73000000
   O     55.92000000    38.25000000    26.56000000
   C     53.37000000    39.97000000    27.00000000
   C     52.59000000    41.08000000    26.31000000
   C     52.62000000    42.29000000    27.24000000
   C     51.86000000    43.55000000    26.83000000
   N     52.47000000    44.26000000    25.69000000
   H     51.83000000    37.63000000    26.54000000
   H     54.00000000    39.22000000    25.18000000
   H     54.31000000    40.39000000    27.38000000
   H     52.77000000    39.68000000    27.86000000
   H     51.56000000    40.77000000    26.16000000
   H     52.97000000    41.22000000    25.29000000
   H     53.64000000    42.55000000    27.51000000
   H     52.30000000    42.01000000    28.24000000
   H     52.00000000    44.26000000    27.65000000
   H     50.81000000    43.37000000    26.59000000
   H     52.25000000    45.24000000    25.58000000
   H     53.48000000    44.26000000    25.73000000
   H     52.30000000    43.78000000    24.82000000
   N     54.48000000    36.77000000    27.34000000
   C     55.50000000    35.88000000    27.86000000
   C     55.65000000    34.57000000    27.10000000
   O     56.46000000    33.68000000    27.35000000
   C     55.41000000    35.72000000    29.37000000
   C     54.02000000    35.24000000    29.78000000
   O     53.79000000    34.93000000    30.97000000
   O     53.07000000    35.05000000    28.99000000
   H     53.50000000    36.55000000    27.45000000
   H     56.48000000    36.34000000    27.73000000
   H     55.64000000    36.67000000    29.85000000
   H     56.21000000    35.02000000    29.59000000
   N     55.06000000    34.53000000    25.90000000
   C     55.20000000    33.65000000    24.76000000
   C     54.84000000    32.19000000    25.04000000
   O     55.53000000    31.38000000    24.43000000
   H     54.23000000    35.08000000    25.74000000
   H     56.20000000    33.74000000    24.34000000
   H     54.50000000    33.91000000    23.97000000
   N     53.93000000    31.91000000    25.97000000
   C     53.43000000    30.59000000    26.29000000
   C     52.23000000    30.06000000    25.51000000
   O     51.78000000    28.96000000    25.81000000
   C     53.27000000    30.43000000    27.80000000
   C     52.13000000    31.31000000    28.29000000
   N     51.73000000    31.13000000    29.55000000
   O     51.59000000    32.20000000    27.63000000
   H     53.51000000    32.71000000    26.43000000
   H     54.14000000    29.83000000    25.98000000
   H     54.22000000    30.63000000    28.28000000
   H     52.94000000    29.41000000    28.00000000
   H     52.25000000    30.52000000    30.16000000
   H     50.99000000    31.69000000    29.95000000
   N     51.74000000    30.78000000    24.50000000
   C     50.59000000    30.51000000    23.66000000
   C     49.20000000    30.85000000    24.19000000
   O     48.23000000    30.18000000    23.82000000
   H     52.14000000    31.70000000    24.43000000
   H     50.58000000    29.48000000    23.31000000
   H     50.75000000    31.02000000    22.70000000
   N     49.10000000    31.77000000    25.15000000
   C     47.90000000    31.97000000    25.94000000
   C     47.81000000    33.40000000    26.44000000
   O     48.80000000    34.09000000    26.66000000
   C     47.88000000    31.01000000    27.12000000
   C     47.87000000    29.51000000    27.05000000
   C     49.12000000    28.92000000    27.29000000
   C     46.72000000    28.72000000    26.90000000
   C     49.21000000    27.53000000    27.15000000
   C     46.82000000    27.32000000    26.83000000
   C     48.08000000    26.71000000    26.95000000
   O     48.18000000    25.35000000    26.88000000
   H     49.96000000    32.20000000    25.47000000
   H     47.03000000    31.74000000    25.33000000
   H     46.95000000    31.25000000    27.64000000
   H     48.63000000    31.35000000    27.84000000
   H     50.06000000    29.46000000    27.34000000
   H     45.75000000    29.18000000    26.92000000
   H     50.17000000    27.04000000    27.23000000
   H     45.93000000    26.71000000    26.73000000
   H     47.30000000    24.97000000    26.88000000
   N     46.58000000    33.90000000    26.63000000
   C     46.30000000    35.26000000    27.04000000
   C     45.71000000    35.28000000    28.44000000
   O     44.75000000    34.56000000    28.69000000
   C     45.58000000    36.09000000    25.98000000
   C     46.57000000    36.45000000    24.87000000
   C     44.82000000    37.30000000    26.51000000
   C     45.96000000    37.39000000    23.84000000
   H     45.77000000    33.32000000    26.48000000
   H     47.32000000    35.66000000    27.12000000
   H     44.75000000    35.51000000    25.56000000
   H     46.82000000    35.51000000    24.37000000
   H     47.45000000    36.94000000    25.29000000
   H     44.26000000    37.68000000    25.66000000
   H     44.11000000    37.11000000    27.31000000
   H     45.49000000    38.07000000    26.89000000
   H     46.14000000    38.40000000    24.20000000
   H     46.50000000    37.25000000    22.90000000
   H     44.91000000    37.17000000    23.65000000
   N     46.26000000    36.09000000    29.35000000
   C     45.73000000    36.37000000    30.67000000
   C     45.10000000    37.75000000    30.79000000
   O     45.27000000    38.57000000    29.89000000
   C     46.78000000    36.03000000    31.71000000
   O     47.84000000    36.93000000    31.51000000
   H     47.14000000    36.53000000    29.13000000
   H     44.94000000    35.64000000    30.84000000
   H     46.99000000    34.96000000    31.65000000
   H     46.32000000    36.17000000    32.69000000
   H     48.40000000    36.50000000    30.86000000
   N     44.55000000    38.08000000    31.96000000
   C     44.03000000    39.42000000    32.18000000
   C     45.02000000    40.55000000    31.99000000
   O     44.70000000    41.57000000    31.37000000
   C     43.18000000    39.58000000    33.43000000
   H     44.50000000    37.47000000    32.76000000
   H     43.34000000    39.51000000    31.33000000
   H     42.56000000    38.69000000    33.58000000
   H     43.91000000    39.76000000    34.22000000
   H     42.57000000    40.48000000    33.45000000
   N     46.26000000    40.47000000    32.48000000
   C     47.26000000    41.51000000    32.36000000
   C     47.69000000    41.81000000    30.93000000
   O     48.32000000    42.83000000    30.65000000
   C     48.42000000    41.07000000    33.26000000
   H     46.61000000    39.62000000    32.90000000
   H     46.92000000    42.41000000    32.87000000
   H     49.11000000    41.90000000    33.30000000
   H     48.03000000    40.78000000    34.24000000
   H     48.98000000    40.28000000    32.76000000
   N     47.43000000    40.86000000    30.03000000
   C     47.69000000    40.96000000    28.61000000
   C     46.44000000    41.54000000    27.96000000
   O     46.56000000    42.27000000    26.99000000
   C     48.00000000    39.56000000    28.09000000
   C     49.16000000    39.01000000    28.90000000
   C     49.49000000    37.58000000    28.46000000
   O     50.56000000    37.32000000    27.87000000
   O     48.93000000    36.59000000    28.98000000
   H     47.02000000    39.98000000    30.31000000
   H     48.56000000    41.59000000    28.43000000
   H     48.38000000    39.60000000    27.07000000
   H     47.09000000    38.96000000    28.20000000
   H     49.02000000    39.12000000    29.98000000
   H     49.97000000    39.66000000    28.57000000
   N     45.25000000    41.17000000    28.44000000
   C     44.02000000    41.61000000    27.83000000
   H     43.27400000    41.78700000    28.60500000
   H     44.19700000    42.53400000    27.27900000
   H     43.65800000    40.84200000    27.14600000
   H     45.25000000    40.48000000    29.18000000
  Ca     50.68000000    34.77000000    28.31000000
   O     51.15000000    35.28000000    30.89000000
   H     52.10000000    35.14000000    30.92000000
   H     50.91000000    35.43000000    31.81000000

Ca 1.70



