%chk=holoCaM_loop3_21.0.chk
%nprocshared=48
%mem=10GB
%nosave
#b3lyp/svp scf=(tight,noincore) Test 
#IOP(5/87=12) Density=Current Pop=(MK,readradii) iop(6/33=2) iop(6/42=6)

holoCaM_loop3_21.0 

   0   1
   C     -4.91500000    55.81000000     4.76500000
   C     -3.75500000    56.68000000     4.30500000
   O     -2.69500000    56.14000000     3.97500000
   H     -5.78200000    55.99600000     4.13100000
   H     -4.63300000    54.76000000     4.69400000
   H     -5.16300000    56.05100000     5.79900000
   N     -3.92500000    58.00000000     4.23500000
   C     -2.80500000    58.90000000     4.01500000
   C     -1.84500000    58.90000000     5.19500000
   O     -2.24500000    59.33000000     6.27500000
   C     -3.24500000    60.30000000     3.59500000
   C     -2.01500000    61.09000000     3.17500000
   O     -2.21500000    62.28000000     2.84500000
   O     -0.87500000    60.61000000     3.00500000
   H     -4.84500000    58.38000000     4.43500000
   H     -2.26500000    58.61000000     3.11500000
   H     -3.71500000    60.82000000     4.42500000
   H     -3.98500000    60.30000000     2.79500000
   N     -0.61500000    58.41000000     5.05500000
   C      0.24500000    58.05000000     6.16500000
   C      1.21500000    59.15000000     6.56500000
   O      1.74500000    59.20000000     7.67500000
   C      0.91500000    56.68000000     6.03500000
   C      1.38500000    56.02000000     7.32500000
   C      1.43500000    54.52000000     7.02500000
   C      2.17500000    53.80000000     8.15500000
   N      1.58500000    54.07000000     9.47500000
   H     -0.39500000    58.19000000     4.09500000
   H     -0.37500000    58.07000000     7.05500000
   H      1.65500000    56.66000000     5.23500000
   H      0.18500000    55.95000000     5.70500000
   H      0.65500000    56.29000000     8.08500000
   H      2.40500000    56.35000000     7.51500000
   H      1.90500000    54.38000000     6.05500000
   H      0.40500000    54.19000000     6.92500000
   H      3.21500000    54.12000000     8.25500000
   H      2.13500000    52.74000000     7.91500000
   H      0.62500000    53.80000000     9.61500000
   H      2.07500000    53.46000000    10.11500000
   H      1.77500000    55.03000000     9.70500000
   N      1.30500000    60.15000000     5.68500000
   C      2.03500000    61.39000000     5.88500000
   C      1.12500000    62.60000000     5.77500000
   O      1.46500000    63.73000000     6.10500000
   C      3.28500000    61.41000000     5.00500000
   C      3.06500000    61.36000000     3.49500000
   O      4.06500000    61.45000000     2.75500000
   O      1.94500000    61.54000000     2.97500000
   H      0.78500000    60.05000000     4.82500000
   H      2.50500000    61.36000000     6.86500000
   H      3.90500000    60.53000000     5.11500000
   H      3.93500000    62.22000000     5.31500000
   N     -0.15500000    62.36000000     5.48500000
   C     -1.14500000    63.42000000     5.36500000
   C     -0.97500000    64.41000000     4.22500000
   O     -1.25500000    65.60000000     4.35500000
   H     -0.43500000    61.41000000     5.28500000
   H     -1.19500000    64.04000000     6.25500000
   H     -2.16500000    63.02000000     5.36500000
   N     -0.23500000    64.10000000     3.16500000
   C      0.20500000    65.03000000     2.14500000
   C     -0.89500000    65.33000000     1.14500000
   O     -0.77500000    66.08000000     0.17500000
   C      1.60500000    64.79000000     1.57500000
   C      1.51500000    63.69000000     0.52500000
   N      2.40500000    63.62000000    -0.46500000
   O      0.59500000    62.88000000     0.46500000
   H      0.00500000    63.12000000     3.13500000
   H      0.33500000    66.03000000     2.58500000
   H      2.40500000    64.44000000     2.21500000
   H      1.90500000    65.65000000     0.96500000
   H      3.22500000    64.21000000    -0.45500000
   H      2.21500000    63.13000000    -1.32500000
   N     -2.03500000    64.66000000     1.30500000
   C     -3.26500000    64.83000000     0.56500000
   C     -3.60500000    63.70000000    -0.38500000
   O     -4.66500000    63.69000000    -1.00500000
   H     -2.06500000    63.89000000     1.95500000
   H     -3.23500000    65.78000000     0.02500000
   H     -4.02500000    64.82000000     1.35500000
   N     -2.64500000    62.81000000    -0.65500000
   C     -2.68500000    61.72000000    -1.60500000
   C     -2.27500000    60.36000000    -1.05500000
   O     -1.51500000    60.23000000    -0.09500000
   C     -1.80500000    62.07000000    -2.80500000
   C     -2.08500000    63.43000000    -3.39500000
   C     -1.09500000    64.42000000    -3.48500000
   C     -3.30500000    63.61000000    -4.06500000
   C     -1.41500000    65.68000000    -4.01500000
   C     -3.56500000    64.83000000    -4.69500000
   C     -2.64500000    65.90000000    -4.65500000
   O     -2.92500000    67.14000000    -5.15500000
   H     -1.77500000    63.05000000    -0.19500000
   H     -3.67500000    61.60000000    -2.05500000
   H     -1.75500000    61.28000000    -3.56500000
   H     -0.76500000    62.00000000    -2.50500000
   H     -0.11500000    64.26000000    -3.08500000
   H     -3.98500000    62.78000000    -4.02500000
   H     -0.74500000    66.53000000    -4.01500000
   H     -4.45500000    64.94000000    -5.30500000
   H     -3.84500000    67.07000000    -5.38500000
   N     -2.80500000    59.32000000    -1.70500000
   C     -2.44500000    57.93000000    -1.51500000
   C     -1.46500000    57.41000000    -2.55500000
   O     -1.41500000    57.86000000    -3.69500000
   C     -3.70500000    57.08000000    -1.41500000
   C     -4.82500000    57.71000000    -0.58500000
   C     -3.41500000    55.62000000    -1.10500000
   C     -4.31500000    58.02000000     0.81500000
   H     -3.25500000    59.61000000    -2.56500000
   H     -1.94500000    57.93000000    -0.55500000
   H     -4.20500000    57.01000000    -2.38500000
   H     -5.74500000    57.16000000    -0.40500000
   H     -5.23500000    58.61000000    -1.04500000
   H     -4.34500000    55.07000000    -0.94500000
   H     -2.83500000    55.10000000    -1.86500000
   H     -2.84500000    55.64000000    -0.17500000
   H     -5.16500000    58.25000000     1.45500000
   H     -3.75500000    57.22000000     1.29500000
   H     -3.62500000    58.87000000     0.80500000
   N     -0.52500000    56.58000000    -2.10500000
   C      0.57500000    55.98000000    -2.84500000
   C      0.60500000    54.47000000    -2.63500000
   O      0.00500000    53.95000000    -1.69500000
   C      1.91500000    56.44000000    -2.29500000
   O      2.06500000    56.09000000    -0.93500000
   H     -0.40500000    56.55000000    -1.10500000
   H      0.55500000    56.12000000    -3.92500000
   H      1.95500000    57.53000000    -2.35500000
   H      2.66500000    56.00000000    -2.95500000
   H      1.66500000    56.81000000    -0.44500000
   N      1.21500000    53.66000000    -3.49500000
   C      1.23500000    52.21000000    -3.42500000
   C      1.75500000    51.66000000    -2.11500000
   O      1.18500000    50.67000000    -1.67500000
   C      2.01500000    51.79000000    -4.66500000
   H      1.68500000    54.04000000    -4.30500000
   H      0.18500000    51.91000000    -3.53500000
   H      1.70500000    52.37000000    -5.53500000
   H      3.07500000    52.02000000    -4.49500000
   H      1.85500000    50.73000000    -4.82500000
   N      2.69500000    52.30000000    -1.40500000
   C      3.24500000    51.83000000    -0.14500000
   C      2.26500000    51.99000000     1.01500000
   O      2.07500000    51.15000000     1.88500000
   C      4.51500000    52.64000000     0.05500000
   H      3.11500000    53.12000000    -1.81500000
   H      3.54500000    50.79000000    -0.26500000
   H      5.31500000    52.33000000    -0.61500000
   H      4.29500000    53.70000000    -0.09500000
   H      4.93500000    52.61000000     1.06500000
   N      1.72500000    53.21000000     0.91500000
   C      0.66500000    53.62000000     1.81500000
   C     -0.49500000    52.65000000     1.66500000
   O     -0.93500000    52.10000000     2.67500000
   C      0.25500000    55.06000000     1.53500000
   C      1.28500000    55.99000000     2.16500000
   C      0.95500000    57.45000000     1.84500000
   O      1.07500000    58.39000000     2.66500000
   O      0.64500000    57.79000000     0.68500000
   H      2.08500000    53.76000000     0.15500000
   H      1.03500000    53.50000000     2.83500000
   H     -0.73500000    55.08000000     2.00500000
   H      0.11500000    55.35000000     0.49500000
   H      2.23500000    55.78000000     1.66500000
   H      1.35500000    55.81000000     3.23500000
   N     -1.05500000    52.54000000     0.45500000
   C     -2.03500000    51.52000000     0.11500000
   H     -2.92600000    51.99500000    -0.29500000
   H     -1.61200000    50.84100000    -0.62600000
   H     -2.30300000    50.96000000     1.01100000
   H     -0.59500000    53.07000000    -0.25500000
  Ca      0.81000000    60.42000000     1.05000000
   O      3.19000000    59.67000000     0.12000000
   H      3.68000000    58.85000000     0.17000000
   H      3.84000000    60.32000000    -0.12000000

Ca 1.70



