%chk=holoCaM_loop3_20.0.chk
%nprocshared=48
%mem=10GB
%nosave
#b3lyp/svp scf=(tight,noincore) Test 
#IOP(5/87=12) Density=Current Pop=(MK,readradii) iop(6/33=2) iop(6/42=6)

holoCaM_loop3_20.0 

   0   1
   C     46.82000000    40.31000000    24.41000000
   C     47.39000000    39.58000000    25.61000000
   O     47.33000000    40.04000000    26.75000000
   H     45.92400000    40.85500000    24.70900000
   H     47.56000000    41.01200000    24.02600000
   H     46.56400000    39.58900000    23.63300000
   N     48.06000000    38.44000000    25.43000000
   C     48.78000000    37.62000000    26.38000000
   C     50.23000000    38.09000000    26.51000000
   O     51.05000000    38.04000000    25.60000000
   C     48.77000000    36.17000000    25.93000000
   C     49.76000000    35.19000000    26.54000000
   O     50.53000000    35.50000000    27.47000000
   O     49.88000000    34.09000000    25.96000000
   H     47.93000000    37.99000000    24.53000000
   H     48.29000000    37.66000000    27.35000000
   H     49.14000000    36.17000000    24.91000000
   H     47.82000000    35.63000000    25.83000000
   N     50.51000000    38.60000000    27.71000000
   C     51.66000000    39.41000000    28.06000000
   C     53.02000000    38.73000000    28.15000000
   O     53.94000000    39.42000000    28.58000000
   C     51.37000000    40.16000000    29.35000000
   C     50.27000000    41.22000000    29.36000000
   C     50.30000000    42.32000000    28.30000000
   C     51.59000000    43.11000000    28.13000000
   N     51.52000000    44.20000000    27.14000000
   H     49.82000000    38.41000000    28.43000000
   H     51.75000000    40.13000000    27.24000000
   H     52.27000000    40.66000000    29.71000000
   H     51.02000000    39.35000000    29.98000000
   H     50.31000000    41.66000000    30.36000000
   H     49.36000000    40.64000000    29.23000000
   H     49.52000000    43.05000000    28.53000000
   H     49.95000000    41.85000000    27.38000000
   H     52.44000000    42.44000000    27.97000000
   H     51.69000000    43.61000000    29.09000000
   H     52.16000000    44.96000000    27.28000000
   H     51.61000000    43.74000000    26.24000000
   H     50.57000000    44.54000000    27.07000000
   N     53.08000000    37.45000000    27.78000000
   C     54.28000000    36.68000000    27.57000000
   C     54.22000000    35.82000000    26.31000000
   O     55.29000000    35.50000000    25.81000000
   C     54.71000000    35.84000000    28.78000000
   C     53.65000000    35.12000000    29.60000000
   O     54.09000000    34.07000000    30.11000000
   O     52.57000000    35.65000000    29.95000000
   H     52.20000000    37.10000000    27.43000000
   H     55.16000000    37.31000000    27.42000000
   H     55.24000000    36.45000000    29.51000000
   H     55.41000000    35.10000000    28.42000000
   N     53.02000000    35.70000000    25.74000000
   C     52.81000000    35.01000000    24.49000000
   C     52.87000000    33.50000000    24.63000000
   O     53.38000000    32.85000000    23.72000000
   H     52.29000000    36.28000000    26.14000000
   H     53.42000000    35.38000000    23.66000000
   H     51.75000000    35.19000000    24.31000000
   N     52.39000000    33.00000000    25.77000000
   C     52.52000000    31.64000000    26.27000000
   C     51.27000000    30.81000000    26.01000000
   O     51.25000000    29.61000000    26.27000000
   C     53.06000000    31.68000000    27.70000000
   C     51.97000000    31.68000000    28.76000000
   N     52.01000000    30.75000000    29.73000000
   O     51.06000000    32.50000000    28.77000000
   H     51.85000000    33.63000000    26.33000000
   H     53.25000000    31.17000000    25.61000000
   H     53.76000000    32.49000000    27.91000000
   H     53.64000000    30.78000000    27.87000000
   H     52.58000000    29.92000000    29.70000000
   H     51.30000000    30.86000000    30.44000000
   N     50.24000000    31.35000000    25.36000000
   C     49.00000000    30.68000000    25.02000000
   C     47.82000000    30.84000000    25.96000000
   O     46.70000000    30.44000000    25.62000000
   H     50.24000000    32.36000000    25.30000000
   H     49.20000000    29.61000000    24.96000000
   H     48.75000000    30.95000000    23.99000000
   N     48.05000000    31.64000000    27.00000000
   C     47.10000000    31.89000000    28.06000000
   C     46.95000000    33.31000000    28.59000000
   O     47.87000000    34.12000000    28.48000000
   C     47.12000000    30.96000000    29.27000000
   C     47.48000000    29.52000000    28.98000000
   C     48.82000000    29.12000000    29.05000000
   C     46.50000000    28.55000000    28.75000000
   C     49.16000000    27.78000000    28.83000000
   C     46.83000000    27.22000000    28.46000000
   C     48.19000000    26.84000000    28.42000000
   O     48.46000000    25.52000000    28.25000000
   H     48.89000000    32.21000000    27.01000000
   H     46.14000000    31.72000000    27.57000000
   H     46.12000000    31.04000000    29.68000000
   H     47.77000000    31.32000000    30.06000000
   H     49.54000000    29.81000000    29.48000000
   H     45.44000000    28.75000000    28.69000000
   H     50.11000000    27.37000000    29.12000000
   H     46.07000000    26.48000000    28.33000000
   H     47.59000000    25.17000000    28.04000000
   N     45.84000000    33.65000000    29.25000000
   C     45.48000000    34.93000000    29.82000000
   C     44.82000000    34.62000000    31.16000000
   O     44.20000000    33.58000000    31.38000000
   C     44.56000000    35.57000000    28.78000000
   C     45.37000000    36.21000000    27.66000000
   C     43.79000000    36.75000000    29.38000000
   C     44.63000000    36.95000000    26.55000000
   H     45.13000000    32.95000000    29.44000000
   H     46.32000000    35.61000000    29.95000000
   H     43.85000000    34.90000000    28.30000000
   H     45.98000000    35.46000000    27.15000000
   H     46.07000000    36.96000000    28.02000000
   H     43.17000000    37.30000000    28.67000000
   H     43.07000000    36.40000000    30.12000000
   H     44.46000000    37.45000000    29.89000000
   H     44.04000000    37.77000000    26.97000000
   H     45.34000000    37.34000000    25.82000000
   H     44.03000000    36.19000000    26.05000000
   N     45.06000000    35.44000000    32.18000000
   C     44.55000000    35.32000000    33.53000000
   C     43.69000000    36.51000000    33.93000000
   O     43.38000000    37.31000000    33.05000000
   C     45.73000000    35.06000000    34.46000000
   O     46.45000000    36.25000000    34.71000000
   H     45.81000000    36.10000000    32.04000000
   H     43.94000000    34.42000000    33.63000000
   H     46.34000000    34.33000000    33.92000000
   H     45.36000000    34.60000000    35.38000000
   H     47.31000000    35.97000000    35.01000000
   N     43.18000000    36.69000000    35.15000000
   C     42.40000000    37.86000000    35.52000000
   C     43.24000000    39.12000000    35.39000000
   O     42.78000000    40.17000000    34.94000000
   C     41.79000000    37.65000000    36.91000000
   H     43.55000000    36.11000000    35.89000000
   H     41.59000000    37.89000000    34.80000000
   H     40.98000000    36.92000000    36.82000000
   H     42.57000000    37.23000000    37.54000000
   H     41.33000000    38.58000000    37.23000000
   N     44.49000000    39.08000000    35.85000000
   C     45.44000000    40.18000000    35.76000000
   C     45.84000000    40.60000000    34.36000000
   O     45.83000000    41.78000000    34.01000000
   C     46.69000000    39.95000000    36.61000000
   H     44.81000000    38.16000000    36.11000000
   H     44.96000000    41.06000000    36.17000000
   H     47.23000000    40.86000000    36.87000000
   H     46.34000000    39.74000000    37.61000000
   H     47.33000000    39.10000000    36.36000000
   N     45.97000000    39.66000000    33.42000000
   C     46.13000000    40.00000000    32.02000000
   C     44.86000000    40.39000000    31.28000000
   O     44.88000000    41.45000000    30.65000000
   C     46.88000000    38.91000000    31.26000000
   C     48.34000000    38.60000000    31.60000000
   C     48.86000000    37.29000000    31.03000000
   O     49.23000000    37.22000000    29.84000000
   O     48.95000000    36.27000000    31.74000000
   H     45.93000000    38.69000000    33.70000000
   H     46.80000000    40.85000000    31.90000000
   H     46.98000000    39.10000000    30.19000000
   H     46.29000000    38.00000000    31.33000000
   H     48.45000000    38.65000000    32.69000000
   H     48.85000000    39.44000000    31.15000000
   N     43.71000000    39.79000000    31.56000000
   C     42.41000000    40.33000000    31.20000000
   H     41.70600000    40.15500000    32.01400000
   H     42.49800000    41.40200000    31.02100000
   H     42.04900000    39.83900000    30.29600000
   H     43.75000000    39.09000000    32.28000000
  Ca     50.25000000    34.70000000    29.89000000
   O     48.89000000    33.13000000    31.53000000
   H     48.39000000    33.15000000    32.36000000
   H     49.35000000    32.29000000    31.56000000

Ca 1.70



