%chk=CaMKII_loop3_59.0.chk
%nprocshared=48
%mem=10GB
%nosave
#b3lyp/svp scf=(tight,noincore) Test 
#IOP(5/87=12) Density=Current Pop=(MK,readradii) iop(6/33=2) iop(6/42=6)

CaMKII_loop3_59.0 

   0   1
   C     77.68000000    57.78000000    21.20000000
   C     77.59000000    56.40000000    20.56000000
   O     78.60000000    55.84000000    20.13000000
   H     78.35500000    58.40700000    20.61700000
   H     76.69000000    58.23600000    21.22300000
   H     78.06100000    57.68500000    22.21700000
   N     76.41000000    55.77000000    20.52000000
   C     76.22000000    54.45000000    19.97000000
   C     76.15000000    54.60000000    18.45000000
   O     75.22000000    55.15000000    17.87000000
   C     74.91000000    53.87000000    20.48000000
   C     74.42000000    52.60000000    19.78000000
   O     73.21000000    52.32000000    19.94000000
   O     75.17000000    51.88000000    19.09000000
   H     75.64000000    56.19000000    21.01000000
   H     76.96000000    53.70000000    20.27000000
   H     74.10000000    54.59000000    20.38000000
   H     75.09000000    53.67000000    21.53000000
   N     77.22000000    54.11000000    17.83000000
   C     77.52000000    54.28000000    16.42000000
   C     76.67000000    53.47000000    15.46000000
   O     76.62000000    53.81000000    14.28000000
   C     79.02000000    54.09000000    16.21000000
   C     79.70000000    54.59000000    14.94000000
   C     81.21000000    54.33000000    15.05000000
   C     82.03000000    54.97000000    13.93000000
   N     81.65000000    54.60000000    12.56000000
   H     77.96000000    53.78000000    18.45000000
   H     77.32000000    55.31000000    16.14000000
   H     79.20000000    53.02000000    16.32000000
   H     79.47000000    54.58000000    17.08000000
   H     79.58000000    55.66000000    14.78000000
   H     79.29000000    54.03000000    14.10000000
   H     81.37000000    53.26000000    15.00000000
   H     81.60000000    54.67000000    16.01000000
   H     83.06000000    54.67000000    14.13000000
   H     82.02000000    56.05000000    14.11000000
   H     81.88000000    53.67000000    12.24000000
   H     80.66000000    54.75000000    12.44000000
   H     81.94000000    55.20000000    11.81000000
   N     76.05000000    52.37000000    15.92000000
   C     75.30000000    51.47000000    15.08000000
   C     73.87000000    51.17000000    15.51000000
   O     73.19000000    50.53000000    14.72000000
   C     76.16000000    50.23000000    14.84000000
   C     76.77000000    49.46000000    16.01000000
   O     76.41000000    49.72000000    17.18000000
   O     77.52000000    48.48000000    15.83000000
   H     76.27000000    52.14000000    16.88000000
   H     75.19000000    51.92000000    14.09000000
   H     77.00000000    50.35000000    14.15000000
   H     75.45000000    49.54000000    14.39000000
   N     73.42000000    51.75000000    16.62000000
   C     72.02000000    51.69000000    17.00000000
   C     71.67000000    50.30000000    17.51000000
   O     70.66000000    49.72000000    17.12000000
   H     74.12000000    52.16000000    17.23000000
   H     71.40000000    52.05000000    16.19000000
   H     71.89000000    52.46000000    17.76000000
   N     72.48000000    49.79000000    18.44000000
   C     72.14000000    48.62000000    19.23000000
   C     72.11000000    48.90000000    20.72000000
   O     71.99000000    47.95000000    21.49000000
   C     73.16000000    47.54000000    18.89000000
   C     74.46000000    47.56000000    19.69000000
   N     74.75000000    46.47000000    20.39000000
   O     75.16000000    48.53000000    19.96000000
   H     73.27000000    50.27000000    18.85000000
   H     71.11000000    48.35000000    19.01000000
   H     73.41000000    47.63000000    17.83000000
   H     72.73000000    46.55000000    18.99000000
   H     74.42000000    45.57000000    20.07000000
   H     75.50000000    46.51000000    21.06000000
   N     71.92000000    50.16000000    21.14000000
   C     71.57000000    50.66000000    22.46000000
   C     72.70000000    50.50000000    23.46000000
   O     72.49000000    50.60000000    24.67000000
   H     72.06000000    50.88000000    20.45000000
   H     70.70000000    50.15000000    22.87000000
   H     71.26000000    51.70000000    22.35000000
   N     73.92000000    50.31000000    22.95000000
   C     75.11000000    49.91000000    23.68000000
   C     76.37000000    50.56000000    23.13000000
   O     76.40000000    50.86000000    21.94000000
   C     75.30000000    48.40000000    23.51000000
   C     74.82000000    47.69000000    24.75000000
   C     75.60000000    47.57000000    25.91000000
   C     73.52000000    47.16000000    24.71000000
   C     75.09000000    46.92000000    27.04000000
   C     73.06000000    46.43000000    25.81000000
   C     73.81000000    46.32000000    27.00000000
   O     73.38000000    45.66000000    28.11000000
   H     74.04000000    50.35000000    21.95000000
   H     74.98000000    50.16000000    24.73000000
   H     76.34000000    48.11000000    23.40000000
   H     74.70000000    48.09000000    22.65000000
   H     76.55000000    48.08000000    25.92000000
   H     72.90000000    47.42000000    23.87000000
   H     75.75000000    46.85000000    27.88000000
   H     72.04000000    46.08000000    25.79000000
   H     72.47000000    45.34000000    28.07000000
   N     77.32000000    51.01000000    23.96000000
   C     78.47000000    51.85000000    23.71000000
   C     79.67000000    50.99000000    24.12000000
   O     79.62000000    50.39000000    25.19000000
   C     78.43000000    53.18000000    24.46000000
   C     77.35000000    54.14000000    23.97000000
   C     79.75000000    53.92000000    24.28000000
   C     77.01000000    55.30000000    24.89000000
   H     77.23000000    50.68000000    24.91000000
   H     78.52000000    52.01000000    22.63000000
   H     78.19000000    52.93000000    25.49000000
   H     76.39000000    53.64000000    23.83000000
   H     77.52000000    54.48000000    22.95000000
   H     79.72000000    54.77000000    24.96000000
   H     80.57000000    53.30000000    24.64000000
   H     79.90000000    54.14000000    23.22000000
   H     77.81000000    56.02000000    25.07000000
   H     76.24000000    56.00000000    24.56000000
   H     76.67000000    54.89000000    25.84000000
   N     80.75000000    51.00000000    23.34000000
   C     82.02000000    50.37000000    23.64000000
   C     83.23000000    51.29000000    23.59000000
   O     83.15000000    52.43000000    23.15000000
   C     82.28000000    49.29000000    22.60000000
   O     82.56000000    49.90000000    21.36000000
   H     80.72000000    51.55000000    22.49000000
   H     82.00000000    49.98000000    24.66000000
   H     81.32000000    48.78000000    22.64000000
   H     83.07000000    48.57000000    22.83000000
   H     82.60000000    49.18000000    20.73000000
   N     84.37000000    50.75000000    24.03000000
   C     85.57000000    51.56000000    23.92000000
   C     85.73000000    52.17000000    22.54000000
   O     85.93000000    53.38000000    22.49000000
   C     86.84000000    50.78000000    24.27000000
   H     84.52000000    49.79000000    24.27000000
   H     85.44000000    52.40000000    24.61000000
   H     87.79000000    51.30000000    24.09000000
   H     86.85000000    50.45000000    25.30000000
   H     86.81000000    49.89000000    23.64000000
   N     85.58000000    51.42000000    21.45000000
   C     85.85000000    51.85000000    20.09000000
   C     84.86000000    52.93000000    19.67000000
   O     85.37000000    53.87000000    19.06000000
   C     85.77000000    50.58000000    19.24000000
   H     85.28000000    50.47000000    21.60000000
   H     86.86000000    52.28000000    20.10000000
   H     86.04000000    50.75000000    18.20000000
   H     86.35000000    49.76000000    19.66000000
   H     84.72000000    50.29000000    19.18000000
   N     83.59000000    52.81000000    20.05000000
   C     82.69000000    53.90000000    19.74000000
   C     82.89000000    55.17000000    20.56000000
   O     82.88000000    56.21000000    19.91000000
   C     81.23000000    53.48000000    19.88000000
   C     80.94000000    52.32000000    18.94000000
   C     79.50000000    51.81000000    18.87000000
   O     79.25000000    50.82000000    18.15000000
   O     78.64000000    52.29000000    19.63000000
   H     83.20000000    51.91000000    20.29000000
   H     82.92000000    54.14000000    18.70000000
   H     80.59000000    54.35000000    19.71000000
   H     80.98000000    53.27000000    20.92000000
   H     81.59000000    51.58000000    19.41000000
   H     81.24000000    52.49000000    17.91000000
   N     83.22000000    55.10000000    21.85000000
   C     83.70000000    56.21000000    22.65000000
   H     84.60900000    56.61200000    22.20300000
   H     82.93800000    56.98900000    22.68600000
   H     83.91500000    55.86400000    23.66100000
   H     83.19000000    54.19000000    22.28000000
  Ca     77.09000000    50.12000000    19.54000000
   O     78.98000000    49.27000000    21.32000000
   H     79.84000000    49.01000000    20.99000000
   H     78.82000000    48.67000000    22.05000000

Ca 1.70



