%chk=CaMKII_loop3_50.0.chk
%nprocshared=48
%mem=10GB
%nosave
#b3lyp/svp scf=(tight,noincore) Test 
#IOP(5/87=12) Density=Current Pop=(MK,readradii) iop(6/33=2) iop(6/42=6)

CaMKII_loop3_50.0 

   0   1
   C     78.16000000    57.95000000    21.96000000
   C     77.99000000    56.55000000    21.38000000
   O     78.97000000    55.90000000    21.01000000
   H     78.98000000    58.45600000    21.45100000
   H     77.24000000    58.51700000    21.81800000
   H     78.38300000    57.87800000    23.02500000
   N     76.79000000    55.96000000    21.43000000
   C     76.57000000    54.69000000    20.77000000
   C     76.63000000    54.75000000    19.25000000
   O     75.63000000    54.97000000    18.57000000
   C     75.19000000    54.24000000    21.23000000
   C     74.84000000    52.87000000    20.67000000
   O     73.70000000    52.52000000    21.03000000
   O     75.66000000    52.18000000    20.03000000
   H     76.00000000    56.46000000    21.80000000
   H     77.33000000    53.94000000    21.01000000
   H     74.35000000    54.90000000    21.00000000
   H     75.12000000    54.13000000    22.31000000
   N     77.76000000    54.43000000    18.62000000
   C     78.05000000    54.51000000    17.21000000
   C     77.22000000    53.63000000    16.28000000
   O     76.76000000    54.13000000    15.26000000
   C     79.55000000    54.43000000    16.92000000
   C     79.81000000    55.26000000    15.67000000
   C     81.30000000    55.42000000    15.38000000
   C     81.58000000    56.05000000    14.02000000
   N     80.99000000    55.33000000    12.88000000
   H     78.53000000    54.20000000    19.24000000
   H     77.67000000    55.52000000    17.04000000
   H     79.89000000    53.43000000    16.67000000
   H     80.08000000    54.91000000    17.74000000
   H     79.29000000    56.22000000    15.68000000
   H     79.42000000    54.70000000    14.82000000
   H     81.71000000    54.41000000    15.43000000
   H     81.69000000    56.12000000    16.12000000
   H     82.67000000    56.00000000    13.92000000
   H     81.28000000    57.09000000    14.03000000
   H     81.24000000    54.35000000    12.88000000
   H     80.01000000    55.51000000    12.78000000
   H     81.50000000    55.67000000    12.08000000
   N     77.10000000    52.34000000    16.62000000
   C     76.35000000    51.41000000    15.81000000
   C     74.88000000    51.37000000    16.21000000
   O     74.07000000    50.72000000    15.57000000
   C     77.03000000    50.04000000    15.79000000
   C     77.17000000    49.30000000    17.11000000
   O     76.72000000    49.79000000    18.17000000
   O     77.63000000    48.14000000    17.16000000
   H     77.59000000    52.03000000    17.45000000
   H     76.33000000    51.80000000    14.80000000
   H     78.07000000    50.23000000    15.50000000
   H     76.59000000    49.42000000    15.01000000
   N     74.50000000    52.22000000    17.17000000
   C     73.11000000    52.34000000    17.55000000
   C     72.58000000    51.20000000    18.41000000
   O     71.41000000    51.06000000    18.75000000
   H     75.21000000    52.76000000    17.63000000
   H     72.53000000    52.37000000    16.63000000
   H     72.96000000    53.31000000    18.02000000
   N     73.45000000    50.26000000    18.81000000
   C     72.95000000    49.00000000    19.30000000
   C     72.58000000    48.97000000    20.78000000
   O     72.35000000    47.96000000    21.44000000
   C     73.98000000    47.89000000    19.07000000
   C     75.24000000    48.00000000    19.92000000
   N     75.94000000    46.87000000    20.05000000
   O     75.45000000    48.88000000    20.75000000
   H     74.40000000    50.32000000    18.49000000
   H     72.06000000    48.70000000    18.74000000
   H     74.29000000    47.92000000    18.03000000
   H     73.47000000    46.94000000    19.25000000
   H     75.58000000    46.09000000    19.52000000
   H     76.71000000    46.83000000    20.70000000
   N     72.44000000    50.13000000    21.43000000
   C     72.06000000    50.39000000    22.80000000
   C     73.07000000    50.12000000    23.91000000
   O     72.76000000    50.07000000    25.09000000
   H     72.70000000    50.93000000    20.87000000
   H     71.17000000    49.77000000    22.96000000
   H     71.80000000    51.44000000    22.83000000
   N     74.37000000    50.06000000    23.63000000
   C     75.44000000    50.05000000    24.60000000
   C     76.61000000    50.86000000    24.06000000
   O     76.68000000    51.18000000    22.87000000
   C     76.07000000    48.68000000    24.80000000
   C     74.98000000    47.68000000    25.14000000
   C     74.67000000    47.42000000    26.48000000
   C     74.29000000    47.06000000    24.10000000
   C     73.59000000    46.59000000    26.77000000
   C     73.27000000    46.15000000    24.37000000
   C     72.89000000    45.96000000    25.72000000
   O     71.88000000    45.08000000    25.94000000
   H     74.67000000    50.11000000    22.66000000
   H     75.13000000    50.51000000    25.55000000
   H     76.88000000    48.65000000    25.52000000
   H     76.46000000    48.33000000    23.85000000
   H     75.26000000    47.95000000    27.22000000
   H     74.42000000    47.38000000    23.07000000
   H     73.26000000    46.45000000    27.79000000
   H     72.66000000    45.74000000    23.58000000
   H     71.38000000    44.98000000    25.13000000
   N     77.50000000    51.31000000    24.94000000
   C     78.72000000    52.03000000    24.65000000
   C     79.94000000    51.21000000    25.08000000
   O     79.94000000    50.63000000    26.16000000
   C     78.68000000    53.39000000    25.34000000
   C     77.56000000    54.28000000    24.82000000
   C     80.04000000    54.06000000    25.50000000
   C     77.09000000    55.46000000    25.67000000
   H     77.39000000    51.07000000    25.92000000
   H     78.79000000    52.24000000    23.59000000
   H     78.35000000    53.19000000    26.36000000
   H     76.64000000    53.75000000    24.55000000
   H     77.91000000    54.74000000    23.90000000
   H     80.72000000    53.46000000    26.11000000
   H     80.46000000    54.15000000    24.50000000
   H     80.05000000    55.06000000    25.95000000
   H     77.92000000    56.16000000    25.66000000
   H     76.29000000    56.06000000    25.22000000
   H     76.87000000    55.08000000    26.67000000
   N     80.97000000    51.35000000    24.26000000
   C     82.27000000    50.72000000    24.39000000
   C     83.39000000    51.68000000    23.99000000
   O     83.20000000    52.71000000    23.36000000
   C     82.33000000    49.53000000    23.44000000
   O     81.95000000    49.86000000    22.12000000
   H     80.91000000    52.00000000    23.48000000
   H     82.54000000    50.36000000    25.38000000
   H     81.66000000    48.74000000    23.78000000
   H     83.35000000    49.14000000    23.49000000
   H     82.24000000    49.22000000    21.47000000
   N     84.58000000    51.39000000    24.53000000
   C     85.74000000    52.25000000    24.52000000
   C     86.14000000    52.66000000    23.11000000
   O     86.46000000    53.84000000    22.99000000
   C     86.89000000    51.49000000    25.18000000
   H     84.69000000    50.62000000    25.18000000
   H     85.43000000    53.12000000    25.09000000
   H     87.27000000    50.65000000    24.58000000
   H     87.74000000    52.13000000    25.42000000
   H     86.57000000    51.15000000    26.16000000
   N     85.89000000    51.75000000    22.17000000
   C     86.12000000    52.05000000    20.78000000
   C     85.29000000    53.16000000    20.14000000
   O     85.83000000    54.00000000    19.42000000
   C     86.11000000    50.71000000    20.05000000
   H     85.55000000    50.83000000    22.45000000
   H     87.17000000    52.34000000    20.68000000
   H     86.72000000    50.83000000    19.16000000
   H     86.49000000    50.00000000    20.78000000
   H     85.10000000    50.33000000    19.88000000
   N     83.97000000    53.06000000    20.33000000
   C     83.06000000    54.16000000    20.07000000
   C     83.25000000    55.45000000    20.84000000
   O     83.24000000    56.53000000    20.26000000
   C     81.61000000    53.74000000    20.35000000
   C     81.23000000    52.52000000    19.52000000
   C     79.77000000    52.13000000    19.63000000
   O     79.15000000    51.65000000    18.66000000
   O     79.22000000    52.20000000    20.76000000
   H     83.70000000    52.41000000    21.04000000
   H     83.10000000    54.40000000    19.01000000
   H     80.91000000    54.54000000    20.12000000
   H     81.51000000    53.43000000    21.39000000
   H     81.77000000    51.62000000    19.79000000
   H     81.40000000    52.75000000    18.46000000
   N     83.39000000    55.37000000    22.17000000
   C     83.80000000    56.51000000    22.96000000
   H     84.69800000    56.94900000    22.52500000
   H     83.00200000    57.25200000    22.96900000
   H     84.01000000    56.18900000    23.98000000
   H     83.30000000    54.47000000    22.62000000
  Ca     77.54000000    50.45000000    20.46000000
   O     79.09000000    49.40000000    22.36000000
   H     79.24000000    48.62000000    22.89000000
   H     79.92000000    49.57000000    21.93000000

Ca 1.70



