%chk=CaMKII_loop3_40.0.chk
%nprocshared=48
%mem=10GB
%nosave
#b3lyp/svp scf=(tight,noincore) Test 
#IOP(5/87=12) Density=Current Pop=(MK,readradii) iop(6/33=2) iop(6/42=6)

CaMKII_loop3_40.0 

   0   1
   C     75.55000000    41.99000000    24.09000000
   C     74.34000000    41.19000000    24.54000000
   O     74.51000000    39.99000000    24.77000000
   H     76.39300000    41.31700000    23.93700000
   H     75.32000000    42.50300000    23.15600000
   H     75.80600000    42.72400000    24.85400000
   N     73.15000000    41.72000000    24.78000000
   C     72.00000000    40.99000000    25.28000000
   C     71.39000000    40.21000000    24.12000000
   O     70.75000000    40.77000000    23.23000000
   C     71.02000000    41.86000000    26.06000000
   C     70.02000000    40.96000000    26.76000000
   O     70.06000000    39.72000000    26.55000000
   O     69.09000000    41.45000000    27.44000000
   H     72.98000000    42.63000000    24.37000000
   H     72.49000000    40.28000000    25.94000000
   H     70.57000000    42.70000000    25.52000000
   H     71.61000000    42.28000000    26.87000000
   N     71.56000000    38.89000000    24.08000000
   C     71.11000000    38.01000000    23.02000000
   C     69.63000000    37.64000000    23.10000000
   O     69.24000000    36.89000000    22.20000000
   C     72.12000000    36.92000000    22.70000000
   C     72.26000000    36.53000000    21.23000000
   C     73.44000000    35.56000000    21.11000000
   C     73.80000000    35.40000000    19.63000000
   N     72.59000000    35.07000000    18.86000000
   H     72.02000000    38.47000000    24.87000000
   H     71.05000000    38.62000000    22.11000000
   H     71.78000000    36.04000000    23.25000000
   H     73.08000000    37.12000000    23.18000000
   H     72.54000000    37.44000000    20.71000000
   H     71.33000000    36.24000000    20.74000000
   H     73.14000000    34.62000000    21.58000000
   H     74.31000000    35.88000000    21.67000000
   H     74.53000000    34.60000000    19.57000000
   H     74.12000000    36.34000000    19.18000000
   H     72.26000000    34.11000000    18.90000000
   H     71.85000000    35.71000000    19.10000000
   H     72.75000000    35.28000000    17.88000000
   N     68.84000000    38.18000000    24.02000000
   C     67.43000000    37.91000000    24.22000000
   C     66.65000000    39.15000000    24.63000000
   O     65.43000000    39.20000000    24.46000000
   C     67.27000000    36.71000000    25.15000000
   C     68.18000000    36.74000000    26.37000000
   O     67.75000000    37.28000000    27.42000000
   O     69.38000000    36.38000000    26.32000000
   H     69.31000000    38.78000000    24.68000000
   H     67.07000000    37.64000000    23.23000000
   H     67.68000000    35.93000000    24.51000000
   H     66.24000000    36.63000000    25.49000000
   N     67.23000000    40.17000000    25.27000000
   C     66.60000000    41.45000000    25.51000000
   C     65.96000000    41.45000000    26.90000000
   O     65.26000000    42.38000000    27.28000000
   H     68.18000000    39.98000000    25.56000000
   H     65.87000000    41.60000000    24.72000000
   H     67.42000000    42.17000000    25.49000000
   N     66.18000000    40.45000000    27.76000000
   C     65.71000000    40.52000000    29.12000000
   C     66.40000000    41.48000000    30.08000000
   O     65.92000000    41.64000000    31.20000000
   C     65.74000000    39.09000000    29.66000000
   C     67.06000000    38.65000000    30.29000000
   N     66.94000000    37.92000000    31.40000000
   O     68.19000000    38.95000000    29.90000000
   H     66.79000000    39.76000000    27.35000000
   H     64.72000000    40.98000000    29.10000000
   H     65.44000000    38.37000000    28.90000000
   H     64.92000000    38.90000000    30.35000000
   H     66.02000000    37.72000000    31.76000000
   H     67.80000000    37.54000000    31.77000000
   N     67.40000000    42.24000000    29.63000000
   C     68.03000000    43.33000000    30.34000000
   C     69.32000000    42.88000000    31.02000000
   O     70.00000000    43.71000000    31.62000000
   H     67.91000000    41.82000000    28.87000000
   H     67.38000000    43.75000000    31.11000000
   H     68.25000000    44.11000000    29.61000000
   N     69.85000000    41.68000000    30.79000000
   C     71.01000000    41.04000000    31.38000000
   C     71.97000000    40.53000000    30.32000000
   O     71.56000000    39.78000000    29.45000000
   C     70.71000000    40.10000000    32.55000000
   C     69.76000000    40.60000000    33.61000000
   C     70.32000000    41.07000000    34.80000000
   C     68.39000000    40.68000000    33.34000000
   C     69.48000000    41.65000000    35.76000000
   C     67.59000000    41.30000000    34.31000000
   C     68.11000000    41.82000000    35.51000000
   O     67.33000000    42.20000000    36.57000000
   H     69.46000000    41.10000000    30.06000000
   H     71.52000000    41.83000000    31.93000000
   H     71.65000000    39.78000000    32.99000000
   H     70.31000000    39.23000000    32.02000000
   H     71.40000000    41.08000000    34.85000000
   H     68.01000000    40.34000000    32.39000000
   H     69.92000000    41.99000000    36.69000000
   H     66.51000000    41.35000000    34.22000000
   H     66.39000000    42.23000000    36.40000000
   N     73.25000000    40.74000000    30.64000000
   C     74.38000000    40.09000000    30.00000000
   C     74.91000000    39.06000000    30.98000000
   O     75.31000000    39.35000000    32.11000000
   C     75.47000000    41.13000000    29.75000000
   C     75.07000000    42.28000000    28.83000000
   C     76.86000000    40.58000000    29.44000000
   C     76.00000000    43.48000000    28.65000000
   H     73.49000000    41.37000000    31.39000000
   H     74.04000000    39.64000000    29.07000000
   H     75.76000000    41.55000000    30.71000000
   H     74.20000000    42.67000000    29.36000000
   H     74.77000000    41.84000000    27.88000000
   H     77.55000000    41.40000000    29.24000000
   H     77.21000000    39.89000000    30.20000000
   H     76.80000000    39.98000000    28.53000000
   H     76.32000000    43.87000000    29.62000000
   H     76.89000000    43.17000000    28.10000000
   H     75.54000000    44.29000000    28.09000000
   N     75.19000000    37.83000000    30.54000000
   C     75.88000000    36.77000000    31.26000000
   C     77.23000000    36.41000000    30.64000000
   O     77.60000000    37.05000000    29.66000000
   C     75.01000000    35.52000000    31.25000000
   O     74.70000000    35.15000000    29.92000000
   H     74.93000000    37.63000000    29.59000000
   H     76.07000000    36.99000000    32.31000000
   H     74.05000000    35.60000000    31.77000000
   H     75.52000000    34.70000000    31.75000000
   H     74.42000000    34.23000000    29.98000000
   N     78.02000000    35.49000000    31.18000000
   C     79.36000000    35.23000000    30.68000000
   C     79.34000000    34.49000000    29.36000000
   O     80.10000000    34.73000000    28.42000000
   C     80.01000000    34.40000000    31.78000000
   H     77.60000000    34.88000000    31.86000000
   H     79.83000000    36.21000000    30.61000000
   H     80.99000000    34.13000000    31.38000000
   H     80.04000000    34.78000000    32.81000000
   H     79.43000000    33.49000000    31.90000000
   N     78.39000000    33.58000000    29.10000000
   C     78.18000000    33.01000000    27.79000000
   C     77.84000000    33.98000000    26.67000000
   O     78.34000000    33.93000000    25.54000000
   C     77.10000000    31.93000000    27.84000000
   H     77.84000000    33.17000000    29.85000000
   H     79.16000000    32.59000000    27.56000000
   H     76.81000000    31.72000000    26.81000000
   H     77.52000000    31.06000000    28.34000000
   H     76.32000000    32.33000000    28.49000000
   N     76.90000000    34.88000000    26.91000000
   C     76.60000000    36.00000000    26.03000000
   C     77.76000000    36.93000000    25.73000000
   O     78.03000000    37.33000000    24.60000000
   C     75.53000000    36.86000000    26.71000000
   C     74.11000000    36.31000000    26.58000000
   C     72.97000000    37.10000000    27.21000000
   O     72.56000000    36.74000000    28.33000000
   O     72.41000000    38.04000000    26.61000000
   H     76.53000000    34.99000000    27.84000000
   H     76.19000000    35.75000000    25.05000000
   H     75.59000000    37.89000000    26.37000000
   H     75.78000000    36.95000000    27.77000000
   H     74.05000000    35.25000000    26.80000000
   H     73.88000000    36.37000000    25.51000000
   N     78.52000000    37.25000000    26.79000000
   C     79.69000000    38.10000000    26.70000000
   H     80.51200000    37.54000000    26.25400000
   H     79.46300000    38.96700000    26.08000000
   H     79.97700000    38.43200000    27.69800000
   H     78.16000000    36.96000000    27.68000000
  Ca     70.19000000    37.83000000    28.27000000
   O     69.38000000    35.19000000    29.09000000
   H     68.51000000    34.78000000    29.09000000
   H     69.98000000    34.48000000    29.32000000

Ca 1.70



