%chk=loop2.cluster37.chk
%nprocshared=20
%mem=10GB
%nosave
#b3lyp/svp scf=(tight,noincore,xqc) Test 
#IOP(5/87=12) Density=Current Pop=(MK,readradii) iop(6/33=2) iop(6/42=6)

loop2.cluster37 

   -2  1 
   C     48.09000000    50.01000000    30.57000000
   C     48.36000000    50.98000000    29.43000000
   O     48.08000000    50.62000000    28.29000000
   H     47.06400000    49.64900000    30.50300000
   H     48.77700000    49.16700000    30.50100000
   H     48.23400000    50.51900000    31.52300000
   N     48.93000000    52.17000000    29.66000000
   C     49.73000000    52.77000000    28.62000000
   C     49.04000000    53.54000000    27.49000000
   O     48.47000000    54.62000000    27.60000000
   C     50.67000000    53.76000000    29.30000000
   C     51.62000000    54.42000000    28.31000000
   O     51.92000000    55.63000000    28.36000000
   O     52.11000000    53.73000000    27.39000000
   H     49.02000000    52.54000000    30.60000000
   H     50.31000000    51.95000000    28.20000000
   H     51.25000000    53.20000000    30.03000000
   H     50.11000000    54.60000000    29.71000000
   N     49.02000000    52.92000000    26.31000000
   C     48.14000000    53.40000000    25.26000000
   C     47.52000000    52.23000000    24.53000000
   O     48.23000000    51.29000000    24.17000000
   C     48.84000000    54.35000000    24.29000000
   H     49.40000000    51.99000000    26.17000000
   H     47.26000000    53.84000000    25.72000000
   H     49.89000000    54.11000000    24.08000000
   H     48.32000000    54.36000000    23.34000000
   H     48.82000000    55.34000000    24.73000000
   N     46.22000000    52.20000000    24.24000000
   C     45.10000000    53.02000000    24.67000000
   C     44.45000000    52.50000000    25.94000000
   O     44.23000000    51.31000000    26.17000000
   C     44.02000000    53.04000000    23.59000000
   C     43.49000000    51.68000000    23.16000000
   O     44.25000000    51.09000000    22.37000000
   O     42.38000000    51.23000000    23.50000000
   H     45.93000000    51.51000000    23.56000000
   H     45.39000000    54.06000000    24.83000000
   H     44.48000000    53.57000000    22.76000000
   H     43.12000000    53.57000000    23.90000000
   N     44.17000000    53.40000000    26.88000000
   C     43.59000000    53.17000000    28.18000000
   C     44.19000000    54.06000000    29.26000000
   O     45.14000000    54.81000000    29.05000000
   H     44.32000000    54.36000000    26.57000000
   H     43.67000000    52.12000000    28.47000000
   H     42.51000000    53.27000000    28.15000000
   N     43.61000000    54.25000000    30.45000000
   C     42.27000000    53.86000000    30.86000000
   C     42.43000000    53.06000000    32.14000000
   O     42.83000000    53.62000000    33.17000000
   C     41.30000000    55.03000000    30.93000000
   C     41.35000000    55.88000000    29.66000000
   N     41.31000000    57.21000000    29.73000000
   O     41.42000000    55.47000000    28.51000000
   H     44.11000000    54.86000000    31.08000000
   H     41.93000000    53.16000000    30.09000000
   H     41.55000000    55.70000000    31.75000000
   H     40.29000000    54.63000000    30.94000000
   H     41.35000000    57.75000000    30.59000000
   H     41.52000000    57.70000000    28.87000000
   N     42.09000000    51.78000000    32.07000000
   C     42.36000000    50.80000000    33.11000000
   C     41.83000000    49.40000000    32.85000000
   O     42.38000000    48.40000000    33.32000000
   H     41.73000000    51.38000000    31.21000000
   H     42.03000000    51.17000000    34.08000000
   H     43.45000000    50.83000000    33.18000000
   N     40.91000000    49.23000000    31.90000000
   C     40.68000000    47.96000000    31.25000000
   C     41.55000000    47.80000000    30.01000000
   O     42.06000000    48.77000000    29.45000000
   C     39.21000000    47.89000000    30.84000000
   C     38.29000000    47.79000000    32.06000000
   O     38.69000000    49.03000000    30.20000000
   H     40.32000000    49.99000000    31.57000000
   H     40.93000000    47.15000000    31.94000000
   H     39.05000000    47.00000000    30.23000000
   H     38.76000000    48.79000000    29.27000000
   H     37.27000000    48.07000000    31.81000000
   H     38.20000000    46.73000000    32.31000000
   H     38.70000000    48.31000000    32.92000000
   N     41.72000000    46.54000000    29.62000000
   C     42.37000000    46.01000000    28.44000000
   C     41.38000000    45.10000000    27.72000000
   O     40.50000000    44.45000000    28.25000000
   C     43.56000000    45.15000000    28.84000000
   C     44.61000000    45.93000000    29.63000000
   C     43.12000000    43.94000000    29.66000000
   C     45.32000000    46.93000000    28.73000000
   H     41.26000000    45.87000000    30.22000000
   H     42.72000000    46.77000000    27.73000000
   H     44.07000000    44.80000000    27.94000000
   H     45.38000000    45.28000000    30.05000000
   H     44.05000000    46.36000000    30.47000000
   H     43.77000000    43.41000000    30.35000000
   H     42.37000000    44.26000000    30.38000000
   H     42.75000000    43.18000000    28.96000000
   H     44.63000000    47.66000000    28.30000000
   H     46.02000000    47.52000000    29.32000000
   H     45.95000000    46.40000000    28.01000000
   N     41.55000000    44.92000000    26.41000000
   C     40.67000000    44.11000000    25.58000000
   C     41.48000000    43.59000000    24.40000000
   O     42.59000000    44.05000000    24.13000000
   C     39.47000000    44.97000000    25.16000000
   C     39.86000000    46.37000000    24.71000000
   O     39.93000000    47.29000000    25.55000000
   O     40.28000000    46.51000000    23.54000000
   H     42.33000000    45.35000000    25.93000000
   H     40.23000000    43.29000000    26.14000000
   H     38.83000000    45.09000000    26.03000000
   H     38.89000000    44.43000000    24.41000000
   N     40.92000000    42.58000000    23.72000000
   C     41.59000000    41.96000000    22.61000000
   C     42.91000000    41.38000000    23.10000000
   O     42.95000000    40.87000000    24.22000000
   C     40.65000000    40.91000000    22.02000000
   C     41.22000000    40.28000000    20.77000000
   C     41.82000000    39.02000000    20.88000000
   C     41.07000000    40.90000000    19.53000000
   C     42.38000000    38.45000000    19.74000000
   C     41.51000000    40.24000000    18.37000000
   C     42.22000000    39.04000000    18.48000000
   H     39.95000000    42.36000000    23.93000000
   H     41.79000000    42.70000000    21.83000000
   H     39.74000000    41.48000000    21.87000000
   H     40.54000000    40.15000000    22.80000000
   H     42.01000000    38.48000000    21.81000000
   H     40.74000000    41.92000000    19.44000000
   H     42.90000000    37.50000000    19.73000000
   H     41.37000000    40.76000000    17.43000000
   H     42.63000000    38.56000000    17.60000000
   N     44.03000000    41.51000000    22.39000000
   C     45.28000000    40.97000000    22.89000000
   C     46.05000000    41.80000000    23.91000000
   O     47.17000000    41.39000000    24.21000000
   C     46.00000000    40.83000000    21.55000000
   C     45.61000000    42.00000000    20.64000000
   C     44.16000000    42.13000000    21.09000000
   H     45.16000000    39.97000000    23.31000000
   H     47.05000000    40.89000000    21.81000000
   H     45.71000000    39.92000000    21.04000000
   H     46.12000000    42.94000000    20.83000000
   H     45.74000000    41.76000000    19.59000000
   H     43.87000000    43.18000000    21.20000000
   H     43.57000000    41.58000000    20.35000000
   N     45.58000000    42.95000000    24.39000000
   C     46.34000000    43.95000000    25.11000000
   C     46.86000000    43.51000000    26.47000000
   O     47.75000000    44.15000000    27.03000000
   C     45.47000000    45.21000000    25.20000000
   C     45.57000000    45.90000000    23.85000000
   C     44.32000000    46.63000000    23.37000000
   O     43.61000000    47.25000000    24.19000000
   O     43.98000000    46.55000000    22.17000000
   H     44.62000000    43.12000000    24.11000000
   H     47.21000000    44.20000000    24.51000000
   H     45.95000000    45.90000000    25.89000000
   H     44.47000000    44.95000000    25.55000000
   H     45.87000000    45.15000000    23.11000000
   H     46.36000000    46.65000000    23.81000000
   N     46.25000000    42.46000000    27.01000000
   C     46.25000000    42.14000000    28.43000000
   H     46.95200000    41.32800000    28.61900000
   H     46.55000000    43.01900000    29.00100000
   H     45.24900000    41.83200000    28.73400000
   H     45.53000000    42.05000000    26.44000000
  Ca     41.34000000    48.84000000    23.99000000
   O     41.88000000    49.52000000    26.68000000
   H     42.70000000    49.74000000    27.10000000
   H     41.32000000    49.22000000    27.39000000
   O     39.90000000    49.20000000    21.81000000
   H     39.86000000    48.72000000    20.98000000
   H     38.98000000    49.44000000    21.98000000
   O     42.99000000    48.85000000    21.54000000
   H     43.57000000    49.54000000    21.85000000
   H     43.47000000    48.04000000    21.72000000

Ca 1.00



