%chk=loop2.cluster152.chk
%nprocshared=20
%mem=10GB
%nosave
#b3lyp/svp scf=(tight,noincore,xqc) Test 
#IOP(5/87=12) Density=Current Pop=(MK,readradii) iop(6/33=2) iop(6/42=6)

loop2.cluster152 

   -2  1 
   C     51.83000000   -12.19000000    26.76000000
   C     51.38000000   -13.39000000    27.58000000
   O     50.34000000   -13.36000000    28.24000000
   H     52.83400000   -12.36900000    26.37600000
   H     51.14400000   -12.04100000    25.92600000
   H     51.83600000   -11.30000000    27.39000000
   N     52.28000000   -14.34000000    27.87000000
   C     52.09000000   -15.49000000    28.74000000
   C     52.61000000   -15.18000000    30.13000000
   O     52.09000000   -15.61000000    31.16000000
   C     52.77000000   -16.68000000    28.06000000
   C     52.60000000   -17.94000000    28.90000000
   O     53.58000000   -18.52000000    29.42000000
   O     51.44000000   -18.32000000    29.16000000
   H     53.16000000   -14.31000000    27.39000000
   H     51.06000000   -15.85000000    28.80000000
   H     53.83000000   -16.50000000    27.88000000
   H     52.22000000   -16.83000000    27.14000000
   N     53.75000000   -14.50000000    30.16000000
   C     54.61000000   -14.24000000    31.30000000
   C     53.87000000   -13.35000000    32.29000000
   O     54.01000000   -13.53000000    33.50000000
   C     55.24000000   -15.56000000    31.73000000
   H     54.16000000   -14.39000000    29.24000000
   H     55.45000000   -13.60000000    31.03000000
   H     56.11000000   -15.34000000    32.35000000
   H     54.53000000   -16.01000000    32.43000000
   H     55.52000000   -16.23000000    30.92000000
   N     53.01000000   -12.43000000    31.84000000
   C     52.37000000   -11.42000000    32.66000000
   C     51.30000000   -11.96000000    33.60000000
   O     50.81000000   -11.32000000    34.54000000
   C     53.34000000   -10.48000000    33.35000000
   C     54.49000000    -9.83000000    32.58000000
   O     55.49000000    -9.43000000    33.21000000
   O     54.34000000    -9.59000000    31.36000000
   H     52.89000000   -12.36000000    30.84000000
   H     51.78000000   -10.91000000    31.90000000
   H     53.83000000   -10.93000000    34.21000000
   H     52.80000000    -9.63000000    33.76000000
   N     50.80000000   -13.17000000    33.36000000
   C     49.60000000   -13.72000000    33.97000000
   C     48.34000000   -12.88000000    33.80000000
   O     48.17000000   -12.26000000    32.75000000
   H     51.39000000   -13.74000000    32.77000000
   H     49.83000000   -14.02000000    34.99000000
   H     49.47000000   -14.62000000    33.37000000
   N     47.59000000   -12.84000000    34.90000000
   C     46.34000000   -12.12000000    35.05000000
   C     45.23000000   -12.46000000    34.06000000
   O     44.70000000   -11.66000000    33.30000000
   C     46.56000000   -10.61000000    35.15000000
   C     47.49000000   -10.23000000    36.29000000
   N     48.73000000    -9.81000000    36.07000000
   O     47.11000000   -10.32000000    37.46000000
   H     47.78000000   -13.49000000    35.64000000
   H     45.97000000   -12.43000000    36.03000000
   H     45.62000000   -10.06000000    35.20000000
   H     46.94000000   -10.20000000    34.22000000
   H     48.90000000    -9.52000000    35.12000000
   H     49.30000000    -9.56000000    36.87000000
   N     44.92000000   -13.76000000    33.93000000
   C     43.90000000   -14.23000000    33.02000000
   C     44.39000000   -14.40000000    31.58000000
   O     43.94000000   -15.35000000    30.95000000
   H     45.49000000   -14.45000000    34.38000000
   H     43.06000000   -13.55000000    32.94000000
   H     43.59000000   -15.21000000    33.38000000
   N     45.25000000   -13.48000000    31.12000000
   C     45.84000000   -13.47000000    29.80000000
   C     45.52000000   -12.18000000    29.04000000
   O     45.09000000   -11.19000000    29.62000000
   C     47.35000000   -13.63000000    29.84000000
   C     47.94000000   -14.76000000    30.68000000
   O     47.78000000   -13.87000000    28.51000000
   H     45.47000000   -12.69000000    31.70000000
   H     45.39000000   -14.24000000    29.17000000
   H     47.74000000   -12.67000000    30.18000000
   H     48.73000000   -13.75000000    28.41000000
   H     47.39000000   -15.69000000    30.56000000
   H     49.02000000   -14.81000000    30.55000000
   H     47.75000000   -14.53000000    31.73000000
   N     45.64000000   -12.17000000    27.71000000
   C     45.60000000   -10.96000000    26.90000000
   C     46.82000000   -10.07000000    27.06000000
   O     47.95000000   -10.54000000    27.10000000
   C     45.31000000   -11.28000000    25.44000000
   C     46.34000000   -12.24000000    24.86000000
   C     43.89000000   -11.84000000    25.31000000
   C     46.04000000   -12.92000000    23.52000000
   H     45.89000000   -13.03000000    27.24000000
   H     44.78000000   -10.38000000    27.31000000
   H     45.36000000   -10.32000000    24.93000000
   H     46.68000000   -12.99000000    25.58000000
   H     47.18000000   -11.59000000    24.62000000
   H     43.28000000   -11.46000000    26.13000000
   H     43.35000000   -11.48000000    24.44000000
   H     43.86000000   -12.92000000    25.48000000
   H     45.30000000   -13.68000000    23.75000000
   H     45.53000000   -12.28000000    22.80000000
   H     46.90000000   -13.43000000    23.08000000
   N     46.62000000    -8.75000000    27.10000000
   C     47.64000000    -7.82000000    27.54000000
   C     47.33000000    -6.90000000    28.71000000
   O     47.57000000    -5.70000000    28.77000000
   C     48.13000000    -7.12000000    26.28000000
   C     49.42000000    -6.36000000    26.52000000
   O     50.10000000    -6.44000000    27.57000000
   O     49.91000000    -5.68000000    25.59000000
   H     45.66000000    -8.43000000    27.18000000
   H     48.45000000    -8.43000000    27.95000000
   H     47.47000000    -6.32000000    25.93000000
   H     48.34000000    -7.75000000    25.41000000
   N     46.64000000    -7.55000000    29.65000000
   C     46.33000000    -7.09000000    30.99000000
   C     45.30000000    -5.99000000    31.14000000
   O     45.65000000    -4.99000000    31.77000000
   C     46.07000000    -8.34000000    31.83000000
   C     45.63000000    -8.06000000    33.25000000
   C     44.29000000    -8.25000000    33.61000000
   C     46.51000000    -7.53000000    34.20000000
   C     43.88000000    -7.96000000    34.92000000
   C     46.13000000    -7.30000000    35.52000000
   C     44.78000000    -7.49000000    35.87000000
   H     46.48000000    -8.53000000    29.45000000
   H     47.26000000    -6.66000000    31.35000000
   H     47.02000000    -8.87000000    31.85000000
   H     45.36000000    -9.00000000    31.34000000
   H     43.62000000    -8.54000000    32.81000000
   H     47.52000000    -7.26000000    33.90000000
   H     42.82000000    -8.03000000    35.11000000
   H     46.77000000    -6.71000000    36.15000000
   H     44.41000000    -7.15000000    36.83000000
   N     44.04000000    -6.09000000    30.71000000
   C     43.52000000    -7.18000000    29.90000000
   C     43.52000000    -6.98000000    28.39000000
   O     43.70000000    -7.92000000    27.62000000
   C     42.05000000    -7.36000000    30.28000000
   C     41.63000000    -5.98000000    30.76000000
   C     42.93000000    -5.34000000    31.25000000
   H     44.03000000    -8.12000000    30.12000000
   H     41.39000000    -7.70000000    29.49000000
   H     41.92000000    -8.04000000    31.13000000
   H     41.27000000    -5.34000000    29.95000000
   H     41.01000000    -6.00000000    31.65000000
   H     43.00000000    -4.29000000    31.00000000
   H     43.03000000    -5.46000000    32.33000000
   N     43.33000000    -5.73000000    27.96000000
   C     42.95000000    -5.35000000    26.61000000
   C     43.94000000    -5.80000000    25.55000000
   O     45.13000000    -5.51000000    25.59000000
   C     42.80000000    -3.84000000    26.50000000
   C     42.04000000    -3.41000000    25.24000000
   C     41.91000000    -1.89000000    25.21000000
   O     42.92000000    -1.15000000    25.18000000
   O     40.78000000    -1.36000000    25.23000000
   H     43.37000000    -5.00000000    28.65000000
   H     41.99000000    -5.82000000    26.36000000
   H     43.76000000    -3.32000000    26.47000000
   H     42.17000000    -3.44000000    27.29000000
   H     41.14000000    -4.00000000    25.35000000
   H     42.58000000    -3.76000000    24.36000000
   N     43.45000000    -6.41000000    24.46000000
   C     44.12000000    -6.93000000    23.29000000
   H     45.12200000    -7.26200000    23.56300000
   H     43.55500000    -7.77300000    22.89100000
   H     44.19000000    -6.14800000    22.53300000
   H     42.44000000    -6.46000000    24.45000000
  Ca     52.27000000    -6.74100000    29.07000000
   O     53.39000000    -4.57100000    30.24000000
   H     54.31000000    -4.63100000    30.52000000
   H     53.11000000    -3.70100000    30.50000000
   O     51.52000000    -9.15100000    29.55000000
   H     52.07000000    -9.94100000    29.53000000
   H     50.63000000    -9.49100000    29.63000000
   O     53.02000000    -8.15100000    26.82000000
   H     53.81000000    -8.66100000    26.67000000
   H     52.73000000    -7.89100000    25.94000000
   O     50.07000000    -5.98100000    30.85000000
   H     50.43000000    -5.91100000    31.74000000
   H     49.54000000    -5.19100000    30.75000000
   O     54.94000000    -6.85100000    28.95000000
   H     55.61000000    -6.86100000    29.64000000
   H     55.38000000    -6.46100000    28.19000000
   O     53.16000000    -7.20100000    31.50000000
   H     53.31000000    -8.14100000    31.64000000
   H     53.48000000    -6.78100000    32.30000000
   O     52.50000000    -4.97100000    26.69000000
   H     51.70000000    -5.23100000    26.21000000
   H     52.99000000    -4.45100000    26.05000000

Ca 1.00



