%chk=loop2.cluster212.chk
%nprocshared=20
%mem=10GB
%nosave
#b3lyp/svp scf=(tight,noincore,xqc) Test 
#IOP(5/87=12) Density=Current Pop=(MK,readradii) iop(6/33=2) iop(6/42=6)

loop2.cluster212 

   -2  1 
   C     61.97000000    65.46000000    22.93000000
   C     62.75000000    66.54000000    22.19000000
   O     63.40000000    67.35000000    22.84000000
   H     60.99400000    65.33300000    22.46200000
   H     62.51900000    64.51900000    22.88500000
   H     61.83800000    65.75500000    23.97100000
   N     62.73000000    66.52000000    20.86000000
   C     63.55000000    67.36000000    20.00000000
   C     63.10000000    68.81000000    20.06000000
   O     61.89000000    69.02000000    19.97000000
   C     63.59000000    66.78000000    18.59000000
   C     64.80000000    67.18000000    17.75000000
   O     65.77000000    67.79000000    18.25000000
   O     64.92000000    66.74000000    16.59000000
   H     62.35000000    65.72000000    20.37000000
   H     64.57000000    67.39000000    20.37000000
   H     62.68000000    67.02000000    18.03000000
   H     63.71000000    65.70000000    18.60000000
   N     64.05000000    69.74000000    19.93000000
   C     63.90000000    71.17000000    19.77000000
   C     64.67000000    71.77000000    18.61000000
   O     64.64000000    72.98000000    18.41000000
   C     64.27000000    71.81000000    21.11000000
   H     64.97000000    69.39000000    20.18000000
   H     62.88000000    71.53000000    19.62000000
   H     65.32000000    71.72000000    21.40000000
   H     64.07000000    72.88000000    21.11000000
   H     63.58000000    71.42000000    21.86000000
   N     65.42000000    71.00000000    17.81000000
   C     66.47000000    71.53000000    16.96000000
   C     66.56000000    70.85000000    15.61000000
   O     67.18000000    71.43000000    14.72000000
   C     67.86000000    71.47000000    17.60000000
   C     68.08000000    70.09000000    18.19000000
   O     68.12000000    69.11000000    17.43000000
   O     68.36000000    69.93000000    19.40000000
   H     65.51000000    70.03000000    18.05000000
   H     66.23000000    72.56000000    16.69000000
   H     67.92000000    72.20000000    18.40000000
   H     68.65000000    71.73000000    16.90000000
   N     66.08000000    69.62000000    15.43000000
   C     66.07000000    68.81000000    14.22000000
   C     67.29000000    67.95000000    13.93000000
   O     67.49000000    67.55000000    12.79000000
   H     65.64000000    69.22000000    16.24000000
   H     65.91000000    69.46000000    13.36000000
   H     65.31000000    68.04000000    14.29000000
   N     68.22000000    67.84000000    14.88000000
   C     69.53000000    67.24000000    14.68000000
   C     69.69000000    65.73000000    14.77000000
   O     70.84000000    65.32000000    14.85000000
   C     70.51000000    67.96000000    15.61000000
   C     70.58000000    67.65000000    17.09000000
   N     71.45000000    68.35000000    17.83000000
   O     69.89000000    66.77000000    17.60000000
   H     68.03000000    68.28000000    15.77000000
   H     69.74000000    67.51000000    13.64000000
   H     70.31000000    69.03000000    15.52000000
   H     71.51000000    67.80000000    15.21000000
   H     72.05000000    69.04000000    17.39000000
   H     71.48000000    68.17000000    18.82000000
   N     68.59000000    64.99000000    14.94000000
   C     68.55000000    63.54000000    15.06000000
   C     69.18000000    62.94000000    16.31000000
   O     69.31000000    61.72000000    16.35000000
   H     67.72000000    65.48000000    14.86000000
   H     69.03000000    63.03000000    14.23000000
   H     67.47000000    63.41000000    15.07000000
   N     69.60000000    63.67000000    17.35000000
   C     69.97000000    63.13000000    18.63000000
   C     69.29000000    63.75000000    19.85000000
   O     68.85000000    64.89000000    19.83000000
   C     71.49000000    63.14000000    18.81000000
   C     72.36000000    62.40000000    17.81000000
   O     71.99000000    64.46000000    18.77000000
   H     69.36000000    64.65000000    17.26000000
   H     69.78000000    62.06000000    18.70000000
   H     71.77000000    62.73000000    19.78000000
   H     71.63000000    65.08000000    19.41000000
   H     73.37000000    62.32000000    18.21000000
   H     72.01000000    61.40000000    17.57000000
   H     72.29000000    63.00000000    16.90000000
   N     69.17000000    63.05000000    20.98000000
   C     68.68000000    63.67000000    22.19000000
   C     69.86000000    64.45000000    22.74000000
   O     70.92000000    63.86000000    22.93000000
   C     68.14000000    62.73000000    23.27000000
   C     66.99000000    61.91000000    22.71000000
   C     67.79000000    63.44000000    24.57000000
   C     67.11000000    60.44000000    23.10000000
   H     69.67000000    62.18000000    21.10000000
   H     67.90000000    64.39000000    21.93000000
   H     68.93000000    62.00000000    23.46000000
   H     67.00000000    61.96000000    21.62000000
   H     66.04000000    62.39000000    22.94000000
   H     68.74000000    63.74000000    25.00000000
   H     67.27000000    64.37000000    24.36000000
   H     67.27000000    62.78000000    25.27000000
   H     68.02000000    60.06000000    22.64000000
   H     67.01000000    60.33000000    24.18000000
   H     66.38000000    59.85000000    22.55000000
   N     69.78000000    65.77000000    22.93000000
   C     70.88000000    66.56000000    23.47000000
   C     70.65000000    66.76000000    24.96000000
   O     69.53000000    66.63000000    25.45000000
   C     71.03000000    67.90000000    22.76000000
   C     71.13000000    68.00000000    21.24000000
   O     70.08000000    67.76000000    20.61000000
   O     72.18000000    68.47000000    20.75000000
   H     68.92000000    66.28000000    22.79000000
   H     71.77000000    65.94000000    23.33000000
   H     71.92000000    68.39000000    23.13000000
   H     70.17000000    68.48000000    23.10000000
   N     71.69000000    67.16000000    25.70000000
   C     71.58000000    67.31000000    27.14000000
   C     70.60000000    68.38000000    27.58000000
   O     70.03000000    68.22000000    28.66000000
   C     72.97000000    67.27000000    27.76000000
   C     72.99000000    67.47000000    29.26000000
   C     73.29000000    68.72000000    29.80000000
   C     72.69000000    66.42000000    30.14000000
   C     73.46000000    68.90000000    31.17000000
   C     72.79000000    66.59000000    31.53000000
   C     73.25000000    67.81000000    32.02000000
   H     72.60000000    67.05000000    25.27000000
   H     71.12000000    66.36000000    27.44000000
   H     73.66000000    67.97000000    27.28000000
   H     73.35000000    66.26000000    27.61000000
   H     73.43000000    69.61000000    29.20000000
   H     72.38000000    65.50000000    29.68000000
   H     73.60000000    69.92000000    31.49000000
   H     72.60000000    65.77000000    32.21000000
   H     73.45000000    67.91000000    33.08000000
   N     70.34000000    69.43000000    26.80000000
   C     69.30000000    70.39000000    27.13000000
   C     67.90000000    69.81000000    26.97000000
   O     67.02000000    70.36000000    27.62000000
   C     69.53000000    71.52000000    26.12000000
   C     71.05000000    71.57000000    25.92000000
   C     71.31000000    70.06000000    25.93000000
   H     69.44000000    70.84000000    28.11000000
   H     69.10000000    71.23000000    25.17000000
   H     69.10000000    72.45000000    26.48000000
   H     71.23000000    72.15000000    25.02000000
   H     71.51000000    72.01000000    26.79000000
   H     71.12000000    69.76000000    24.90000000
   H     72.37000000    69.89000000    26.13000000
   N     67.73000000    68.72000000    26.23000000
   C     66.43000000    68.12000000    25.99000000
   C     66.18000000    67.08000000    27.07000000
   O     65.07000000    66.93000000    27.59000000
   C     66.43000000    67.52000000    24.59000000
   C     66.75000000    68.51000000    23.47000000
   C     66.81000000    67.91000000    22.08000000
   O     66.38000000    68.54000000    21.08000000
   O     67.38000000    66.81000000    21.89000000
   H     68.47000000    68.28000000    25.70000000
   H     65.63000000    68.85000000    26.10000000
   H     65.42000000    67.12000000    24.44000000
   H     67.11000000    66.67000000    24.57000000
   H     67.74000000    68.97000000    23.55000000
   H     65.96000000    69.25000000    23.45000000
   N     67.25000000    66.46000000    27.58000000
   C     67.23000000    65.57000000    28.72000000
   H     66.44000000    65.87600000    29.40500000
   H     67.04300000    64.55100000    28.38300000
   H     68.19100000    65.61300000    29.23200000
   H     68.14000000    66.61000000    27.12000000
  Ca     67.92000000    67.32000000    19.42000000
   O     65.94000000    65.05000000    20.24000000
   H     66.21000000    65.49000000    21.04000000
   H     65.12000000    64.60000000    20.48000000
   O     67.13000000    65.44000000    17.41000000
   H     66.35000000    65.87000000    17.06000000
   H     66.80000000    64.64000000    17.82000000

Ca 1.00



