%chk=loop2.cluster34.chk
%nprocshared=20
%mem=10GB
%nosave
#b3lyp/svp scf=(tight,noincore,xqc) Test 
#IOP(5/87=12) Density=Current Pop=(MK,readradii) iop(6/33=2) iop(6/42=6)

loop2.cluster34 

   -2  1 
   C     86.84000000    78.99000000    24.20000000
   C     88.31000000    79.01000000    24.62000000
   O     88.86000000    80.09000000    24.46000000
   H     86.27600000    79.68900000    24.81800000
   H     86.75700000    79.28300000    23.15300000
   H     86.43800000    77.98500000    24.33000000
   N     88.84000000    77.93000000    25.21000000
   C     90.18000000    77.86000000    25.75000000
   C     90.27000000    78.49000000    27.13000000
   O     90.25000000    77.78000000    28.13000000
   C     90.71000000    76.43000000    25.66000000
   C     92.16000000    76.30000000    26.09000000
   O     92.99000000    77.23000000    26.00000000
   O     92.56000000    75.16000000    26.43000000
   H     88.12000000    77.24000000    25.37000000
   H     90.76000000    78.44000000    25.03000000
   H     90.66000000    76.21000000    24.59000000
   H     90.14000000    75.67000000    26.19000000
   N     90.51000000    79.80000000    27.19000000
   C     90.39000000    80.63000000    28.37000000
   C     89.02000000    81.30000000    28.47000000
   O     88.37000000    81.54000000    27.46000000
   C     91.61000000    81.54000000    28.32000000
   H     90.42000000    80.26000000    26.29000000
   H     90.42000000    79.96000000    29.22000000
   H     92.55000000    81.02000000    28.12000000
   H     91.51000000    82.23000000    27.48000000
   H     91.78000000    82.10000000    29.23000000
   N     88.56000000    81.71000000    29.65000000
   C     89.36000000    81.81000000    30.85000000
   C     89.30000000    80.56000000    31.72000000
   O     88.57000000    79.59000000    31.49000000
   C     89.06000000    83.10000000    31.61000000
   C     88.90000000    84.36000000    30.78000000
   O     89.49000000    84.42000000    29.68000000
   O     88.16000000    85.29000000    31.16000000
   H     87.67000000    82.17000000    29.79000000
   H     90.40000000    81.92000000    30.54000000
   H     89.78000000    83.23000000    32.42000000
   H     88.08000000    82.97000000    32.08000000
   N     90.07000000    80.60000000    32.80000000
   C     90.21000000    79.41000000    33.63000000
   C     90.62000000    78.13000000    32.91000000
   O     91.41000000    78.24000000    31.98000000
   H     90.75000000    81.33000000    32.94000000
   H     89.34000000    79.20000000    34.25000000
   H     90.96000000    79.74000000    34.34000000
   N     90.09000000    76.94000000    33.20000000
   C     89.36000000    76.50000000    34.37000000
   C     87.96000000    77.10000000    34.42000000
   O     87.31000000    76.91000000    35.44000000
   C     89.27000000    74.98000000    34.32000000
   C     90.62000000    74.29000000    34.33000000
   N     91.11000000    73.80000000    35.47000000
   O     91.24000000    74.14000000    33.28000000
   H     90.48000000    76.20000000    32.64000000
   H     89.85000000    76.85000000    35.28000000
   H     88.72000000    74.66000000    33.44000000
   H     88.70000000    74.67000000    35.19000000
   H     90.57000000    73.92000000    36.31000000
   H     92.09000000    73.58000000    35.54000000
   N     87.41000000    77.71000000    33.36000000
   C     86.08000000    78.27000000    33.30000000
   C     85.84000000    79.50000000    34.16000000
   O     84.86000000    79.53000000    34.90000000
   H     87.99000000    77.78000000    32.53000000
   H     85.47000000    77.48000000    33.73000000
   H     85.70000000    78.42000000    32.29000000
   N     86.71000000    80.52000000    34.10000000
   C     86.48000000    81.83000000    34.67000000
   C     85.64000000    82.75000000    33.79000000
   O     85.93000000    83.91000000    33.50000000
   C     87.75000000    82.52000000    35.16000000
   C     87.52000000    83.60000000    36.21000000
   O     88.71000000    81.63000000    35.69000000
   H     87.48000000    80.42000000    33.46000000
   H     85.82000000    81.72000000    35.53000000
   H     88.17000000    82.94000000    34.25000000
   H     89.55000000    82.10000000    35.70000000
   H     88.44000000    84.13000000    36.45000000
   H     86.78000000    84.34000000    35.89000000
   H     87.12000000    83.17000000    37.13000000
   N     84.53000000    82.24000000    33.25000000
   C     83.89000000    82.89000000    32.13000000
   C     82.95000000    83.97000000    32.64000000
   O     82.57000000    83.89000000    33.81000000
   C     83.17000000    81.87000000    31.26000000
   C     83.95000000    80.70000000    30.69000000
   C     81.91000000    81.25000000    31.88000000
   C     85.31000000    81.01000000    30.08000000
   H     84.10000000    81.46000000    33.74000000
   H     84.66000000    83.32000000    31.49000000
   H     82.79000000    82.37000000    30.36000000
   H     83.32000000    80.26000000    29.91000000
   H     84.09000000    79.96000000    31.47000000
   H     82.03000000    80.77000000    32.85000000
   H     81.18000000    82.06000000    31.87000000
   H     81.59000000    80.51000000    31.15000000
   H     85.91000000    81.66000000    30.72000000
   H     85.86000000    80.10000000    29.84000000
   H     85.21000000    81.44000000    29.08000000
   N     82.66000000    84.98000000    31.82000000
   C     81.51000000    85.84000000    32.05000000
   C     80.14000000    85.39000000    31.57000000
   O     80.08000000    84.34000000    30.94000000
   C     81.83000000    87.25000000    31.57000000
   C     82.47000000    87.36000000    30.20000000
   O     83.57000000    86.80000000    30.00000000
   O     81.86000000    87.99000000    29.30000000
   H     83.11000000    85.02000000    30.92000000
   H     81.40000000    86.00000000    33.12000000
   H     82.57000000    87.73000000    32.22000000
   H     80.93000000    87.87000000    31.55000000
   N     79.08000000    86.20000000    31.69000000
   C     77.73000000    86.09000000    31.18000000
   C     77.65000000    85.49000000    29.78000000
   O     77.49000000    84.29000000    29.59000000
   C     76.85000000    85.56000000    32.30000000
   C     75.54000000    86.32000000    32.29000000
   C     74.50000000    85.93000000    31.43000000
   C     75.37000000    87.44000000    33.11000000
   C     73.33000000    86.68000000    31.34000000
   C     74.22000000    88.22000000    33.05000000
   C     73.21000000    87.79000000    32.18000000
   H     79.22000000    87.10000000    32.13000000
   H     77.39000000    87.12000000    31.07000000
   H     77.30000000    85.75000000    33.28000000
   H     76.76000000    84.48000000    32.19000000
   H     74.54000000    85.04000000    30.82000000
   H     76.19000000    87.73000000    33.76000000
   H     72.58000000    86.49000000    30.58000000
   H     74.05000000    89.01000000    33.77000000
   H     72.26000000    88.29000000    32.14000000
   N     77.87000000    86.28000000    28.72000000
   C     77.72000000    85.81000000    27.36000000
   C     78.79000000    84.85000000    26.88000000
   O     78.68000000    84.12000000    25.90000000
   C     77.66000000    87.07000000    26.49000000
   C     78.51000000    88.07000000    27.26000000
   C     78.22000000    87.68000000    28.70000000
   H     76.77000000    85.28000000    27.27000000
   H     78.23000000    87.03000000    25.56000000
   H     76.63000000    87.40000000    26.39000000
   H     79.58000000    88.01000000    27.04000000
   H     78.22000000    89.12000000    27.13000000
   H     79.09000000    88.00000000    29.29000000
   H     77.34000000    88.22000000    29.07000000
   N     79.84000000    84.67000000    27.69000000
   C     80.97000000    83.79000000    27.48000000
   C     80.58000000    82.38000000    27.91000000
   O     80.74000000    81.45000000    27.12000000
   C     82.24000000    84.34000000    28.12000000
   C     83.59000000    83.68000000    27.90000000
   C     84.73000000    84.53000000    28.43000000
   O     85.28000000    84.24000000    29.52000000
   O     85.08000000    85.52000000    27.76000000
   H     79.88000000    85.13000000    28.59000000
   H     81.09000000    83.82000000    26.40000000
   H     81.96000000    84.41000000    29.17000000
   H     82.33000000    85.37000000    27.76000000
   H     83.62000000    83.51000000    26.82000000
   H     83.66000000    82.68000000    28.33000000
   N     79.97000000    82.20000000    29.08000000
   C     79.29000000    80.98000000    29.48000000
   H     78.31800000    80.92900000    28.99000000
   H     79.88900000    80.11700000    29.18800000
   H     79.15200000    80.97800000    30.56100000
   H     79.71000000    83.09000000    29.49000000
  Ca     86.20000000    86.70000000    29.95000000
   O     85.79000000    86.58000000    32.62000000
   H     85.02000000    86.87000000    33.09000000
   H     86.11000000    85.82000000    33.11000000
   O     88.67000000    88.04000000    30.17000000
   H     89.08000000    88.33000000    29.36000000
   H     89.26000000    88.35000000    30.87000000
   O     87.80000000    85.68000000    28.22000000
   H     88.46000000    85.15000000    28.66000000
   H     87.64000000    85.24000000    27.39000000
   O     85.71000000    88.56000000    28.17000000
   H     85.75000000    89.52000000    28.24000000
   H     84.80000000    88.38000000    27.94000000

Ca 1.00



