%chk=loop2.cluster173.chk
%nprocshared=20
%mem=10GB
%nosave
#b3lyp/svp scf=(tight,noincore,xqc) Test 
#IOP(5/87=12) Density=Current Pop=(MK,readradii) iop(6/33=2) iop(6/42=6)

loop2.cluster173 

   -2  1 
   C    116.14000000    57.08000000    -3.60000000
   C    114.74000000    57.68000000    -3.63000000
   O    113.79000000    57.11000000    -3.10000000
   H    116.82300000    57.77700000    -3.11500000
   H    116.12300000    56.14300000    -3.04300000
   H    116.47700000    56.89100000    -4.61900000
   N    114.53000000    58.87000000    -4.21000000
   C    115.37000000    59.92000000    -4.74000000
   C    115.11000000    60.33000000    -6.19000000
   O    113.97000000    60.24000000    -6.65000000
   C    115.24000000    61.10000000    -3.78000000
   C    113.86000000    61.61000000    -3.39000000
   O    112.80000000    61.08000000    -3.79000000
   O    113.85000000    62.47000000    -2.48000000
   H    113.55000000    59.11000000    -4.24000000
   H    116.37000000    59.50000000    -4.60000000
   H    115.89000000    61.91000000    -4.08000000
   H    115.73000000    60.72000000    -2.88000000
   N    116.18000000    60.83000000    -6.81000000
   C    116.26000000    61.34000000    -8.16000000
   C    115.49000000    62.64000000    -8.32000000
   O    116.11000000    63.67000000    -8.58000000
   C    115.88000000    60.28000000    -9.19000000
   H    117.01000000    60.92000000    -6.24000000
   H    117.29000000    61.63000000    -8.37000000
   H    116.60000000    59.46000000    -9.13000000
   H    114.84000000    59.94000000    -9.12000000
   H    115.90000000    60.72000000   -10.18000000
   N    114.17000000    62.46000000    -8.43000000
   C    113.26000000    63.57000000    -8.64000000
   C    112.76000000    63.95000000    -7.25000000
   O    112.56000000    63.03000000    -6.46000000
   C    112.19000000    63.26000000    -9.68000000
   C    111.76000000    61.80000000    -9.74000000
   O    111.67000000    61.03000000    -8.75000000
   O    111.58000000    61.27000000   -10.86000000
   H    113.75000000    61.56000000    -8.24000000
   H    113.75000000    64.49000000    -8.96000000
   H    112.43000000    63.58000000   -10.69000000
   H    111.30000000    63.79000000    -9.36000000
   N    112.52000000    65.24000000    -6.96000000
   C    112.19000000    65.65000000    -5.62000000
   C    110.75000000    66.08000000    -5.36000000
   O    109.99000000    66.30000000    -6.29000000
   H    112.66000000    65.93000000    -7.68000000
   H    112.74000000    66.56000000    -5.39000000
   H    112.31000000    64.86000000    -4.88000000
   N    110.38000000    66.19000000    -4.08000000
   C    109.32000000    67.09000000    -3.69000000
   C    109.72000000    67.74000000    -2.37000000
   O    110.36000000    67.11000000    -1.53000000
   C    107.97000000    66.38000000    -3.66000000
   C    107.26000000    66.33000000    -5.00000000
   N    106.71000000    67.47000000    -5.42000000
   O    107.23000000    65.30000000    -5.67000000
   H    111.05000000    66.02000000    -3.34000000
   H    109.25000000    67.89000000    -4.43000000
   H    107.29000000    66.90000000    -2.98000000
   H    108.16000000    65.36000000    -3.30000000
   H    106.63000000    68.19000000    -4.72000000
   H    106.34000000    67.55000000    -6.36000000
   N    109.26000000    68.96000000    -2.11000000
   C    109.32000000    69.64000000    -0.83000000
   C    108.29000000    70.76000000    -0.79000000
   O    108.05000000    71.30000000    -1.87000000
   H    108.78000000    69.42000000    -2.88000000
   H    110.32000000    70.06000000    -0.71000000
   H    109.10000000    68.89000000    -0.07000000
   N    107.65000000    71.11000000     0.32000000
   C    108.06000000    70.67000000     1.64000000
   C    107.32000000    69.49000000     2.25000000
   O    107.72000000    69.14000000     3.35000000
   C    108.26000000    71.84000000     2.60000000
   C    109.27000000    72.91000000     2.20000000
   O    107.03000000    72.53000000     2.68000000
   H    106.97000000    71.84000000     0.19000000
   H    109.09000000    70.31000000     1.55000000
   H    108.51000000    71.39000000     3.56000000
   H    106.44000000    71.99000000     3.21000000
   H    109.32000000    73.72000000     2.93000000
   H    110.22000000    72.39000000     2.06000000
   H    109.00000000    73.32000000     1.24000000
   N    106.41000000    68.81000000     1.55000000
   C    105.60000000    67.71000000     2.04000000
   C    104.80000000    68.08000000     3.28000000
   O    105.33000000    68.19000000     4.38000000
   C    106.45000000    66.47000000     2.30000000
   C    107.48000000    66.21000000     1.20000000
   C    105.64000000    65.22000000     2.60000000
   C    106.99000000    66.20000000    -0.24000000
   H    106.28000000    69.10000000     0.58000000
   H    104.85000000    67.41000000     1.32000000
   H    107.04000000    66.75000000     3.17000000
   H    107.84000000    65.20000000     1.41000000
   H    108.39000000    66.82000000     1.26000000
   H    104.98000000    65.08000000     1.74000000
   H    106.24000000    64.33000000     2.79000000
   H    104.89000000    65.36000000     3.38000000
   H    107.74000000    65.74000000    -0.90000000
   H    106.01000000    65.71000000    -0.26000000
   H    106.78000000    67.22000000    -0.57000000
   N    103.48000000    68.31000000     3.21000000
   C    102.65000000    68.32000000     2.02000000
   C    102.37000000    66.87000000     1.66000000
   O    102.61000000    66.49000000     0.51000000
   C    101.32000000    69.06000000     2.06000000
   C    100.43000000    68.92000000     3.28000000
   O    100.73000000    68.20000000     4.26000000
   O     99.41000000    69.65000000     3.28000000
   H    103.00000000    68.57000000     4.06000000
   H    103.23000000    68.68000000     1.17000000
   H    100.67000000    68.79000000     1.22000000
   H    101.45000000    70.14000000     1.94000000
   N    101.85000000    66.08000000     2.60000000
   C    101.33000000    64.73000000     2.56000000
   C     99.81000000    64.82000000     2.46000000
   O     99.24000000    65.84000000     2.84000000
   C    101.84000000    63.99000000     3.78000000
   C    100.93000000    64.03000000     4.98000000
   C    101.23000000    64.90000000     6.04000000
   C     99.82000000    63.20000000     5.19000000
   C    100.50000000    64.92000000     7.23000000
   C     99.05000000    63.25000000     6.36000000
   C     99.33000000    64.16000000     7.39000000
   H    101.65000000    66.68000000     3.39000000
   H    101.75000000    64.26000000     1.67000000
   H    102.74000000    64.49000000     4.14000000
   H    102.06000000    62.93000000     3.64000000
   H    102.01000000    65.64000000     5.99000000
   H     99.69000000    62.36000000     4.52000000
   H    100.79000000    65.56000000     8.05000000
   H     98.23000000    62.56000000     6.47000000
   H     98.68000000    64.23000000     8.25000000
   N     99.11000000    63.78000000     2.00000000
   C     99.58000000    62.48000000     1.57000000
   C    100.25000000    62.62000000     0.21000000
   O    100.55000000    63.69000000    -0.32000000
   C     98.29000000    61.66000000     1.54000000
   C     97.28000000    62.60000000     0.90000000
   C     97.68000000    63.78000000     1.79000000
   H    100.24000000    61.98000000     2.28000000
   H     98.47000000    60.75000000     0.96000000
   H     98.07000000    61.45000000     2.59000000
   H     97.52000000    62.89000000    -0.13000000
   H     96.23000000    62.40000000     1.09000000
   H     97.27000000    64.72000000     1.44000000
   H     97.27000000    63.60000000     2.78000000
   N    100.56000000    61.45000000    -0.36000000
   C    101.10000000    61.26000000    -1.69000000
   C    102.46000000    60.61000000    -1.82000000
   O    102.85000000    60.17000000    -2.91000000
   C    100.07000000    60.50000000    -2.52000000
   C     98.69000000    61.16000000    -2.58000000
   C     98.76000000    62.54000000    -3.21000000
   O     99.48000000    62.71000000    -4.22000000
   O     98.09000000    63.45000000    -2.68000000
   H    100.34000000    60.53000000     0.00000000
   H    101.23000000    62.26000000    -2.11000000
   H     99.98000000    59.47000000    -2.17000000
   H    100.45000000    60.43000000    -3.54000000
   H     98.16000000    61.21000000    -1.63000000
   H     98.09000000    60.57000000    -3.26000000
   N    103.32000000    60.45000000    -0.81000000
   C    103.52000000    60.89000000     0.55000000
   H    104.23300000    61.71400000     0.56300000
   H    102.57100000    61.22500000     0.96700000
   H    103.90800000    60.06400000     1.14600000
   H    104.04000000    59.79000000    -1.08000000
  Ca    111.44500000    60.76000000    -6.20500000
   O    109.15500000    59.70000000    -6.80500000
   H    108.99500000    58.75000000    -6.82500000
   H    108.32500000    60.08000000    -7.08500000
   O    110.11500000    60.00000000    -3.92500000
   H    109.21500000    59.73000000    -3.79500000
   H    110.25500000    60.70000000    -3.29500000
   O    109.72500000    62.75000000    -6.60500000
   H    109.64500000    63.69000000    -6.41500000
   H    108.95500000    62.54000000    -7.12500000
   O    111.88500000    58.14000000    -6.80500000
   H    111.23500000    57.45000000    -6.66500000
   H    112.54500000    57.72000000    -7.35500000

Ca 1.00



