%chk=loop2.cluster76.chk
%nprocshared=20
%mem=10GB
%nosave
#b3lyp/svp scf=(tight,noincore,xqc) Test 
#IOP(5/87=12) Density=Current Pop=(MK,readradii) iop(6/33=2) iop(6/42=6)

loop2.cluster76 

   -2  1 
   C     84.55000000    74.09000000    24.74000000
   C     85.32000000    73.94000000    23.44000000
   O     85.22000000    74.84000000    22.60000000
   H     83.55300000    73.66500000    24.62200000
   H     85.07600000    73.56500000    25.53700000
   H     84.46600000    75.14700000    24.99300000
   N     85.98000000    72.82000000    23.14000000
   C     86.93000000    72.53000000    22.09000000
   C     88.35000000    72.94000000    22.48000000
   O     89.30000000    72.17000000    22.43000000
   C     86.60000000    71.06000000    21.85000000
   C     87.29000000    70.47000000    20.63000000
   O     87.34000000    69.23000000    20.66000000
   O     87.72000000    71.21000000    19.71000000
   H     85.79000000    72.06000000    23.78000000
   H     86.61000000    73.14000000    21.25000000
   H     85.52000000    70.98000000    21.74000000
   H     86.99000000    70.46000000    22.68000000
   N     88.54000000    74.23000000    22.77000000
   C     89.86000000    74.80000000    22.91000000
   C     89.81000000    76.04000000    23.79000000
   O     88.70000000    76.53000000    23.96000000
   C     90.40000000    75.18000000    21.54000000
   H     87.75000000    74.86000000    22.80000000
   H     90.60000000    74.11000000    23.33000000
   H     90.04000000    76.15000000    21.22000000
   H     91.49000000    75.32000000    21.54000000
   H     90.08000000    74.35000000    20.90000000
   N     90.90000000    76.71000000    24.18000000
   C     92.32000000    76.48000000    24.01000000
   C     92.95000000    75.27000000    24.69000000
   O     92.44000000    74.74000000    25.66000000
   C     93.01000000    77.70000000    24.63000000
   C     92.53000000    79.08000000    24.19000000
   O     93.23000000    79.77000000    23.43000000
   O     91.48000000    79.51000000    24.72000000
   H     90.66000000    77.56000000    24.67000000
   H     92.63000000    76.43000000    22.97000000
   H     94.10000000    77.72000000    24.60000000
   H     92.81000000    77.67000000    25.70000000
   N     94.15000000    74.85000000    24.26000000
   C     94.94000000    73.70000000    24.67000000
   C     94.12000000    72.43000000    24.80000000
   O     93.29000000    72.14000000    23.94000000
   H     94.42000000    75.26000000    23.38000000
   H     95.43000000    73.96000000    25.61000000
   H     95.74000000    73.58000000    23.94000000
   N     94.31000000    71.61000000    25.85000000
   C     95.28000000    71.68000000    26.92000000
   C     94.85000000    72.57000000    28.08000000
   O     95.64000000    72.77000000    29.00000000
   C     95.51000000    70.29000000    27.51000000
   C     95.89000000    69.17000000    26.56000000
   N     97.14000000    68.70000000    26.65000000
   O     95.04000000    68.78000000    25.75000000
   H     93.79000000    70.74000000    25.81000000
   H     96.25000000    72.00000000    26.55000000
   H     94.51000000    69.97000000    27.82000000
   H     96.15000000    70.24000000    28.39000000
   H     97.74000000    69.36000000    27.12000000
   H     97.54000000    68.07000000    25.97000000
   N     93.72000000    73.27000000    27.93000000
   C     93.25000000    74.21000000    28.92000000
   C     94.02000000    75.52000000    29.02000000
   O     94.16000000    76.09000000    30.10000000
   H     93.21000000    73.23000000    27.06000000
   H     93.20000000    73.72000000    29.89000000
   H     92.27000000    74.57000000    28.60000000
   N     94.55000000    76.02000000    27.90000000
   C     95.29000000    77.26000000    27.93000000
   C     94.43000000    78.51000000    27.82000000
   O     94.61000000    79.38000000    26.97000000
   C     96.31000000    77.33000000    26.79000000
   C     97.55000000    78.08000000    27.29000000
   O     96.86000000    76.04000000    26.63000000
   H     94.48000000    75.44000000    27.07000000
   H     95.72000000    77.40000000    28.92000000
   H     95.92000000    77.63000000    25.82000000
   H     97.18000000    76.00000000    25.73000000
   H     98.39000000    77.98000000    26.60000000
   H     97.29000000    79.14000000    27.23000000
   H     97.86000000    77.88000000    28.31000000
   N     93.35000000    78.53000000    28.59000000
   C     92.27000000    79.50000000    28.47000000
   C     92.49000000    80.74000000    29.32000000
   O     93.49000000    80.84000000    30.03000000
   C     90.96000000    78.75000000    28.70000000
   C     90.63000000    77.78000000    27.57000000
   C     90.84000000    78.13000000    30.09000000
   C     89.39000000    76.92000000    27.78000000
   H     93.36000000    77.79000000    29.28000000
   H     92.24000000    79.91000000    27.46000000
   H     90.25000000    79.57000000    28.64000000
   H     91.45000000    77.07000000    27.52000000
   H     90.57000000    78.31000000    26.62000000
   H     89.84000000    77.77000000    30.35000000
   H     91.46000000    77.24000000    30.11000000
   H     91.26000000    78.78000000    30.86000000
   H     89.36000000    76.30000000    28.68000000
   H     88.50000000    77.55000000    27.75000000
   H     89.37000000    76.24000000    26.93000000
   N     91.57000000    81.70000000    29.29000000
   C     91.84000000    83.00000000    29.87000000
   C     90.58000000    83.43000000    30.61000000
   O     89.46000000    83.18000000    30.17000000
   C     92.29000000    84.04000000    28.84000000
   C     91.29000000    84.31000000    27.72000000
   O     91.29000000    83.62000000    26.68000000
   O     90.48000000    85.24000000    27.88000000
   H     90.68000000    81.67000000    28.80000000
   H     92.63000000    82.89000000    30.61000000
   H     93.22000000    83.67000000    28.42000000
   H     92.52000000    84.92000000    29.45000000
   N     90.75000000    84.17000000    31.71000000
   C     89.76000000    84.70000000    32.63000000
   C     88.50000000    83.85000000    32.64000000
   O     88.51000000    82.68000000    33.01000000
   C     90.42000000    84.70000000    34.01000000
   C     89.62000000    85.37000000    35.10000000
   C     88.50000000    84.76000000    35.67000000
   C     89.98000000    86.65000000    35.53000000
   C     87.68000000    85.48000000    36.54000000
   C     89.19000000    87.39000000    36.42000000
   C     87.99000000    86.82000000    36.84000000
   H     91.67000000    84.34000000    32.09000000
   H     89.58000000    85.72000000    32.28000000
   H     91.37000000    85.22000000    33.87000000
   H     90.62000000    83.70000000    34.41000000
   H     88.20000000    83.77000000    35.35000000
   H     90.78000000    87.13000000    34.98000000
   H     86.73000000    85.04000000    36.82000000
   H     89.48000000    88.41000000    36.65000000
   H     87.39000000    87.36000000    37.56000000
   N     87.31000000    84.38000000    32.35000000
   C     86.05000000    83.67000000    32.48000000
   C     85.79000000    82.52000000    31.52000000
   O     84.78000000    81.84000000    31.62000000
   C     84.97000000    84.75000000    32.39000000
   C     85.70000000    85.94000000    33.02000000
   C     87.09000000    85.81000000    32.41000000
   H     86.01000000    83.22000000    33.47000000
   H     84.60000000    84.99000000    31.40000000
   H     84.08000000    84.44000000    32.94000000
   H     85.16000000    86.87000000    32.83000000
   H     85.65000000    85.78000000    34.10000000
   H     87.14000000    86.18000000    31.39000000
   H     87.72000000    86.43000000    33.06000000
   N     86.73000000    82.24000000    30.61000000
   C     86.64000000    81.01000000    29.84000000
   C     86.63000000    79.81000000    30.77000000
   O     86.04000000    78.82000000    30.34000000
   C     87.60000000    80.87000000    28.67000000
   C     87.36000000    81.96000000    27.63000000
   C     88.48000000    81.94000000    26.60000000
   O     89.56000000    81.32000000    26.73000000
   O     88.33000000    82.60000000    25.55000000
   H     87.56000000    82.81000000    30.54000000
   H     85.65000000    80.99000000    29.37000000
   H     87.24000000    79.94000000    28.24000000
   H     88.61000000    80.79000000    29.06000000
   H     87.40000000    82.97000000    28.04000000
   H     86.42000000    81.72000000    27.13000000
   N     87.35000000    79.80000000    31.89000000
   C     87.34000000    78.69000000    32.83000000
   H     86.64400000    78.90700000    33.64000000
   H     87.02600000    77.78100000    32.31700000
   H     88.34100000    78.55000000    33.23900000
   H     87.77000000    80.70000000    32.08000000
  Ca     91.01000000    81.99000000    24.74000000
   O     93.47000000    81.87000000    26.09000000
   H     94.20000000    81.29000000    26.32000000
   H     93.73000000    82.73000000    26.43000000
   O     89.95000000    83.83000000    23.25000000
   H     90.37000000    84.68000000    23.12000000
   H     89.44000000    83.69000000    22.45000000
   O     90.18000000    80.80000000    22.50000000
   H     89.84000000    81.30000000    21.76000000
   H     90.16000000    79.89000000    22.20000000

Ca 1.00



