%chk=loop2.cluster50.chk
%nprocshared=20
%mem=10GB
%nosave
#b3lyp/svp scf=(tight,noincore,xqc) Test 
#IOP(5/87=12) Density=Current Pop=(MK,readradii) iop(6/33=2) iop(6/42=6)

loop2.cluster50 

   -2  1 
   C     53.12000000    42.05000000    17.11000000
   C     54.51000000    41.51000000    16.78000000
   O     55.41000000    42.30000000    16.51000000
   H     52.40600000    41.22700000    17.12700000
   H     53.14000000    42.53300000    18.08700000
   H     52.82200000    42.77400000    16.35200000
   N     54.66000000    40.18000000    16.73000000
   C     55.82000000    39.64000000    16.07000000
   C     55.82000000    39.99000000    14.59000000
   O     54.91000000    39.56000000    13.89000000
   C     55.80000000    38.13000000    16.27000000
   C     56.99000000    37.42000000    15.65000000
   O     57.99000000    38.15000000    15.46000000
   O     56.89000000    36.18000000    15.54000000
   H     53.92000000    39.54000000    16.98000000
   H     56.77000000    40.02000000    16.46000000
   H     54.88000000    37.70000000    15.87000000
   H     55.86000000    37.86000000    17.32000000
   N     56.76000000    40.82000000    14.12000000
   C     56.71000000    41.36000000    12.78000000
   C     57.68000000    40.59000000    11.90000000
   O     57.63000000    40.78000000    10.68000000
   C     57.03000000    42.85000000    12.90000000
   H     57.47000000    41.14000000    14.76000000
   H     55.75000000    41.18000000    12.28000000
   H     56.75000000    43.26000000    11.93000000
   H     56.39000000    43.35000000    13.62000000
   H     58.10000000    42.92000000    13.10000000
   N     58.66000000    39.85000000    12.42000000
   C     59.51000000    39.03000000    11.58000000
   C     59.04000000    37.59000000    11.49000000
   O     59.54000000    36.84000000    10.65000000
   C     60.98000000    39.09000000    11.97000000
   C     61.36000000    38.67000000    13.38000000
   O     60.79000000    37.71000000    13.92000000
   O     62.12000000    39.41000000    14.05000000
   H     58.73000000    39.83000000    13.43000000
   H     59.47000000    39.42000000    10.56000000
   H     61.37000000    40.09000000    11.77000000
   H     61.53000000    38.51000000    11.23000000
   N     58.14000000    37.18000000    12.38000000
   C     57.49000000    35.88000000    12.38000000
   C     58.18000000    34.69000000    13.02000000
   O     57.73000000    33.56000000    12.87000000
   H     57.89000000    37.89000000    13.06000000
   H     57.13000000    35.56000000    11.40000000
   H     56.58000000    36.01000000    12.97000000
   N     59.26000000    34.95000000    13.78000000
   C     60.05000000    33.92000000    14.42000000
   C     59.57000000    33.30000000    15.73000000
   O     60.26000000    32.41000000    16.23000000
   C     61.49000000    34.41000000    14.51000000
   C     61.67000000    35.54000000    15.51000000
   N     62.90000000    35.75000000    15.97000000
   O     60.78000000    36.18000000    16.07000000
   H     59.50000000    35.90000000    13.99000000
   H     60.05000000    33.00000000    13.84000000
   H     61.81000000    34.75000000    13.52000000
   H     62.10000000    33.57000000    14.82000000
   H     63.62000000    35.13000000    15.61000000
   H     63.05000000    36.36000000    16.75000000
   N     58.42000000    33.75000000    16.24000000
   C     57.82000000    33.30000000    17.48000000
   C     58.34000000    33.97000000    18.75000000
   O     58.07000000    33.37000000    19.79000000
   H     58.01000000    34.60000000    15.89000000
   H     57.88000000    32.21000000    17.52000000
   H     56.75000000    33.50000000    17.38000000
   N     59.07000000    35.08000000    18.71000000
   C     59.34000000    35.83000000    19.92000000
   C     59.12000000    37.31000000    19.64000000
   O     59.21000000    37.71000000    18.48000000
   C     60.78000000    35.62000000    20.37000000
   C     60.69000000    34.34000000    21.20000000
   O     61.69000000    35.53000000    19.30000000
   H     59.46000000    35.42000000    17.84000000
   H     58.64000000    35.52000000    20.70000000
   H     61.00000000    36.39000000    21.10000000
   H     61.99000000    34.61000000    19.27000000
   H     59.94000000    34.39000000    21.99000000
   H     60.50000000    33.47000000    20.56000000
   H     61.63000000    34.07000000    21.68000000
   N     59.02000000    38.10000000    20.71000000
   C     59.19000000    39.54000000    20.64000000
   C     60.68000000    39.84000000    20.51000000
   O     61.46000000    39.31000000    21.29000000
   C     58.54000000    40.28000000    21.81000000
   C     57.17000000    39.68000000    22.08000000
   C     58.61000000    41.80000000    21.70000000
   C     56.24000000    40.50000000    22.97000000
   H     59.27000000    37.67000000    21.59000000
   H     58.72000000    40.00000000    19.77000000
   H     59.21000000    39.95000000    22.61000000
   H     57.25000000    38.72000000    22.61000000
   H     56.68000000    39.49000000    21.13000000
   H     58.40000000    42.22000000    22.69000000
   H     59.65000000    42.02000000    21.48000000
   H     57.91000000    42.19000000    20.96000000
   H     55.91000000    41.41000000    22.48000000
   H     55.34000000    39.93000000    23.22000000
   H     56.81000000    40.73000000    23.87000000
   N     61.10000000    40.82000000    19.71000000
   C     62.33000000    41.54000000    19.96000000
   C     62.20000000    43.05000000    20.16000000
   O     61.12000000    43.60000000    20.00000000
   C     63.35000000    41.20000000    18.88000000
   C     62.79000000    41.28000000    17.47000000
   O     62.82000000    42.38000000    16.87000000
   O     62.29000000    40.30000000    16.87000000
   H     60.45000000    41.30000000    19.10000000
   H     62.82000000    41.23000000    20.88000000
   H     63.76000000    40.20000000    19.01000000
   H     64.23000000    41.85000000    18.92000000
   N     63.30000000    43.74000000    20.46000000
   C     63.18000000    45.10000000    20.94000000
   C     62.76000000    46.14000000    19.91000000
   O     61.86000000    46.91000000    20.23000000
   C     64.46000000    45.49000000    21.68000000
   C     64.35000000    46.82000000    22.38000000
   C     65.11000000    47.86000000    21.84000000
   C     63.63000000    46.99000000    23.57000000
   C     65.12000000    49.10000000    22.48000000
   C     63.66000000    48.22000000    24.24000000
   C     64.47000000    49.23000000    23.72000000
   H     64.11000000    43.21000000    20.74000000
   H     62.33000000    45.06000000    21.62000000
   H     65.37000000    45.48000000    21.08000000
   H     64.67000000    44.78000000    22.48000000
   H     65.72000000    47.67000000    20.96000000
   H     62.98000000    46.21000000    23.94000000
   H     65.77000000    49.82000000    22.00000000
   H     63.00000000    48.36000000    25.09000000
   H     64.49000000    50.22000000    24.16000000
   N     63.28000000    46.12000000    18.68000000
   C     62.71000000    46.84000000    17.56000000
   C     61.23000000    46.67000000    17.28000000
   O     60.51000000    47.65000000    17.09000000
   C     63.52000000    46.46000000    16.32000000
   C     64.86000000    46.14000000    16.99000000
   C     64.45000000    45.38000000    18.24000000
   H     62.74000000    47.91000000    17.75000000
   H     63.14000000    45.53000000    15.90000000
   H     63.62000000    47.19000000    15.52000000
   H     65.44000000    45.45000000    16.37000000
   H     65.41000000    47.03000000    17.29000000
   H     64.25000000    44.34000000    17.97000000
   H     65.16000000    45.48000000    19.06000000
   N     60.70000000    45.47000000    17.52000000
   C     59.29000000    45.17000000    17.40000000
   C     58.45000000    45.76000000    18.53000000
   O     57.35000000    46.24000000    18.28000000
   C     59.08000000    43.66000000    17.47000000
   C     59.15000000    43.13000000    16.04000000
   C     59.30000000    41.61000000    15.98000000
   O     59.45000000    40.99000000    14.91000000
   O     59.19000000    40.87000000    16.98000000
   H     61.32000000    44.70000000    17.72000000
   H     58.91000000    45.59000000    16.48000000
   H     58.12000000    43.40000000    17.91000000
   H     59.87000000    43.29000000    18.14000000
   H     59.96000000    43.53000000    15.43000000
   H     58.22000000    43.47000000    15.60000000
   N     58.99000000    45.77000000    19.75000000
   C     58.51000000    46.46000000    20.94000000
   H     57.49000000    46.14300000    21.15600000
   H     59.15200000    46.21600000    21.78600000
   H     58.52700000    47.53600000    20.76800000
   H     59.86000000    45.26000000    19.80000000
  Ca     60.29000000    38.77000000    16.19000000
   O     62.12000000    37.78000000    18.05000000
   H     63.05000000    37.86000000    18.26000000
   H     61.88000000    36.93000000    18.41000000

Ca 1.00



