%chk=loop2.cluster80.chk
%nprocshared=20
%mem=10GB
%nosave
#b3lyp/svp scf=(tight,noincore,xqc) Test 
#IOP(5/87=12) Density=Current Pop=(MK,readradii) iop(6/33=2) iop(6/42=6)

loop2.cluster80 

   -2  1 
   C     82.20000000    86.52000000    41.97000000
   C     83.56000000    86.47000000    42.66000000
   O     83.85000000    87.33000000    43.49000000
   H     81.50500000    87.09700000    42.58000000
   H     82.30400000    86.99300000    40.99400000
   H     81.81800000    85.50700000    41.84500000
   N     84.38000000    85.45000000    42.39000000
   C     85.78000000    85.43000000    42.74000000
   C     85.97000000    84.68000000    44.05000000
   O     86.61000000    83.63000000    44.11000000
   C     86.59000000    84.99000000    41.52000000
   C     88.08000000    84.83000000    41.77000000
   O     88.67000000    83.82000000    41.32000000
   O     88.67000000    85.69000000    42.47000000
   H     84.05000000    84.72000000    41.77000000
   H     86.11000000    86.44000000    42.97000000
   H     86.35000000    85.68000000    40.71000000
   H     86.16000000    84.02000000    41.26000000
   N     85.36000000    85.19000000    45.12000000
   C     85.25000000    84.57000000    46.42000000
   C     83.80000000    84.22000000    46.74000000
   O     82.91000000    84.88000000    46.20000000
   C     85.70000000    85.53000000    47.52000000
   H     84.70000000    85.93000000    44.95000000
   H     85.82000000    83.66000000    46.56000000
   H     85.35000000    86.55000000    47.37000000
   H     85.35000000    85.19000000    48.49000000
   H     86.79000000    85.52000000    47.47000000
   N     83.40000000    83.23000000    47.54000000
   C     84.20000000    82.52000000    48.52000000
   C     84.22000000    81.03000000    48.19000000
   O     83.40000000    80.42000000    47.52000000
   C     83.57000000    82.73000000    49.90000000
   C     83.33000000    84.19000000    50.26000000
   O     83.93000000    84.74000000    51.21000000
   O     82.43000000    84.85000000    49.68000000
   H     82.40000000    83.14000000    47.60000000
   H     85.20000000    82.94000000    48.59000000
   H     84.11000000    82.16000000    50.66000000
   H     82.56000000    82.35000000    49.83000000
   N     85.07000000    80.31000000    48.93000000
   C     85.23000000    78.88000000    48.85000000
   C     85.85000000    78.53000000    47.50000000
   O     86.74000000    79.23000000    47.02000000
   H     85.86000000    80.81000000    49.31000000
   H     84.23000000    78.48000000    49.01000000
   H     85.90000000    78.66000000    49.68000000
   N     85.62000000    77.36000000    46.91000000
   C     84.90000000    76.19000000    47.38000000
   C     83.38000000    76.27000000    47.35000000
   O     82.74000000    75.28000000    47.70000000
   C     85.35000000    74.98000000    46.57000000
   C     86.84000000    74.83000000    46.35000000
   N     87.44000000    73.96000000    47.15000000
   O     87.49000000    75.48000000    45.53000000
   H     86.23000000    77.27000000    46.11000000
   H     85.27000000    75.96000000    48.38000000
   H     84.99000000    75.00000000    45.54000000
   H     85.00000000    74.02000000    46.96000000
   H     86.87000000    73.45000000    47.81000000
   H     88.42000000    73.76000000    47.00000000
   N     82.77000000    77.40000000    47.00000000
   C     81.33000000    77.57000000    46.99000000
   C     80.75000000    77.88000000    48.36000000
   O     79.71000000    77.37000000    48.75000000
   H     83.37000000    78.19000000    46.81000000
   H     80.83000000    76.74000000    46.49000000
   H     81.10000000    78.51000000    46.47000000
   N     81.46000000    78.72000000    49.12000000
   C     81.06000000    79.16000000    50.44000000
   C     80.45000000    80.55000000    50.36000000
   O     80.66000000    81.42000000    51.20000000
   C     82.13000000    79.01000000    51.52000000
   C     81.51000000    78.82000000    52.90000000
   O     82.92000000    77.86000000    51.31000000
   H     82.13000000    79.23000000    48.56000000
   H     80.31000000    78.48000000    50.84000000
   H     82.78000000    79.89000000    51.47000000
   H     83.80000000    78.10000000    51.60000000
   H     80.69000000    79.55000000    52.95000000
   H     81.23000000    77.79000000    53.10000000
   H     82.23000000    79.16000000    53.65000000
   N     79.60000000    80.77000000    49.35000000
   C     78.82000000    81.97000000    49.09000000
   C     77.75000000    82.30000000    50.12000000
   O     77.37000000    81.41000000    50.88000000
   C     78.25000000    81.85000000    47.68000000
   C     79.33000000    81.52000000    46.65000000
   C     77.15000000    80.80000000    47.65000000
   C     78.81000000    81.38000000    45.23000000
   H     79.62000000    80.06000000    48.63000000
   H     79.55000000    82.77000000    49.07000000
   H     77.86000000    82.82000000    47.39000000
   H     80.00000000    80.69000000    46.88000000
   H     80.02000000    82.36000000    46.58000000
   H     76.68000000    80.67000000    46.68000000
   H     77.58000000    79.85000000    47.98000000
   H     76.25000000    81.07000000    48.21000000
   H     79.58000000    81.61000000    44.49000000
   H     78.36000000    80.39000000    45.27000000
   H     77.95000000    81.99000000    44.96000000
   N     77.18000000    83.50000000    50.06000000
   C     75.89000000    83.93000000    50.58000000
   C     74.77000000    83.72000000    49.57000000
   O     75.00000000    83.59000000    48.37000000
   C     75.90000000    85.32000000    51.20000000
   C     76.41000000    86.45000000    50.32000000
   O     77.64000000    86.59000000    50.12000000
   O     75.55000000    87.22000000    49.85000000
   H     77.68000000    84.13000000    49.45000000
   H     75.81000000    83.26000000    51.43000000
   H     76.51000000    85.35000000    52.10000000
   H     74.91000000    85.61000000    51.55000000
   N     73.56000000    83.52000000    50.09000000
   C     72.32000000    83.33000000    49.36000000
   C     72.28000000    84.12000000    48.06000000
   O     71.95000000    83.61000000    46.99000000
   C     72.03000000    81.84000000    49.20000000
   C     70.56000000    81.54000000    49.04000000
   C     69.97000000    81.36000000    47.78000000
   C     69.81000000    81.12000000    50.15000000
   C     68.68000000    80.85000000    47.65000000
   C     68.50000000    80.65000000    50.06000000
   C     67.91000000    80.57000000    48.79000000
   H     73.43000000    83.61000000    51.09000000
   H     71.62000000    83.78000000    50.06000000
   H     72.41000000    81.30000000    50.06000000
   H     72.60000000    81.38000000    48.40000000
   H     70.50000000    81.54000000    46.85000000
   H     70.23000000    81.18000000    51.14000000
   H     68.34000000    80.62000000    46.65000000
   H     68.01000000    80.24000000    50.94000000
   H     66.94000000    80.12000000    48.65000000
   N     72.43000000    85.44000000    48.08000000
   C     72.22000000    86.18000000    46.85000000
   C     73.34000000    85.92000000    45.85000000
   O     73.12000000    86.23000000    44.68000000
   C     72.00000000    87.64000000    47.24000000
   C     72.34000000    87.71000000    48.73000000
   C     72.47000000    86.28000000    49.26000000
   H     71.27000000    85.81000000    46.46000000
   H     72.67000000    88.23000000    46.63000000
   H     70.97000000    87.99000000    47.14000000
   H     73.25000000    88.30000000    48.81000000
   H     71.55000000    88.24000000    49.25000000
   H     73.43000000    86.24000000    49.78000000
   H     71.63000000    86.10000000    49.92000000
   N     74.54000000    85.62000000    46.34000000
   C     75.73000000    85.45000000    45.53000000
   C     75.61000000    84.14000000    44.78000000
   O     75.98000000    84.22000000    43.61000000
   C     76.88000000    85.40000000    46.54000000
   C     78.29000000    85.44000000    45.97000000
   C     79.26000000    85.72000000    47.11000000
   O     79.60000000    84.78000000    47.86000000
   O     79.53000000    86.89000000    47.46000000
   H     74.57000000    85.42000000    47.33000000
   H     75.89000000    86.25000000    44.80000000
   H     76.73000000    84.48000000    47.12000000
   H     76.74000000    86.21000000    47.25000000
   H     78.32000000    86.26000000    45.25000000
   H     78.58000000    84.50000000    45.51000000
   N     74.93000000    83.08000000    45.23000000
   C     74.55000000    81.89000000    44.49000000
   H     73.64900000    82.09500000    43.91100000
   H     75.35800000    81.60800000    43.81500000
   H     74.35600000    81.07500000    45.18700000
   H     74.69000000    83.12000000    46.21000000
  Ca     80.17000000    86.12000000    49.97000000
   O     80.54000000    88.74000000    49.80000000
   H     80.02000000    89.32000000    50.35000000
   H     81.40000000    89.17000000    49.75000000
   O     79.95000000    84.01000000    51.46000000
   H     80.38000000    83.16000000    51.43000000
   H     79.90000000    84.23000000    52.39000000
   O     81.96000000    86.44000000    51.89000000
   H     82.25000000    86.76000000    52.75000000
   H     82.70000000    85.94000000    51.56000000

Ca 1.00



