%chk=loop2.cluster2.chk
%nprocshared=20
%mem=10GB
%nosave
#b3lyp/svp scf=(tight,noincore,xqc) Test 
#IOP(5/87=12) Density=Current Pop=(MK,readradii) iop(6/33=2) iop(6/42=6)

loop2.cluster2 

   -2  1 
   C     59.61000000    53.80000000    16.97000000
   C     60.63000000    53.91000000    15.85000000
   O     61.81000000    54.24000000    15.99000000
   H     58.67200000    53.41400000    16.57000000
   H     59.98300000    53.12100000    17.73700000
   H     59.44100000    54.78500000    17.40600000
   N     60.20000000    53.43000000    14.67000000
   C     61.15000000    52.93000000    13.70000000
   C     61.54000000    53.99000000    12.68000000
   O     60.76000000    54.87000000    12.30000000
   C     60.50000000    51.76000000    12.95000000
   C     61.41000000    51.17000000    11.89000000
   O     62.57000000    50.92000000    12.29000000
   O     61.10000000    51.26000000    10.68000000
   H     59.24000000    53.18000000    14.51000000
   H     62.03000000    52.50000000    14.16000000
   H     59.63000000    52.11000000    12.40000000
   H     60.21000000    50.99000000    13.67000000
   N     62.80000000    53.91000000    12.26000000
   C     63.38000000    54.77000000    11.25000000
   C     64.01000000    53.99000000    10.10000000
   O     64.45000000    54.67000000     9.18000000
   C     64.26000000    55.72000000    12.06000000
   H     63.34000000    53.25000000    12.79000000
   H     62.63000000    55.40000000    10.79000000
   H     64.86000000    56.49000000    11.57000000
   H     63.59000000    56.22000000    12.77000000
   H     64.89000000    55.11000000    12.70000000
   N     64.04000000    52.66000000    10.05000000
   C     64.75000000    51.91000000     9.04000000
   C     64.12000000    50.62000000     8.53000000
   O     64.63000000    49.93000000     7.65000000
   C     66.22000000    51.63000000     9.32000000
   C     66.42000000    51.08000000    10.73000000
   O     65.55000000    50.27000000    11.13000000
   O     67.34000000    51.53000000    11.45000000
   H     63.78000000    52.11000000    10.86000000
   H     64.90000000    52.53000000     8.15000000
   H     66.68000000    52.62000000     9.27000000
   H     66.66000000    50.98000000     8.57000000
   N     62.91000000    50.33000000     9.02000000
   C     62.12000000    49.14000000     8.78000000
   C     62.82000000    47.83000000     9.11000000
   O     62.35000000    46.74000000     8.80000000
   H     62.59000000    50.89000000     9.79000000
   H     61.84000000    49.21000000     7.72000000
   H     61.20000000    49.12000000     9.37000000
   N     64.01000000    47.89000000     9.72000000
   C     64.86000000    46.72000000     9.86000000
   C     64.39000000    45.51000000    10.66000000
   O     65.02000000    44.46000000    10.69000000
   C     66.28000000    47.12000000    10.24000000
   C     66.44000000    47.40000000    11.72000000
   N     67.67000000    47.37000000    12.23000000
   O     65.50000000    47.55000000    12.50000000
   H     64.31000000    48.82000000     9.94000000
   H     65.00000000    46.32000000     8.86000000
   H     66.56000000    48.02000000     9.69000000
   H     67.06000000    46.42000000     9.92000000
   H     68.48000000    47.44000000    11.62000000
   H     67.85000000    47.65000000    13.18000000
   N     63.25000000    45.67000000    11.33000000
   C     62.48000000    44.64000000    12.00000000
   C     62.81000000    44.54000000    13.48000000
   O     62.30000000    43.65000000    14.15000000
   H     62.82000000    46.59000000    11.31000000
   H     62.67000000    43.68000000    11.52000000
   H     61.48000000    45.07000000    12.00000000
   N     63.58000000    45.44000000    14.10000000
   C     64.07000000    45.58000000    15.45000000
   C     64.26000000    46.99000000    15.98000000
   O     64.39000000    47.91000000    15.18000000
   C     65.45000000    44.92000000    15.42000000
   C     65.39000000    43.46000000    14.99000000
   O     66.31000000    45.58000000    14.51000000
   H     63.91000000    46.12000000    13.43000000
   H     63.56000000    44.96000000    16.19000000
   H     65.92000000    45.07000000    16.39000000
   H     66.22000000    46.53000000    14.55000000
   H     65.31000000    43.27000000    13.92000000
   H     66.26000000    42.89000000    15.32000000
   H     64.53000000    43.01000000    15.48000000
   N     64.26000000    47.21000000    17.30000000
   C     64.67000000    48.50000000    17.82000000
   C     66.16000000    48.63000000    18.09000000
   O     66.77000000    47.81000000    18.77000000
   C     63.94000000    48.86000000    19.12000000
   C     62.47000000    49.11000000    18.80000000
   C     64.57000000    50.02000000    19.89000000
   C     61.62000000    49.05000000    20.07000000
   H     64.16000000    46.44000000    17.94000000
   H     64.28000000    49.32000000    17.21000000
   H     64.04000000    47.97000000    19.74000000
   H     62.11000000    48.40000000    18.05000000
   H     62.41000000    50.08000000    18.32000000
   H     64.43000000    50.95000000    19.34000000
   H     64.04000000    50.14000000    20.84000000
   H     65.60000000    49.81000000    20.17000000
   H     62.03000000    49.74000000    20.80000000
   H     60.62000000    49.39000000    19.78000000
   H     61.63000000    48.02000000    20.45000000
   N     66.85000000    49.56000000    17.43000000
   C     68.28000000    49.78000000    17.43000000
   C     68.72000000    50.64000000    18.61000000
   O     68.09000000    51.62000000    19.00000000
   C     68.79000000    50.28000000    16.08000000
   C     68.17000000    49.54000000    14.91000000
   O     66.98000000    49.69000000    14.56000000
   O     68.97000000    48.81000000    14.28000000
   H     66.35000000    50.26000000    16.90000000
   H     68.80000000    48.83000000    17.59000000
   H     69.85000000    50.03000000    16.15000000
   H     68.67000000    51.36000000    15.99000000
   N     69.88000000    50.34000000    19.20000000
   C     70.46000000    51.15000000    20.25000000
   C     70.41000000    52.64000000    19.91000000
   O     69.74000000    53.38000000    20.62000000
   C     71.88000000    50.67000000    20.55000000
   C     72.56000000    51.51000000    21.60000000
   C     73.84000000    52.02000000    21.35000000
   C     72.01000000    51.60000000    22.89000000
   C     74.55000000    52.66000000    22.38000000
   C     72.74000000    52.28000000    23.87000000
   C     73.99000000    52.87000000    23.64000000
   H     70.26000000    49.41000000    19.07000000
   H     69.90000000    51.08000000    21.18000000
   H     72.56000000    50.76000000    19.70000000
   H     71.93000000    49.59000000    20.70000000
   H     74.35000000    51.95000000    20.40000000
   H     71.08000000    51.10000000    23.09000000
   H     75.56000000    52.99000000    22.20000000
   H     72.33000000    52.27000000    24.87000000
   H     74.58000000    53.35000000    24.40000000
   N     70.89000000    53.19000000    18.79000000
   C     70.66000000    54.60000000    18.54000000
   C     69.25000000    55.07000000    18.21000000
   O     68.90000000    56.23000000    18.46000000
   C     71.70000000    54.95000000    17.48000000
   C     71.75000000    53.69000000    16.63000000
   C     71.49000000    52.56000000    17.63000000
   H     70.96000000    55.19000000    19.40000000
   H     71.31000000    55.81000000    16.92000000
   H     72.70000000    55.19000000    17.85000000
   H     70.98000000    53.78000000    15.86000000
   H     72.64000000    53.56000000    16.02000000
   H     70.98000000    51.73000000    17.13000000
   H     72.45000000    52.21000000    18.00000000
   N     68.38000000    54.11000000    17.91000000
   C     66.95000000    54.35000000    17.84000000
   C     66.30000000    54.52000000    19.21000000
   O     65.41000000    55.34000000    19.38000000
   C     66.32000000    53.33000000    16.90000000
   C     64.85000000    53.46000000    16.52000000
   C     64.60000000    52.45000000    15.41000000
   O     64.54000000    52.71000000    14.19000000
   O     64.38000000    51.27000000    15.76000000
   H     68.76000000    53.18000000    17.95000000
   H     66.89000000    55.32000000    17.35000000
   H     66.40000000    52.36000000    17.38000000
   H     66.91000000    53.32000000    15.98000000
   H     64.76000000    54.41000000    15.99000000
   H     64.16000000    53.37000000    17.36000000
   N     66.71000000    53.75000000    20.22000000
   C     66.23000000    53.68000000    21.59000000
   H     65.20400000    53.31300000    21.59600000
   H     66.86200000    53.00100000    22.16300000
   H     66.26300000    54.67300000    22.03800000
   H     67.46000000    53.11000000    19.99000000
  Ca     64.57000000    49.94000000    13.56000000
   O     62.15000000    50.19000000    15.02000000
   H     62.68000000    50.94000000    15.28000000
   H     61.30000000    50.35000000    15.41000000
   O     62.49000000    48.24000000    12.74000000
   H     62.27000000    49.13000000    12.49000000
   H     61.65000000    47.80000000    12.84000000

Ca 1.00



