%chk=CaMKII_loop3_44.0.chk
%nprocshared=48
%mem=10GB
%nosave
#b3lyp/svp scf=(tight,noincore) Test 
#IOP(5/87=12) Density=Current Pop=(MK,readradii) iop(6/33=2) iop(6/42=6)

CaMKII_loop3_44.0 

   0   1
   C     87.03000000    64.12000000    31.14000000
   C     86.68000000    64.23000000    32.62000000
   O     87.17000000    63.36000000    33.35000000
   H     88.06800000    63.80400000    31.03500000
   H     86.37800000    63.38700000    30.66500000
   H     86.89600000    65.09000000    30.66100000
   N     85.95000000    65.25000000    33.08000000
   C     85.35000000    65.30000000    34.39000000
   C     84.27000000    64.24000000    34.48000000
   O     83.22000000    64.21000000    33.85000000
   C     84.84000000    66.72000000    34.62000000
   C     84.25000000    66.88000000    36.02000000
   O     84.40000000    65.97000000    36.86000000
   O     83.65000000    67.95000000    36.27000000
   H     85.82000000    66.08000000    32.53000000
   H     86.14000000    65.06000000    35.11000000
   H     84.09000000    66.91000000    33.85000000
   H     85.68000000    67.41000000    34.56000000
   N     84.70000000    63.17000000    35.17000000
   C     84.02000000    61.89000000    35.15000000
   C     82.68000000    61.92000000    35.88000000
   O     81.70000000    61.51000000    35.28000000
   C     85.00000000    60.90000000    35.76000000
   C     84.59000000    59.44000000    35.91000000
   C     85.62000000    58.58000000    36.64000000
   C     85.27000000    57.10000000    36.48000000
   N     86.13000000    56.25000000    37.31000000
   H     85.50000000    63.22000000    35.78000000
   H     83.75000000    61.55000000    34.15000000
   H     85.20000000    61.28000000    36.76000000
   H     85.96000000    60.89000000    35.23000000
   H     84.45000000    59.00000000    34.93000000
   H     83.62000000    59.23000000    36.35000000
   H     85.56000000    58.92000000    37.67000000
   H     86.63000000    58.80000000    36.29000000
   H     85.32000000    56.77000000    35.44000000
   H     84.20000000    56.97000000    36.66000000
   H     85.94000000    56.57000000    38.25000000
   H     85.83000000    55.28000000    37.27000000
   H     87.11000000    56.31000000    37.07000000
   N     82.71000000    62.45000000    37.11000000
   C     81.50000000    62.73000000    37.86000000
   C     80.88000000    64.10000000    37.61000000
   O     79.78000000    64.35000000    38.12000000
   C     81.79000000    62.70000000    39.35000000
   C     83.00000000    63.46000000    39.89000000
   O     83.43000000    64.37000000    39.15000000
   O     83.44000000    63.14000000    41.01000000
   H     83.57000000    62.81000000    37.50000000
   H     80.77000000    61.99000000    37.56000000
   H     81.87000000    61.66000000    39.70000000
   H     80.91000000    63.03000000    39.90000000
   N     81.47000000    64.94000000    36.76000000
   C     80.91000000    66.22000000    36.36000000
   C     80.91000000    67.21000000    37.51000000
   O     80.20000000    68.21000000    37.40000000
   H     82.33000000    64.57000000    36.37000000
   H     79.85000000    66.05000000    36.20000000
   H     81.48000000    66.66000000    35.54000000
   N     81.67000000    66.96000000    38.59000000
   C     81.61000000    67.82000000    39.75000000
   C     82.19000000    69.22000000    39.58000000
   O     82.23000000    69.95000000    40.57000000
   C     82.28000000    67.22000000    40.98000000
   C     83.79000000    67.41000000    41.06000000
   N     84.32000000    67.95000000    42.16000000
   O     84.44000000    67.02000000    40.10000000
   H     82.05000000    66.03000000    38.62000000
   H     80.58000000    67.95000000    40.08000000
   H     81.99000000    66.17000000    41.00000000
   H     81.83000000    67.81000000    41.78000000
   H     83.74000000    68.39000000    42.85000000
   H     85.33000000    67.99000000    42.18000000
   N     82.60000000    69.65000000    38.38000000
   C     83.18000000    70.90000000    37.95000000
   C     84.67000000    70.88000000    37.64000000
   O     85.13000000    71.74000000    36.89000000
   H     82.64000000    68.96000000    37.64000000
   H     83.07000000    71.77000000    38.59000000
   H     82.73000000    71.13000000    36.99000000
   N     85.42000000    69.84000000    38.01000000
   C     86.87000000    69.75000000    38.04000000
   C     87.38000000    68.47000000    37.39000000
   O     86.78000000    67.41000000    37.56000000
   C     87.47000000    69.88000000    39.43000000
   C     86.91000000    70.98000000    40.30000000
   C     86.40000000    72.19000000    39.82000000
   C     86.83000000    70.76000000    41.69000000
   C     85.82000000    73.19000000    40.62000000
   C     86.24000000    71.72000000    42.52000000
   C     85.70000000    72.91000000    42.00000000
   O     85.12000000    73.84000000    42.81000000
   H     84.84000000    69.19000000    38.54000000
   H     87.24000000    70.60000000    37.45000000
   H     88.53000000    70.14000000    39.43000000
   H     87.37000000    68.95000000    39.99000000
   H     86.48000000    72.36000000    38.76000000
   H     87.08000000    69.80000000    42.10000000
   H     85.38000000    74.08000000    40.19000000
   H     86.17000000    71.48000000    43.57000000
   H     85.05000000    73.55000000    43.72000000
   N     88.60000000    68.47000000    36.84000000
   C     89.26000000    67.29000000    36.34000000
   C     90.43000000    66.89000000    37.23000000
   O     91.16000000    67.79000000    37.65000000
   C     89.75000000    67.40000000    34.89000000
   C     88.56000000    67.79000000    34.01000000
   C     90.47000000    66.13000000    34.46000000
   C     88.85000000    68.25000000    32.59000000
   H     89.07000000    69.32000000    36.57000000
   H     88.50000000    66.51000000    36.31000000
   H     90.52000000    68.17000000    34.88000000
   H     87.96000000    68.50000000    34.59000000
   H     88.01000000    66.86000000    34.02000000
   H     89.80000000    65.29000000    34.68000000
   H     90.67000000    66.03000000    33.40000000
   H     91.38000000    66.02000000    35.05000000
   H     89.56000000    67.51000000    32.23000000
   H     87.92000000    68.23000000    32.01000000
   H     89.30000000    69.25000000    32.61000000
   N     90.68000000    65.60000000    37.45000000
   C     91.72000000    65.26000000    38.39000000
   C     92.49000000    64.11000000    37.75000000
   O     92.08000000    63.61000000    36.71000000
   C     91.06000000    64.76000000    39.67000000
   O     90.35000000    63.57000000    39.42000000
   H     90.13000000    64.86000000    37.03000000
   H     92.39000000    66.09000000    38.62000000
   H     90.42000000    65.58000000    40.02000000
   H     91.83000000    64.63000000    40.43000000
   H     89.57000000    63.80000000    38.91000000
   N     93.71000000    63.84000000    38.24000000
   C     94.68000000    62.98000000    37.60000000
   C     94.12000000    61.57000000    37.46000000
   O     94.35000000    60.93000000    36.44000000
   C     95.95000000    63.04000000    38.44000000
   H     93.95000000    64.37000000    39.06000000
   H     94.91000000    63.28000000    36.57000000
   H     95.85000000    62.72000000    39.48000000
   H     96.79000000    62.53000000    37.97000000
   H     96.24000000    64.09000000    38.45000000
   N     93.30000000    61.09000000    38.39000000
   C     92.77000000    59.74000000    38.33000000
   C     91.68000000    59.49000000    37.30000000
   O     91.70000000    58.51000000    36.56000000
   C     92.28000000    59.52000000    39.76000000
   H     93.13000000    61.63000000    39.23000000
   H     93.56000000    59.00000000    38.18000000
   H     93.01000000    59.50000000    40.57000000
   H     91.45000000    60.19000000    39.96000000
   H     91.83000000    58.53000000    39.72000000
   N     90.89000000    60.53000000    37.06000000
   C     89.90000000    60.52000000    35.99000000
   C     90.61000000    60.72000000    34.66000000
   O     90.11000000    60.27000000    33.64000000
   C     88.90000000    61.65000000    36.21000000
   C     88.07000000    61.75000000    37.49000000
   C     87.45000000    63.13000000    37.64000000
   O     88.10000000    64.07000000    38.14000000
   O     86.22000000    63.28000000    37.46000000
   H     91.11000000    61.44000000    37.45000000
   H     89.41000000    59.55000000    35.92000000
   H     88.20000000    61.54000000    35.39000000
   H     89.37000000    62.62000000    36.04000000
   H     88.67000000    61.48000000    38.36000000
   H     87.31000000    60.98000000    37.37000000
   N     91.74000000    61.44000000    34.58000000
   C     92.59000000    61.69000000    33.44000000
   H     93.56200000    61.22600000    33.60400000
   H     92.13200000    61.26800000    32.54500000
   H     92.71800000    62.76500000    33.31000000
   H     91.99000000    61.83000000    35.48000000
  Ca     85.81000000    65.31000000    38.92000000
   O     87.40000000    66.54000000    40.55000000
   H     88.34000000    66.71000000    40.61000000
   H     87.09000000    66.57000000    41.46000000

Ca 1.70



