%chk=CaMKII_loop3_60.0.chk
%nprocshared=48
%mem=10GB
%nosave
#b3lyp/svp scf=(tight,noincore) Test 
#IOP(5/87=12) Density=Current Pop=(MK,readradii) iop(6/33=2) iop(6/42=6)

CaMKII_loop3_60.0 

   0   1
   C     81.76000000    46.42000000    37.20000000
   C     81.00000000    45.80000000    38.36000000
   O     81.56000000    44.92000000    39.02000000
   H     82.75500000    45.97800000    37.14000000
   H     81.22300000    46.23100000    36.27100000
   H     81.84900000    47.49500000    37.35700000
   N     79.74000000    46.20000000    38.54000000
   C     78.88000000    45.78000000    39.63000000
   C     78.08000000    44.56000000    39.22000000
   O     76.87000000    44.67000000    39.03000000
   C     78.06000000    46.97000000    40.14000000
   C     77.30000000    46.84000000    41.45000000
   O     77.58000000    45.86000000    42.18000000
   O     76.42000000    47.63000000    41.84000000
   H     79.45000000    46.99000000    37.98000000
   H     79.54000000    45.46000000    40.44000000
   H     77.40000000    47.27000000    39.33000000
   H     78.71000000    47.83000000    40.33000000
   N     78.81000000    43.47000000    38.99000000
   C     78.18000000    42.24000000    38.53000000
   C     77.10000000    41.63000000    39.41000000
   O     76.22000000    40.95000000    38.88000000
   C     79.29000000    41.23000000    38.25000000
   C     80.14000000    41.61000000    37.04000000
   C     80.93000000    40.36000000    36.66000000
   C     81.84000000    40.48000000    35.44000000
   N     82.73000000    41.64000000    35.56000000
   H     79.81000000    43.47000000    39.12000000
   H     77.68000000    42.49000000    37.59000000
   H     78.79000000    40.28000000    38.09000000
   H     80.02000000    41.14000000    39.05000000
   H     80.73000000    42.46000000    37.38000000
   H     79.48000000    41.89000000    36.21000000
   H     80.25000000    39.52000000    36.48000000
   H     81.54000000    39.99000000    37.48000000
   H     81.33000000    40.50000000    34.48000000
   H     82.50000000    39.61000000    35.51000000
   H     82.31000000    42.53000000    35.31000000
   H     82.99000000    41.72000000    36.54000000
   H     83.56000000    41.40000000    35.03000000
   N     77.12000000    41.80000000    40.74000000
   C     76.14000000    41.35000000    41.71000000
   C     75.01000000    42.36000000    41.92000000
   O     73.92000000    42.02000000    42.36000000
   C     76.83000000    41.19000000    43.05000000
   C     77.60000000    42.43000000    43.47000000
   O     77.25000000    43.13000000    44.45000000
   O     78.56000000    42.84000000    42.79000000
   H     77.87000000    42.33000000    41.15000000
   H     75.72000000    40.39000000    41.41000000
   H     77.58000000    40.41000000    42.91000000
   H     76.05000000    41.11000000    43.81000000
   N     75.30000000    43.59000000    41.50000000
   C     74.31000000    44.64000000    41.41000000
   C     73.94000000    45.44000000    42.66000000
   O     72.87000000    46.03000000    42.61000000
   H     76.28000000    43.72000000    41.29000000
   H     73.39000000    44.23000000    40.98000000
   H     74.69000000    45.31000000    40.65000000
   N     74.68000000    45.46000000    43.77000000
   C     74.24000000    46.10000000    44.99000000
   C     74.27000000    47.62000000    45.01000000
   O     73.91000000    48.23000000    46.02000000
   C     75.10000000    45.55000000    46.13000000
   C     76.58000000    45.89000000    46.20000000
   N     77.37000000    45.63000000    47.24000000
   O     77.18000000    46.42000000    45.27000000
   H     75.61000000    45.09000000    43.63000000
   H     73.19000000    45.86000000    45.14000000
   H     75.03000000    44.46000000    46.05000000
   H     74.64000000    45.85000000    47.07000000
   H     77.05000000    45.44000000    48.18000000
   H     78.29000000    46.02000000    47.09000000
   N     74.81000000    48.29000000    43.99000000
   C     75.01000000    49.71000000    43.83000000
   C     76.41000000    50.24000000    44.09000000
   O     76.65000000    51.44000000    43.94000000
   H     75.29000000    47.83000000    43.23000000
   H     74.32000000    50.34000000    44.39000000
   H     74.91000000    49.97000000    42.77000000
   N     77.32000000    49.30000000    44.34000000
   C     78.67000000    49.60000000    44.77000000
   C     79.70000000    48.88000000    43.92000000
   O     79.51000000    47.68000000    43.68000000
   C     78.80000000    49.21000000    46.24000000
   C     77.84000000    49.94000000    47.15000000
   C     78.03000000    51.31000000    47.36000000
   C     76.73000000    49.27000000    47.68000000
   C     77.20000000    52.01000000    48.24000000
   C     75.96000000    49.94000000    48.63000000
   C     76.18000000    51.31000000    48.91000000
   O     75.40000000    51.99000000    49.80000000
   H     77.17000000    48.32000000    44.12000000
   H     78.75000000    50.68000000    44.67000000
   H     79.81000000    49.29000000    46.63000000
   H     78.63000000    48.14000000    46.39000000
   H     78.82000000    51.86000000    46.88000000
   H     76.56000000    48.28000000    47.27000000
   H     77.28000000    53.04000000    48.55000000
   H     75.04000000    49.48000000    48.97000000
   H     74.67000000    51.41000000    50.02000000
   N     80.80000000    49.56000000    43.56000000
   C     82.03000000    48.97000000    43.09000000
   C     83.07000000    48.97000000    44.20000000
   O     83.31000000    50.02000000    44.80000000
   C     82.51000000    49.74000000    41.86000000
   C     81.49000000    49.67000000    40.73000000
   C     83.91000000    49.33000000    41.41000000
   C     81.58000000    50.57000000    39.50000000
   H     80.85000000    50.52000000    43.85000000
   H     81.83000000    47.96000000    42.74000000
   H     82.66000000    50.77000000    42.18000000
   H     80.48000000    49.80000000    41.14000000
   H     81.54000000    48.66000000    40.32000000
   H     84.19000000    49.75000000    40.44000000
   H     84.62000000    49.56000000    42.20000000
   H     83.77000000    48.27000000    41.20000000
   H     80.76000000    50.17000000    38.90000000
   H     81.51000000    51.61000000    39.79000000
   H     82.49000000    50.33000000    38.94000000
   N     83.89000000    47.92000000    44.18000000
   C     85.13000000    47.83000000    44.93000000
   C     86.35000000    47.67000000    44.04000000
   O     86.27000000    47.72000000    42.81000000
   C     84.90000000    46.75000000    45.98000000
   O     84.79000000    45.46000000    45.42000000
   H     83.55000000    47.13000000    43.65000000
   H     85.41000000    48.75000000    45.46000000
   H     83.97000000    46.97000000    46.50000000
   H     85.75000000    46.80000000    46.66000000
   H     83.85000000    45.41000000    45.21000000
   N     87.48000000    47.40000000    44.68000000
   C     88.74000000    47.16000000    44.00000000
   C     88.87000000    45.81000000    43.30000000
   O     89.58000000    45.79000000    42.30000000
   C     89.90000000    47.46000000    44.95000000
   H     87.45000000    47.41000000    45.69000000
   H     88.74000000    47.93000000    43.23000000
   H     89.86000000    46.70000000    45.74000000
   H     90.89000000    47.37000000    44.51000000
   H     89.67000000    48.46000000    45.31000000
   N     88.29000000    44.75000000    43.86000000
   C     88.47000000    43.43000000    43.28000000
   C     87.45000000    43.37000000    42.15000000
   O     87.75000000    42.74000000    41.14000000
   C     88.40000000    42.41000000    44.42000000
   H     87.78000000    44.87000000    44.73000000
   H     89.45000000    43.38000000    42.81000000
   H     87.35000000    42.37000000    44.71000000
   H     88.71000000    41.43000000    44.05000000
   H     89.03000000    42.64000000    45.28000000
   N     86.35000000    44.13000000    42.16000000
   C     85.45000000    44.34000000    41.04000000
   C     86.14000000    45.14000000    39.94000000
   O     86.19000000    44.73000000    38.78000000
   C     84.15000000    44.95000000    41.54000000
   C     83.46000000    44.09000000    42.59000000
   C     82.23000000    44.78000000    43.18000000
   O     82.26000000    45.49000000    44.21000000
   O     81.12000000    44.69000000    42.61000000
   H     86.09000000    44.50000000    43.06000000
   H     85.30000000    43.32000000    40.67000000
   H     83.52000000    44.95000000    40.65000000
   H     84.31000000    45.96000000    41.89000000
   H     84.16000000    43.77000000    43.36000000
   H     83.09000000    43.22000000    42.06000000
   N     86.71000000    46.28000000    40.33000000
   C     87.35000000    47.13000000    39.34000000
   H     88.35100000    46.75300000    39.13100000
   H     86.76200000    47.12600000    38.42200000
   H     87.41900000    48.14800000    39.72400000
   H     86.67000000    46.63000000    41.28000000
  Ca     79.11000000    45.01000000    44.04000000
   O     80.45000000    45.80000000    46.19000000
   H     80.93000000    46.55000000    46.52000000
   H     81.13000000    45.16000000    45.98000000

Ca 1.70



