%chk=CaMKII_loop3_34.0.chk
%nprocshared=48
%mem=10GB
%nosave
#b3lyp/svp scf=(tight,noincore) Test 
#IOP(5/87=12) Density=Current Pop=(MK,readradii) iop(6/33=2) iop(6/42=6)

CaMKII_loop3_34.0 

   0   1
   C     82.50000000    55.49000000    16.74000000
   C     82.63000000    54.27000000    15.83000000
   O     83.68000000    54.21000000    15.20000000
   H     81.46000000    55.60600000    17.04500000
   H     83.12400000    55.35300000    17.62300000
   H     82.82200000    56.38100000    16.20200000
   N     81.62000000    53.40000000    15.81000000
   C     81.76000000    52.20000000    15.00000000
   C     81.63000000    52.51000000    13.52000000
   O     80.54000000    52.68000000    12.98000000
   C     80.73000000    51.18000000    15.47000000
   C     80.78000000    49.82000000    14.79000000
   O     79.83000000    49.05000000    15.07000000
   O     81.69000000    49.37000000    14.05000000
   H     80.79000000    53.37000000    16.38000000
   H     82.72000000    51.70000000    15.08000000
   H     79.73000000    51.61000000    15.44000000
   H     80.98000000    50.94000000    16.51000000
   N     82.77000000    52.53000000    12.82000000
   C     82.98000000    52.87000000    11.43000000
   C     82.31000000    51.87000000    10.51000000
   O     81.84000000    52.28000000     9.44000000
   C     84.44000000    53.15000000    11.09000000
   C     84.63000000    53.89000000     9.77000000
   C     86.02000000    54.50000000     9.63000000
   C     86.07000000    55.02000000     8.19000000
   N     87.24000000    55.89000000     8.02000000
   H     83.60000000    52.34000000    13.36000000
   H     82.39000000    53.78000000    11.28000000
   H     84.97000000    52.20000000    10.96000000
   H     84.72000000    53.77000000    11.94000000
   H     84.00000000    54.78000000     9.81000000
   H     84.28000000    53.41000000     8.86000000
   H     86.79000000    53.75000000     9.74000000
   H     86.14000000    55.35000000    10.30000000
   H     85.13000000    55.57000000     8.08000000
   H     85.96000000    54.29000000     7.39000000
   H     88.08000000    55.45000000     8.39000000
   H     87.33000000    56.20000000     7.07000000
   H     87.24000000    56.75000000     8.56000000
   N     82.23000000    50.57000000    10.84000000
   C     81.69000000    49.57000000     9.95000000
   C     80.39000000    49.00000000    10.50000000
   O     79.82000000    48.13000000     9.86000000
   C     82.71000000    48.51000000     9.54000000
   C     83.42000000    47.83000000    10.70000000
   O     84.50000000    47.27000000    10.43000000
   O     82.85000000    47.82000000    11.82000000
   H     82.79000000    50.31000000    11.64000000
   H     81.38000000    49.99000000     8.99000000
   H     83.51000000    48.99000000     8.98000000
   H     82.30000000    47.80000000     8.83000000
   N     79.92000000    49.39000000    11.69000000
   C     78.68000000    48.97000000    12.31000000
   C     78.57000000    47.53000000    12.81000000
   O     77.46000000    47.00000000    12.78000000
   H     80.56000000    49.86000000    12.31000000
   H     77.89000000    49.22000000    11.60000000
   H     78.49000000    49.48000000    13.25000000
   N     79.72000000    46.98000000    13.21000000
   C     79.82000000    45.57000000    13.50000000
   C     79.56000000    45.25000000    14.97000000
   O     79.58000000    44.07000000    15.32000000
   C     81.08000000    44.91000000    12.95000000
   C     82.27000000    44.94000000    13.89000000
   N     82.94000000    43.84000000    14.23000000
   O     82.73000000    45.97000000    14.38000000
   H     80.53000000    47.58000000    13.14000000
   H     78.95000000    45.12000000    13.01000000
   H     81.36000000    45.32000000    11.98000000
   H     80.81000000    43.86000000    12.87000000
   H     82.68000000    43.03000000    13.68000000
   H     83.80000000    43.95000000    14.73000000
   N     79.44000000    46.27000000    15.82000000
   C     79.28000000    46.11000000    17.25000000
   C     80.58000000    46.28000000    18.01000000
   O     80.61000000    46.00000000    19.21000000
   H     79.27000000    47.18000000    15.40000000
   H     78.83000000    45.16000000    17.56000000
   H     78.59000000    46.88000000    17.59000000
   N     81.64000000    46.77000000    17.38000000
   C     82.92000000    47.03000000    18.01000000
   C     83.63000000    48.32000000    17.62000000
   O     83.41000000    48.83000000    16.52000000
   C     83.84000000    45.85000000    17.70000000
   C     83.45000000    44.51000000    18.27000000
   C     84.11000000    43.94000000    19.37000000
   C     82.45000000    43.72000000    17.69000000
   C     83.74000000    42.72000000    19.94000000
   C     81.98000000    42.52000000    18.25000000
   C     82.65000000    42.03000000    19.39000000
   O     82.18000000    40.89000000    19.98000000
   H     81.45000000    47.05000000    16.43000000
   H     82.79000000    47.10000000    19.09000000
   H     84.80000000    46.05000000    18.18000000
   H     83.89000000    45.96000000    16.62000000
   H     84.91000000    44.52000000    19.80000000
   H     81.94000000    44.03000000    16.79000000
   H     84.25000000    42.26000000    20.78000000
   H     81.22000000    41.94000000    17.76000000
   H     81.29000000    40.69000000    19.68000000
   N     84.45000000    48.94000000    18.47000000
   C     85.35000000    50.01000000    18.07000000
   C     86.82000000    49.64000000    17.94000000
   O     87.44000000    49.18000000    18.90000000
   C     85.22000000    51.05000000    19.17000000
   C     83.81000000    51.58000000    19.43000000
   C     86.11000000    52.24000000    18.81000000
   C     83.62000000    52.17000000    20.82000000
   H     84.40000000    48.65000000    19.43000000
   H     84.99000000    50.48000000    17.16000000
   H     85.65000000    50.59000000    20.06000000
   H     83.06000000    50.80000000    19.31000000
   H     83.63000000    52.28000000    18.61000000
   H     87.16000000    52.04000000    19.02000000
   H     85.94000000    52.40000000    17.74000000
   H     85.94000000    53.17000000    19.35000000
   H     82.56000000    52.36000000    20.97000000
   H     83.99000000    51.49000000    21.59000000
   H     84.29000000    53.01000000    20.95000000
   N     87.42000000    49.85000000    16.77000000
   C     88.85000000    49.81000000    16.55000000
   C     89.55000000    51.15000000    16.73000000
   O     88.99000000    52.25000000    16.75000000
   C     89.17000000    49.13000000    15.22000000
   O     88.59000000    47.84000000    15.22000000
   H     86.80000000    50.12000000    16.02000000
   H     89.30000000    49.15000000    17.29000000
   H     90.25000000    49.00000000    15.21000000
   H     88.79000000    49.74000000    14.41000000
   H     89.08000000    47.25000000    14.66000000
   N     90.87000000    51.13000000    16.89000000
   C     91.60000000    52.37000000    17.05000000
   C     91.49000000    53.33000000    15.87000000
   O     91.40000000    54.54000000    16.02000000
   C     93.07000000    52.10000000    17.36000000
   H     91.42000000    50.28000000    16.88000000
   H     91.19000000    52.91000000    17.90000000
   H     93.23000000    51.56000000    18.29000000
   H     93.61000000    51.56000000    16.58000000
   H     93.70000000    52.99000000    17.46000000
   N     91.50000000    52.77000000    14.66000000
   C     91.30000000    53.46000000    13.40000000
   C     89.90000000    54.06000000    13.31000000
   O     89.62000000    55.01000000    12.58000000
   C     91.52000000    52.44000000    12.29000000
   H     91.69000000    51.78000000    14.64000000
   H     92.00000000    54.29000000    13.27000000
   H     91.32000000    52.98000000    11.37000000
   H     92.56000000    52.11000000    12.34000000
   H     90.77000000    51.65000000    12.34000000
   N     88.92000000    53.59000000    14.09000000
   C     87.57000000    54.11000000    14.06000000
   C     87.39000000    55.23000000    15.07000000
   O     86.85000000    56.28000000    14.72000000
   C     86.57000000    52.98000000    14.27000000
   C     86.84000000    51.78000000    13.36000000
   C     85.77000000    50.73000000    13.62000000
   O     84.96000000    50.32000000    12.76000000
   O     85.59000000    50.28000000    14.78000000
   H     89.12000000    53.00000000    14.88000000
   H     87.29000000    54.61000000    13.13000000
   H     85.55000000    53.34000000    14.16000000
   H     86.57000000    52.63000000    15.30000000
   H     87.83000000    51.41000000    13.62000000
   H     86.91000000    52.06000000    12.31000000
   N     88.06000000    55.09000000    16.22000000
   C     88.14000000    56.10000000    17.26000000
   H     88.61000000    56.99800000    16.85800000
   H     87.13700000    56.34200000    17.61100000
   H     88.73400000    55.72000000    18.09100000
   H     88.58000000    54.24000000    16.37000000
  Ca     83.96000000    48.24000000    14.04000000
   O     85.78000000    47.08000000    15.54000000
   H     85.97000000    46.18000000    15.77000000
   H     86.63000000    47.51000000    15.52000000

Ca 1.70



