%chk=CaMKII_loop3_39.0.chk
%nprocshared=48
%mem=10GB
%nosave
#b3lyp/svp scf=(tight,noincore) Test 
#IOP(5/87=12) Density=Current Pop=(MK,readradii) iop(6/33=2) iop(6/42=6)

CaMKII_loop3_39.0 

   0   1
   C     66.20000000    46.17000000    24.85000000
   C     65.05000000    45.26000000    25.22000000
   O     65.27000000    44.07000000    25.43000000
   H     67.06700000    45.56700000    24.58100000
   H     65.91300000    46.79200000    24.00200000
   H     66.44900000    46.80500000    25.70000000
   N     63.80000000    45.73000000    25.25000000
   C     62.69000000    44.85000000    25.58000000
   C     62.51000000    43.72000000    24.58000000
   O     62.08000000    44.03000000    23.47000000
   C     61.47000000    45.73000000    25.80000000
   C     60.25000000    44.89000000    26.16000000
   O     60.34000000    43.73000000    26.62000000
   O     59.21000000    45.53000000    25.89000000
   H     63.60000000    46.64000000    24.86000000
   H     62.87000000    44.39000000    26.55000000
   H     61.28000000    46.35000000    24.92000000
   H     61.70000000    46.42000000    26.61000000
   N     62.90000000    42.48000000    24.88000000
   C     63.05000000    41.38000000    23.95000000
   C     61.70000000    40.78000000    23.56000000
   O     61.57000000    40.11000000    22.54000000
   C     63.95000000    40.33000000    24.59000000
   C     64.48000000    39.26000000    23.63000000
   C     65.40000000    38.18000000    24.20000000
   C     65.57000000    37.05000000    23.20000000
   N     66.77000000    36.25000000    23.50000000
   H     63.18000000    42.35000000    25.85000000
   H     63.50000000    41.63000000    23.00000000
   H     63.34000000    39.90000000    25.38000000
   H     64.79000000    40.87000000    25.02000000
   H     65.08000000    39.75000000    22.86000000
   H     63.65000000    38.70000000    23.20000000
   H     64.93000000    37.78000000    25.10000000
   H     66.29000000    38.75000000    24.47000000
   H     65.58000000    37.40000000    22.17000000
   H     64.74000000    36.34000000    23.25000000
   H     66.85000000    35.45000000    22.88000000
   H     67.61000000    36.81000000    23.40000000
   H     66.70000000    35.90000000    24.44000000
   N     60.67000000    40.89000000    24.41000000
   C     59.42000000    40.15000000    24.45000000
   C     58.24000000    41.05000000    24.12000000
   O     57.10000000    40.61000000    24.01000000
   C     59.36000000    39.21000000    25.65000000
   C     59.71000000    39.92000000    26.96000000
   O     60.91000000    39.94000000    27.29000000
   O     58.83000000    40.44000000    27.68000000
   H     60.88000000    41.43000000    25.23000000
   H     59.29000000    39.46000000    23.62000000
   H     60.04000000    38.37000000    25.50000000
   H     58.39000000    38.71000000    25.65000000
   N     58.50000000    42.35000000    23.96000000
   C     57.53000000    43.37000000    23.61000000
   C     56.60000000    43.67000000    24.77000000
   O     55.47000000    43.99000000    24.40000000
   H     59.45000000    42.68000000    23.86000000
   H     56.89000000    43.03000000    22.79000000
   H     57.99000000    44.29000000    23.26000000
   N     56.92000000    43.54000000    26.06000000
   C     55.94000000    43.64000000    27.13000000
   C     55.81000000    44.95000000    27.89000000
   O     54.90000000    45.21000000    28.67000000
   C     56.04000000    42.37000000    27.97000000
   C     56.86000000    42.74000000    29.20000000
   N     56.46000000    42.45000000    30.44000000
   O     57.96000000    43.27000000    29.02000000
   H     57.89000000    43.33000000    26.22000000
   H     54.94000000    43.58000000    26.70000000
   H     56.54000000    41.57000000    27.43000000
   H     55.06000000    42.14000000    28.39000000
   H     55.61000000    41.95000000    30.67000000
   H     57.12000000    42.52000000    31.20000000
   N     56.74000000    45.88000000    27.69000000
   C     56.71000000    47.18000000    28.32000000
   C     57.71000000    47.42000000    29.44000000
   O     57.75000000    48.50000000    30.03000000
   H     57.41000000    45.69000000    26.96000000
   H     55.75000000    47.61000000    28.62000000
   H     57.07000000    47.86000000    27.54000000
   N     58.45000000    46.36000000    29.77000000
   C     59.43000000    46.20000000    30.82000000
   C     60.71000000    45.59000000    30.26000000
   O     60.59000000    44.76000000    29.37000000
   C     58.83000000    45.38000000    31.96000000
   C     57.71000000    46.11000000    32.65000000
   C     57.98000000    46.76000000    33.86000000
   C     56.42000000    46.03000000    32.12000000
   C     56.96000000    47.44000000    34.54000000
   C     55.36000000    46.64000000    32.82000000
   C     55.66000000    47.31000000    34.02000000
   O     54.63000000    47.97000000    34.63000000
   H     58.46000000    45.63000000    29.07000000
   H     59.61000000    47.20000000    31.22000000
   H     59.66000000    45.22000000    32.65000000
   H     58.37000000    44.50000000    31.51000000
   H     58.96000000    46.88000000    34.28000000
   H     56.27000000    45.59000000    31.15000000
   H     57.14000000    48.02000000    35.43000000
   H     54.35000000    46.54000000    32.45000000
   H     53.81000000    47.91000000    34.13000000
   N     61.86000000    46.01000000    30.80000000
   C     63.15000000    45.39000000    30.55000000
   C     63.67000000    44.66000000    31.78000000
   O     63.35000000    45.01000000    32.92000000
   C     64.10000000    46.46000000    30.02000000
   C     63.61000000    46.97000000    28.67000000
   C     65.56000000    46.01000000    29.99000000
   C     64.15000000    48.35000000    28.30000000
   H     61.85000000    46.80000000    31.42000000
   H     62.98000000    44.63000000    29.79000000
   H     64.05000000    47.27000000    30.75000000
   H     62.53000000    46.88000000    28.57000000
   H     64.09000000    46.29000000    27.96000000
   H     65.49000000    45.16000000    29.30000000
   H     66.24000000    46.78000000    29.61000000
   H     65.95000000    45.64000000    30.93000000
   H     63.77000000    49.01000000    29.07000000
   H     65.24000000    48.39000000    28.23000000
   H     63.71000000    48.60000000    27.34000000
   N     64.48000000    43.60000000    31.61000000
   C     65.11000000    42.87000000    32.69000000
   C     66.57000000    42.57000000    32.38000000
   O     67.05000000    42.92000000    31.30000000
   C     64.42000000    41.55000000    33.02000000
   O     64.35000000    40.75000000    31.86000000
   H     64.58000000    43.26000000    30.67000000
   H     65.07000000    43.55000000    33.54000000
   H     63.39000000    41.76000000    33.31000000
   H     64.83000000    40.98000000    33.85000000
   H     63.75000000    41.18000000    31.25000000
   N     67.31000000    41.87000000    33.24000000
   C     68.76000000    41.86000000    33.16000000
   C     69.24000000    40.96000000    32.04000000
   O     70.29000000    41.22000000    31.46000000
   C     69.39000000    41.40000000    34.47000000
   H     66.89000000    41.65000000    34.14000000
   H     69.10000000    42.87000000    32.94000000
   H     70.46000000    41.57000000    34.43000000
   H     69.01000000    42.03000000    35.28000000
   H     69.10000000    40.37000000    34.63000000
   N     68.57000000    39.81000000    31.88000000
   C     68.60000000    38.88000000    30.77000000
   C     68.29000000    39.56000000    29.45000000
   O     68.74000000    39.08000000    28.42000000
   C     67.73000000    37.66000000    31.03000000
   H     67.80000000    39.58000000    32.50000000
   H     69.59000000    38.44000000    30.63000000
   H     67.51000000    37.07000000    30.14000000
   H     68.23000000    37.04000000    31.77000000
   H     66.82000000    37.94000000    31.57000000
   N     67.34000000    40.51000000    29.39000000
   C     66.97000000    41.17000000    28.15000000
   C     68.03000000    42.20000000    27.80000000
   O     68.57000000    42.15000000    26.69000000
   C     65.57000000    41.70000000    28.41000000
   C     64.50000000    40.62000000    28.57000000
   C     63.20000000    41.36000000    28.88000000
   O     62.72000000    42.16000000    28.05000000
   O     62.73000000    41.38000000    30.04000000
   H     66.90000000    40.84000000    30.23000000
   H     66.96000000    40.43000000    27.35000000
   H     65.29000000    42.45000000    27.66000000
   H     65.62000000    42.31000000    29.31000000
   H     64.74000000    40.03000000    29.45000000
   H     64.48000000    40.01000000    27.67000000
   N     68.52000000    42.96000000    28.78000000
   C     69.56000000    43.92000000    28.47000000
   H     70.45200000    43.39200000    28.13200000
   H     69.21400000    44.58900000    27.68200000
   H     69.79800000    44.50000000    29.36200000
   H     68.17000000    42.87000000    29.72000000
  Ca     60.34000000    42.27000000    28.80000000
   O     60.81000000    42.67000000    31.48000000
   H     60.77000000    42.65000000    32.44000000
   H     61.58000000    42.14000000    31.26000000

Ca 1.70



